total_Ti
1.0
8.805261 0.000000 0.000000
-4.402631 7.625580 0.000000
0.000000 0.000000 31.883422
Ti
90
direct
0.967272 0.027818 0.564135 Ti
0.967272 0.527818 0.564135 Ti
0.467272 0.027818 0.564135 Ti
0.467272 0.527818 0.564135 Ti
0.133938 0.361151 0.767132 Ti
0.133938 0.861151 0.767132 Ti
0.633938 0.361151 0.767132 Ti
0.633938 0.861151 0.767132 Ti
0.300605 0.194485 0.796132 Ti
0.300605 0.694485 0.796132 Ti
0.800605 0.194485 0.796132 Ti
0.800605 0.694485 0.796132 Ti
0.133938 0.361151 0.593134 Ti
0.133938 0.861151 0.593134 Ti
0.633938 0.361151 0.593134 Ti
0.633938 0.861151 0.593134 Ti
0.300605 0.194485 0.622134 Ti
0.300605 0.694485 0.622134 Ti
0.800605 0.194485 0.622134 Ti
0.800605 0.694485 0.622134 Ti
0.967272 0.027818 0.651134 Ti
0.967272 0.527818 0.651134 Ti
0.467272 0.027818 0.651134 Ti
0.467272 0.527818 0.651134 Ti
0.133938 0.361151 0.680133 Ti
0.133938 0.861151 0.680133 Ti
0.633938 0.361151 0.680133 Ti
0.633938 0.861151 0.680133 Ti
0.300605 0.194485 0.709133 Ti
0.300605 0.694485 0.709133 Ti
0.800605 0.194485 0.709133 Ti
0.800605 0.694485 0.709133 Ti
0.967272 0.027818 0.738133 Ti
0.967272 0.527818 0.738133 Ti
0.467272 0.027818 0.738133 Ti
0.467272 0.527818 0.738133 Ti
0.111111 0.888889 -0.000000 Ti
0.111111 0.888889 0.288214 Ti
0.111111 0.555556 -0.000000 Ti
0.222222 0.777778 0.072053 Ti
0.111111 0.555556 0.288214 Ti
0.444444 0.888889 -0.000000 Ti
0.111111 0.222222 -0.000000 Ti
0.222222 0.777778 0.360267 Ti
0.222222 0.444444 0.072053 Ti
0.444444 0.888889 0.288214 Ti
0.111111 0.222222 0.288214 Ti
0.444444 0.555556 -0.000000 Ti
0.222222 0.444444 0.360267 Ti
0.555556 0.777778 0.072053 Ti
0.222222 0.111111 0.072053 Ti
0.444444 0.555556 0.288214 Ti
0.777778 0.888889 -0.000000 Ti
0.444444 0.222222 -0.000000 Ti
0.555556 0.777778 0.360267 Ti
0.222222 0.111111 0.360267 Ti
0.555556 0.444444 0.072053 Ti
0.777778 0.888889 0.288214 Ti
0.444444 0.222222 0.288214 Ti
0.777778 0.555556 -0.000000 Ti
0.555556 0.444444 0.360267 Ti
0.888889 0.777778 0.072053 Ti
0.555556 0.111111 0.072053 Ti
0.777778 0.555556 0.288214 Ti
0.777778 0.222222 -0.000000 Ti
0.888889 0.777778 0.360267 Ti
0.555556 0.111111 0.360267 Ti
0.888889 0.444444 0.072053 Ti
0.777778 0.222222 0.288214 Ti
0.888889 0.444444 0.360267 Ti
0.888889 0.111111 0.072053 Ti
0.888889 0.111111 0.360267 Ti
0.111111 0.888889 0.144107 Ti
0.111111 0.555556 0.144107 Ti
0.222222 0.777778 0.216160 Ti
0.444444 0.888889 0.144107 Ti
0.111111 0.222222 0.144107 Ti
0.222222 0.444444 0.216160 Ti
0.444444 0.555556 0.144107 Ti
0.555556 0.777778 0.216160 Ti
0.222222 0.111111 0.216160 Ti
0.777778 0.888889 0.144107 Ti
0.444444 0.222222 0.144107 Ti
0.555556 0.444444 0.216160 Ti
0.777778 0.555556 0.144107 Ti
0.888889 0.777778 0.216160 Ti
0.555556 0.111111 0.216160 Ti
0.777778 0.222222 0.144107 Ti
0.888889 0.444444 0.216160 Ti
0.888889 0.111111 0.216160 Ti
