alpha_Ti
1.0
4.756512 0.000000 0.000000
0.000000 4.675432 0.000000
0.000000 0.000000 19.311800
Ti
12
direct
0.333333 0.750000 0.373067 Ti
0.333333 0.750000 0.223840 Ti
0.333333 0.750000 0.074613 Ti
0.833334 0.750000 0.298454 Ti
0.833334 0.750000 0.149227 Ti
0.833334 0.750000 -0.000000 Ti
0.166666 0.250000 0.298454 Ti
0.166666 0.250000 0.149227 Ti
0.166666 0.250000 -0.000000 Ti
0.666667 0.250000 0.373067 Ti
0.666667 0.250000 0.223840 Ti
0.666667 0.250000 0.074613 Ti
