Ti82 Al1
1.0
6.391540 0.000000 0.000000
0.000000 9.587310 0.000000
0.000000 0.000000 23.271695
Ti Al
82 1
Selective dynamics
direct
0.124572 0.083424 0.580731 F F F Ti
0.623533 0.083436 0.580910 F F F Ti
0.124963 0.083344 0.709570 F F F Ti
0.624887 0.083342 0.709586 F F F Ti
0.125004 0.083337 0.838431 F F F Ti
0.624990 0.083337 0.838434 F F F Ti
0.124929 0.417517 0.581304 F F F Ti
0.625154 0.416845 0.580726 F F F Ti
0.125000 0.416732 0.709647 F F F Ti
0.624937 0.416702 0.709592 F F F Ti
0.125003 0.416671 0.838444 F F F Ti
0.624984 0.416667 0.838440 F F F Ti
0.124962 0.750111 0.580775 F F F Ti
0.624906 0.750003 0.580776 F F F Ti
0.124993 0.750069 0.709599 F F F Ti
0.624926 0.750079 0.709603 F F F Ti
0.124998 0.750016 0.838442 F F F Ti
0.624981 0.750018 0.838443 F F F Ti
0.374908 0.250088 0.645140 F F F Ti
0.874720 0.250024 0.645225 F F F Ti
0.374998 0.249997 0.773999 F F F Ti
0.874965 0.249996 0.774016 F F F Ti
0.374995 0.249987 0.902854 F F F Ti
0.875016 0.249987 0.902857 F F F Ti
0.375260 0.583539 0.645216 F F F Ti
0.874746 0.583552 0.645260 F F F Ti
0.375018 0.583366 0.774023 F F F Ti
0.874961 0.583365 0.774030 F F F Ti
0.374991 0.583318 0.902860 F F F Ti
0.875002 0.583318 0.902861 F F F Ti
0.374812 0.916686 0.645105 F F F Ti
0.874829 0.916673 0.645174 F F F Ti
0.374969 0.916684 0.773993 F F F Ti
0.874978 0.916678 0.774007 F F F Ti
0.374983 0.916676 0.902850 F F F Ti
0.875010 0.916674 0.902852 F F F Ti
0.632467 0.166887 0.386326 F F F Ti
0.124808 0.666058 0.386708 F F F Ti
0.626417 0.665658 0.386647 F F F Ti
0.125021 0.166665 -0.000011 F F F Ti
0.625013 0.166661 -0.000018 F F F Ti
0.125018 0.666654 -0.000025 F F F Ti
0.625014 0.666649 -0.000029 F F F Ti
0.125032 0.833304 0.096620 F F F Ti
0.625094 0.833300 0.096603 F F F Ti
0.124559 0.832454 0.483561 F F F Ti
0.624738 0.832667 0.483636 F F F Ti
0.125076 0.333297 0.096663 F F F Ti
0.625064 0.333331 0.096637 F F F Ti
0.121424 0.338565 0.484998 F F F Ti
0.625757 0.333996 0.483529 F F F Ti
0.375688 0.583979 0.483612 F F F Ti
0.874242 0.584219 0.483653 F F F Ti
0.375025 0.583283 0.096622 F F F Ti
0.875108 0.583276 0.096615 F F F Ti
0.375041 0.083334 0.096642 F F F Ti
0.875132 0.083330 0.096635 F F F Ti
0.866694 0.082100 0.484938 F F F Ti
0.377809 0.418953 0.386662 F F F Ti
0.874891 0.417575 0.386768 F F F Ti
0.381576 0.910871 0.385867 F F F Ti
0.872703 0.914421 0.386761 F F F Ti
0.374997 0.416649 -0.000015 F F F Ti
0.875024 0.416646 -0.000015 F F F Ti
0.375005 0.916663 -0.000020 F F F Ti
0.875023 0.916665 -0.000020 F F F Ti
0.377520 0.082725 0.289576 F F F Ti
0.876056 0.082895 0.289970 F F F Ti
0.125253 0.166611 0.193369 F F F Ti
0.625493 0.166657 0.193240 F F F Ti
0.125712 0.333219 0.290118 F F F Ti
0.626012 0.333435 0.289874 F F F Ti
0.375133 0.416575 0.193312 F F F Ti
0.875318 0.416551 0.193312 F F F Ti
0.375298 0.583301 0.289846 F F F Ti
0.875634 0.583137 0.289868 F F F Ti
0.125109 0.666524 0.193246 F F F Ti
0.625239 0.666438 0.193187 F F F Ti
0.125165 0.832919 0.289902 F F F Ti
0.626426 0.832624 0.289606 F F F Ti
0.375166 0.916477 0.193206 F F F Ti
0.875231 0.916624 0.193263 F F F Ti
0.185574 0.142448 0.410822 T T T Al

0.000000 0.000000 0.000000
0.000000 0.000000 0.000000
0.000000 0.000000 0.000000
0.000000 0.000000 0.000000
0.000000 0.000000 0.000000
0.000000 0.000000 0.000000
0.000000 0.000000 0.000000
0.000000 0.000000 0.000000
0.000000 0.000000 0.000000
0.000000 0.000000 0.000000
0.000000 0.000000 0.000000
0.000000 0.000000 0.000000
0.000000 0.000000 0.000000
0.000000 0.000000 0.000000
0.000000 0.000000 0.000000
0.000000 0.000000 0.000000
0.000000 0.000000 0.000000
0.000000 0.000000 0.000000
0.000000 0.000000 0.000000
0.000000 0.000000 0.000000
0.000000 0.000000 0.000000
0.000000 0.000000 0.000000
0.000000 0.000000 0.000000
0.000000 0.000000 0.000000
0.000000 0.000000 0.000000
0.000000 0.000000 0.000000
0.000000 0.000000 0.000000
0.000000 0.000000 0.000000
0.000000 0.000000 0.000000
0.000000 0.000000 0.000000
0.000000 0.000000 0.000000
0.000000 0.000000 0.000000
0.000000 0.000000 0.000000
0.000000 0.000000 0.000000
0.000000 0.000000 0.000000
0.000000 0.000000 0.000000
0.000000 0.000000 0.000000
0.000000 0.000000 0.000000
0.000000 0.000000 0.000000
0.000000 0.000000 0.000000
0.000000 0.000000 0.000000
0.000000 0.000000 0.000000
0.000000 0.000000 0.000000
0.000000 0.000000 0.000000
0.000000 0.000000 0.000000
0.000000 0.000000 0.000000
0.000000 0.000000 0.000000
0.000000 0.000000 0.000000
0.000000 0.000000 0.000000
0.000000 0.000000 0.000000
0.000000 0.000000 0.000000
0.000000 0.000000 0.000000
0.000000 0.000000 0.000000
0.000000 0.000000 0.000000
0.000000 0.000000 0.000000
0.000000 0.000000 0.000000
0.000000 0.000000 0.000000
0.000000 0.000000 0.000000
0.000000 0.000000 0.000000
0.000000 0.000000 0.000000
0.000000 0.000000 0.000000
0.000000 0.000000 0.000000
0.000000 0.000000 0.000000
0.000000 0.000000 0.000000
0.000000 0.000000 0.000000
0.000000 0.000000 0.000000
0.000000 0.000000 0.000000
0.000000 0.000000 0.000000
0.000000 0.000000 0.000000
0.000000 0.000000 0.000000
0.000000 0.000000 0.000000
0.000000 0.000000 0.000000
0.000000 0.000000 0.000000
0.000000 0.000000 0.000000
0.000000 0.000000 0.000000
0.000000 0.000000 0.000000
0.000000 0.000000 0.000000
0.000000 0.000000 0.000000
0.000000 0.000000 0.000000
0.000000 0.000000 0.000000
0.000000 0.000000 0.000000
0.000000 0.000000 0.000000
0.000000 0.000000 0.000000
