total_Ti
1.0
4.756510 0.000000 0.000000
0.000000 4.675430 0.000000
0.000000 0.000000 31.211761
Ti
24
direct
0.333333 0.750000 0.230829 Ti
0.333333 0.750000 0.138498 Ti
0.333333 0.750000 0.046166 Ti
0.833334 0.750000 0.184664 Ti
0.833334 0.750000 0.092332 Ti
0.833334 0.750000 -0.000000 Ti
0.166666 0.250000 0.184663 Ti
0.166666 0.250000 0.092332 Ti
0.166666 0.250000 -0.000000 Ti
0.666667 0.250000 0.230829 Ti
0.666667 0.250000 0.138498 Ti
0.666667 0.250000 0.046166 Ti
0.750000 0.750000 0.743688 Ti
0.250000 0.250000 0.743688 Ti
0.250000 0.750000 0.692380 Ti
0.750000 0.250000 0.692380 Ti
0.750000 0.750000 0.641070 Ti
0.250000 0.250000 0.641070 Ti
0.250000 0.750000 0.589761 Ti
0.750000 0.250000 0.589761 Ti
0.750000 0.750000 0.538452 Ti
0.250000 0.250000 0.538452 Ti
0.250000 0.750000 0.487143 Ti
0.750000 0.250000 0.487143 Ti
