beta_Ti
1.0
4.756510 0.000000 0.000000
0.000000 4.675430 0.000000
0.000000 0.000000 31.211761
Ti
12
direct
0.750000 0.750000 0.743688 Ti
0.250000 0.250000 0.743688 Ti
0.250000 0.750000 0.692380 Ti
0.750000 0.250000 0.692380 Ti
0.750000 0.750000 0.641070 Ti
0.250000 0.250000 0.641070 Ti
0.250000 0.750000 0.589761 Ti
0.750000 0.250000 0.589761 Ti
0.750000 0.750000 0.538452 Ti
0.250000 0.250000 0.538452 Ti
0.250000 0.750000 0.487143 Ti
0.750000 0.250000 0.487143 Ti
