Ti66 Al1
1.0
6.309760 0.000000 0.000000
0.000000 9.464640 0.000000
0.000000 0.000000 18.918326
Ti Al
66 1
Selective dynamics
direct
0.625474 -0.004157 0.483191 T T T Ti
0.124945 0.034578 0.652532 T T T Ti
0.625017 0.040971 0.637208 T T T Ti
0.124987 0.041686 0.817227 F F F Ti
0.624998 0.041690 0.817238 F F F Ti
0.124981 0.376866 0.488409 T T T Ti
0.625012 0.352671 0.509141 T T T Ti
0.124963 0.330071 0.635849 T T T Ti
0.624957 0.339709 0.650155 T T T Ti
0.124979 0.375102 0.817173 F F F Ti
0.624985 0.375096 0.817190 F F F Ti
0.124932 0.661079 0.484260 T T T Ti
0.624980 0.668816 0.490452 T T T Ti
0.124959 0.718575 0.654548 T T T Ti
0.624948 0.731213 0.645632 T T T Ti
0.124975 0.708353 0.817206 F F F Ti
0.624985 0.708350 0.817220 F F F Ti
0.335316 0.153353 0.531039 T T T Ti
0.914785 0.153393 0.531080 T T T Ti
0.375022 0.208378 0.738024 F F F Ti
0.874963 0.208383 0.738027 F F F Ti
0.374992 0.208364 0.896462 F F F Ti
0.874999 0.208364 0.896462 F F F Ti
0.378807 0.530729 0.585651 T T T Ti
0.871175 0.530731 0.585656 T T T Ti
0.375027 0.541833 0.737929 F F F Ti
0.874957 0.541832 0.737930 F F F Ti
0.375001 0.541692 0.896444 F F F Ti
0.874988 0.541692 0.896444 F F F Ti
0.336882 0.863778 0.555067 T T T Ti
0.913189 0.863739 0.555087 T T T Ti
0.375038 0.875030 0.737990 F F F Ti
0.874946 0.875025 0.737993 F F F Ti
0.375000 0.874998 0.896469 F F F Ti
0.874994 0.874998 0.896470 F F F Ti
0.124961 0.637264 0.356923 T T T Ti
0.624799 0.661147 0.357828 T T T Ti
0.124981 0.624936 0.118849 F F F Ti
0.624998 0.624938 0.118868 F F F Ti
0.625986 0.154638 0.373619 T T T Ti
0.125025 0.124916 0.118835 F F F Ti
0.625005 0.124927 0.118831 F F F Ti
0.124979 0.374973 0.039593 F F F Ti
0.624995 0.374964 0.039604 F F F Ti
0.125000 0.874964 0.039621 F F F Ti
0.624999 0.874964 0.039630 F F F Ti
0.124843 0.381345 0.282555 T T T Ti
0.624847 0.405217 0.274296 T T T Ti
0.125133 0.897425 0.281727 T T T Ti
0.624951 0.905941 0.284720 T T T Ti
0.374861 0.874847 0.158466 F F F Ti
0.875144 0.874844 0.158468 F F F Ti
0.374864 0.374855 0.158422 F F F Ti
0.875115 0.374864 0.158419 F F F Ti
0.408588 0.415873 0.393751 T T T Ti
0.841375 0.415985 0.393754 T T T Ti
0.342857 0.887406 0.403624 T T T Ti
0.907225 0.887278 0.403604 T T T Ti
0.362714 0.634625 0.243139 T T T Ti
0.887232 0.634638 0.243144 T T T Ti
0.375003 0.624985 -0.000014 F F F Ti
0.874985 0.624988 -0.000015 F F F Ti
0.380809 0.140203 0.249460 T T T Ti
0.869217 0.140182 0.249408 T T T Ti
0.374992 0.124974 -0.000019 F F F Ti
0.875003 0.124972 -0.000019 F F F Ti
0.124356 0.149011 0.385124 T T T Al

0.000000 0.000000 0.000000
0.000000 0.000000 0.000000
0.000000 0.000000 0.000000
0.000000 0.000000 0.000000
0.000000 0.000000 0.000000
0.000000 0.000000 0.000000
0.000000 0.000000 0.000000
0.000000 0.000000 0.000000
0.000000 0.000000 0.000000
0.000000 0.000000 0.000000
0.000000 0.000000 0.000000
0.000000 0.000000 0.000000
0.000000 0.000000 0.000000
0.000000 0.000000 0.000000
0.000000 0.000000 0.000000
0.000000 0.000000 0.000000
0.000000 0.000000 0.000000
0.000000 0.000000 0.000000
0.000000 0.000000 0.000000
0.000000 0.000000 0.000000
0.000000 0.000000 0.000000
0.000000 0.000000 0.000000
0.000000 0.000000 0.000000
0.000000 0.000000 0.000000
0.000000 0.000000 0.000000
0.000000 0.000000 0.000000
0.000000 0.000000 0.000000
0.000000 0.000000 0.000000
0.000000 0.000000 0.000000
0.000000 0.000000 0.000000
0.000000 0.000000 0.000000
0.000000 0.000000 0.000000
0.000000 0.000000 0.000000
0.000000 0.000000 0.000000
0.000000 0.000000 0.000000
0.000000 0.000000 0.000000
0.000000 0.000000 0.000000
0.000000 0.000000 0.000000
0.000000 0.000000 0.000000
0.000000 0.000000 0.000000
0.000000 0.000000 0.000000
0.000000 0.000000 0.000000
0.000000 0.000000 0.000000
0.000000 0.000000 0.000000
0.000000 0.000000 0.000000
0.000000 0.000000 0.000000
0.000000 0.000000 0.000000
0.000000 0.000000 0.000000
0.000000 0.000000 0.000000
0.000000 0.000000 0.000000
0.000000 0.000000 0.000000
0.000000 0.000000 0.000000
0.000000 0.000000 0.000000
0.000000 0.000000 0.000000
0.000000 0.000000 0.000000
0.000000 0.000000 0.000000
0.000000 0.000000 0.000000
0.000000 0.000000 0.000000
0.000000 0.000000 0.000000
0.000000 0.000000 0.000000
0.000000 0.000000 0.000000
0.000000 0.000000 0.000000
0.000000 0.000000 0.000000
0.000000 0.000000 0.000000
0.000000 0.000000 0.000000
0.000000 0.000000 0.000000
0.000000 0.000000 0.000000
