total_structure
1.0
   3.5061499999999999    0.0000000000000000    0.0000000000000002
   0.0000000000000019   12.0001999999999995    0.0000000000000007
   0.0000000000000000    0.0000000000000000   28.5716049620000021
Cr Fe N
16 36 16
Selective dynamics
direct
   0.0000000000000000    0.0000000000000000    0.2200198704399264 F F F Cr
  -0.0000000000000000    0.2500000000000000    0.2200198704399264 F F F Cr
   0.5000000000000000    0.1250000000000000    0.1466767764909853 F F F Cr
   0.5000000000000000    0.3750000000000000    0.1466767764909853 F F F Cr
   0.0000000000000000    0.0000000000000000    0.0733430939489412 F F F Cr
  -0.0000000000000000    0.2500000000000000    0.0733430939489412 F F F Cr
   0.5000000000000000    0.1250000000000000   -0.0000000000000000 F F F Cr
   0.5000000000000000    0.3750000000000000   -0.0000000000000000 F F F Cr
  -0.0000000000000000    0.5000000000000000    0.2200198704399264 F F F Cr
  -0.0000000000000000    0.7500000000000000    0.2200198704399264 F F F Cr
   0.5000000000000000    0.6250000000000000    0.1466767764909853 F F F Cr
   0.4999999999999999    0.8749999999999999    0.1466767764909853 F F F Cr
  -0.0000000000000000    0.5000000000000000    0.0733430939489412 F F F Cr
  -0.0000000000000000    0.7500000000000000    0.0733430939489412 F F F Cr
   0.5000000000000000    0.6250000000000000   -0.0000000000000000 F F F Cr
   0.4999999999999999    0.8749999999999999   -0.0000000000000000 F F F Cr
   0.9933200000000000    0.7184400000000000    0.6499991889045074 F F F Fe
   0.4933200000000000    0.5543100000000000    0.6378490626003775 F F F Fe
   0.4933200000000000    0.7391600000000000    0.6006551825431190 F F F Fe
   0.9933200000000000    0.5750200000000000    0.5885050562389894 F F F Fe
   0.9933200000000001    0.3901700000000000    0.6256895248893508 F F F Fe
   0.4933200000000000    0.2260400000000000    0.6135393985852210 F F F Fe
   0.4933200000000000    0.4108899999999999    0.5763455185279625 F F F Fe
   0.9933200000000001    0.2467500000000000    0.5641953922238329 F F F Fe
   0.9933200000000000    0.0619000000000000    0.6013798608741941 F F F Fe
   0.4933200000000000    0.8977699999999998    0.5892297345700646 F F F Fe
   0.4933200000000000    0.0826200000000000    0.5520358545128060 F F F Fe
   0.9933200000000000    0.9184800000000000    0.5398857282086762 F F F Fe
   0.9933200000000000    0.7598700000000000    0.5513205875886279 F F F Fe
   0.4933200000000000    0.5957300000000000    0.5391610498776012 F F F Fe
   0.4933200000000000    0.7805800000000001    0.5019765812272398 F F F Fe
   0.9933200000000001    0.6164500000000001    0.4898170435162129 F F F Fe
   0.9933200000000001    0.4315999999999999    0.5270109235734713 F F F Fe
   0.4933200000000000    0.2674600000000000    0.5148513858624446 F F F Fe
   0.4933200000000000    0.4523100000000000    0.4776669172120832 F F F Fe
   0.9933200000000001    0.2881800000000000    0.4655073795010563 F F F Fe
   0.9933199999999999    0.1033300000000000    0.5027012595583148 F F F Fe
   0.4933200000000000    0.9391999999999999    0.4905417218472879 F F F Fe
   0.4933200000000000    0.1240400000000000    0.4533572531969266 F F F Fe
   0.9933200000000000    0.9599100000000000    0.4411977154858998 F F F Fe
   0.9933200000000000    0.8013000000000000    0.4526325748658514 F F F Fe
   0.4933200000000000    0.6371599999999998    0.4404824485617218 F F F Fe
   0.4933200000000000    0.8220099999999999    0.4032885685044632 F F F Fe
   0.9933200000000001    0.6578799999999999    0.3911384422003335 F F F Fe
   0.9933200000000001    0.4730300000000000    0.4283229108506949 F F F Fe
   0.4933200000000000    0.3088900000000000    0.4161727845465651 F F F Fe
   0.4933200000000000    0.4937400000000000    0.3789789044893067 F F F Fe
   0.9933200000000000    0.3296100000000000    0.3668287781851770 F F F Fe
   0.9933200000000001    0.1447600000000000    0.4040132468355384 F F F Fe
   0.4933200000000000    0.9806200000000000    0.3918631205314085 F F F Fe
   0.4933200000000000    0.1654700000000000    0.3546692404741501 F F F Fe
   0.9933200000000000    0.0013400000000000    0.3425191141700204 F F F Fe
   0.5000000000000000    0.1250000000000000    0.2200198704399264 F F F N
   0.5000000000000000    0.3750000000000000    0.2200198704399264 F F F N
   0.0000000000000000    0.0000000000000000    0.1466767764909853 F F F N
  -0.0000000000000000    0.2500000000000000    0.1466767764909853 F F F N
   0.5000000000000000    0.1250000000000000    0.0733430939489412 F F F N
   0.5000000000000000    0.3750000000000000    0.0733430939489412 F F F N
   0.0000000000000000    0.0000000000000000    0.0000000000000000 F F F N
  -0.0000000000000000    0.2500000000000000   -0.0000000000000000 F F F N
   0.5000000000000000    0.6250000000000000    0.2200198704399264 F F F N
   0.4999999999999999    0.8749999999999999    0.2200198704399264 F F F N
  -0.0000000000000000    0.5000000000000000    0.1466767764909853 F F F N
  -0.0000000000000000    0.7500000000000000    0.1466767764909853 F F F N
   0.5000000000000000    0.6250000000000000    0.0733430939489412 F F F N
   0.4999999999999999    0.8749999999999999    0.0733430939489412 F F F N
  -0.0000000000000000    0.5000000000000000   -0.0000000000000000 F F F N
  -0.0000000000000000    0.7500000000000000   -0.0000000000000000 F F F N
