beta_Ti
1.0
6.309760 0.000000 0.000000
0.000000 9.464640 0.000000
0.000000 0.000000 19.100004
Ti
36
direct
0.125000 0.041667 0.500000 Ti
0.625000 0.041667 0.500000 Ti
0.125000 0.041667 0.657068 Ti
0.625000 0.041667 0.657068 Ti
0.125000 0.041667 0.814136 Ti
0.625000 0.041667 0.814136 Ti
0.125000 0.375000 0.500000 Ti
0.625000 0.375000 0.500000 Ti
0.125000 0.375000 0.657068 Ti
0.625000 0.375000 0.657068 Ti
0.125000 0.375000 0.814136 Ti
0.625000 0.375000 0.814136 Ti
0.125000 0.708333 0.500000 Ti
0.625000 0.708333 0.500000 Ti
0.125000 0.708333 0.657068 Ti
0.625000 0.708333 0.657068 Ti
0.125000 0.708333 0.814136 Ti
0.625000 0.708333 0.814136 Ti
0.375000 0.208333 0.578534 Ti
0.875000 0.208333 0.578534 Ti
0.375000 0.208333 0.735602 Ti
0.875000 0.208333 0.735602 Ti
0.375000 0.208333 0.892670 Ti
0.875000 0.208333 0.892670 Ti
0.375000 0.541667 0.578534 Ti
0.875000 0.541667 0.578534 Ti
0.375000 0.541667 0.735602 Ti
0.875000 0.541667 0.735602 Ti
0.375000 0.541667 0.892670 Ti
0.875000 0.541667 0.892670 Ti
0.375000 0.875000 0.578534 Ti
0.875000 0.875000 0.578534 Ti
0.375000 0.875000 0.735602 Ti
0.875000 0.875000 0.735602 Ti
0.375000 0.875000 0.892670 Ti
0.875000 0.875000 0.892670 Ti
