VASP @ Device Studio
# Basic setup:
 ISPIN = 1
 ICHARG = 2

#Basis Set 
 LSORBIT = .FALSE.
 LDAU = .FALSE.

# Accuracy controls:
 PREC = Normal
 LREAL= Auto
 ENCUT= 450

# Electronic loop controls:
 ALGO = Normal
 EDIFF = 5e-06
 NELM = 100
 ISMEAR = -1
 SIGMA = 0.02

# Relaxation control:
 ISIF = 2
 IBRION = -1
 NSW = 1

# Properties:
 LCHARG = .TRUE.
 LWAVE = .FALSE. 
 LELF = .FALSE.
 LVTOT = .FALSE.
 LVHAR = .FALSE.
 LORBIT = 0
 KPAR = 2
 NCORE = 4
 GGA = PS
 
 SYMPREC=1e-04
