substance_top
1.0
   3.5061499999999999    0.0000000000000000    0.0000000000000002
   0.0000000000000019   12.0001999999999995    0.0000000000000007
   0.0000000000000000    0.0000000000000000   26.7116049620000027
Fe
36
Selective dynamics
direct
   0.9933200000000000    0.7184400000000000    0.6256277028195741 F F F Fe
   0.4933200000000000    0.5543100000000000    0.6126315309499373 F F F Fe
   0.4933200000000000    0.7391600000000000    0.5728477422366874 F F F Fe
   0.9933200000000000    0.5750200000000000    0.5598515703670506 F F F Fe
   0.9933200000000001    0.3901700000000000    0.5996252923321441 F F F Fe
   0.4933200000000000    0.2260400000000000    0.5866291204625069 F F F Fe
   0.4933200000000000    0.4108899999999999    0.5468453317492573 F F F Fe
   0.9933200000000001    0.2467500000000000    0.5338491598796203 F F F Fe
   0.9933200000000000    0.0619000000000000    0.5736228818447139 F F F Fe
   0.4933200000000000    0.8977699999999998    0.5606267099750769 F F F Fe
   0.4933200000000000    0.0826200000000000    0.5208429212618272 F F F Fe
   0.9933200000000000    0.9184800000000000    0.5078467493921902 F F F Fe
   0.9933200000000000    0.7598700000000000    0.5200778484019569 F F F Fe
   0.4933200000000000    0.5957300000000000    0.5070716097841639 F F F Fe
   0.4933200000000000    0.7805800000000001    0.4672978878190703 F F F Fe
   0.9933200000000001    0.6164500000000001    0.4542916492012771 F F F Fe
   0.9933200000000001    0.4315999999999999    0.4940754379145268 F F F Fe
   0.4933200000000000    0.2674600000000000    0.4810691992967337 F F F Fe
   0.4933200000000000    0.4523100000000000    0.4412954773316403 F F F Fe
   0.9933200000000001    0.2881800000000000    0.4282892387138470 F F F Fe
   0.9933199999999999    0.1033300000000000    0.4680730274270967 F F F Fe
   0.4933200000000000    0.9391999999999999    0.4550667888093035 F F F Fe
   0.4933200000000000    0.1240400000000000    0.4152930668442101 F F F Fe
   0.9933200000000000    0.9599100000000000    0.4022868282264169 F F F Fe
   0.9933200000000000    0.8013000000000000    0.4145179272361836 F F F Fe
   0.4933200000000000    0.6371599999999998    0.4015217553665467 F F F Fe
   0.4933200000000000    0.8220099999999999    0.3617379666532970 F F F Fe
   0.9933200000000001    0.6578799999999999    0.3487417947836601 F F F Fe
   0.9933200000000001    0.4730300000000000    0.3885155167487535 F F F Fe
   0.4933200000000000    0.3088900000000000    0.3755193448791165 F F F Fe
   0.4933200000000000    0.4937400000000000    0.3357355561658669 F F F Fe
   0.9933200000000000    0.3296100000000000    0.3227393842962299 F F F Fe
   0.9933200000000001    0.1447600000000000    0.3625131062613234 F F F Fe
   0.4933200000000000    0.9806200000000000    0.3495169343916863 F F F Fe
   0.4933200000000000    0.1654700000000000    0.3097331456784367 F F F Fe
   0.9933200000000000    0.0013400000000000    0.2967369738087997 F F F Fe
