alpha_Ti
1.0
4.756510 0.000000 0.000000
0.000000 4.675430 0.000000
0.000000 0.000000 20.211761
Ti
12
direct
0.333333 0.750000 0.356455 Ti
0.333333 0.750000 0.213874 Ti
0.333333 0.750000 0.071291 Ti
0.833334 0.750000 0.285165 Ti
0.833334 0.750000 0.142583 Ti
0.833334 0.750000 -0.000000 Ti
0.166666 0.250000 0.285164 Ti
0.166666 0.250000 0.142583 Ti
0.166666 0.250000 -0.000000 Ti
0.666667 0.250000 0.356455 Ti
0.666667 0.250000 0.213874 Ti
0.666667 0.250000 0.071291 Ti
