Ti82 Mo1
1.0
6.391540 0.000000 0.000000
0.000000 9.587310 0.000000
0.000000 0.000000 23.271695
Ti Mo
82 1
Selective dynamics
direct
0.123371 0.083466 0.581010 F F F Ti
0.622983 0.083566 0.580703 F F F Ti
0.124885 0.083360 0.709598 F F F Ti
0.624760 0.083365 0.709552 F F F Ti
0.124993 0.083342 0.838434 F F F Ti
0.624973 0.083343 0.838428 F F F Ti
0.124695 0.417968 0.581564 F F F Ti
0.625004 0.416946 0.580709 F F F Ti
0.124948 0.416766 0.709691 F F F Ti
0.624853 0.416717 0.709599 F F F Ti
0.124992 0.416673 0.838453 F F F Ti
0.624968 0.416669 0.838443 F F F Ti
0.124751 0.750035 0.580908 F F F Ti
0.624803 0.750166 0.580714 F F F Ti
0.124947 0.750109 0.709629 F F F Ti
0.624850 0.750135 0.709606 F F F Ti
0.124988 0.750029 0.838449 F F F Ti
0.624966 0.750033 0.838445 F F F Ti
0.374809 0.250143 0.645134 F F F Ti
0.874362 0.250079 0.645239 F F F Ti
0.374989 0.250000 0.774002 F F F Ti
0.874901 0.249996 0.774019 F F F Ti
0.375001 0.249986 0.902854 F F F Ti
0.875004 0.249986 0.902856 F F F Ti
0.375359 0.583663 0.645257 F F F Ti
0.874464 0.583655 0.645321 F F F Ti
0.375017 0.583392 0.774038 F F F Ti
0.874908 0.583385 0.774046 F F F Ti
0.374994 0.583325 0.902862 F F F Ti
0.874990 0.583324 0.902862 F F F Ti
0.374742 0.916743 0.645081 F F F Ti
0.874489 0.916708 0.645167 F F F Ti
0.374959 0.916703 0.773992 F F F Ti
0.874918 0.916698 0.774005 F F F Ti
0.374988 0.916680 0.902848 F F F Ti
0.874999 0.916678 0.902850 F F F Ti
0.634570 0.167335 0.385613 F F F Ti
0.124214 0.665658 0.386554 F F F Ti
0.627256 0.665316 0.386527 F F F Ti
0.125016 0.166665 -0.000023 F F F Ti
0.625010 0.166662 -0.000026 F F F Ti
0.125014 0.666655 -0.000039 F F F Ti
0.625017 0.666651 -0.000039 F F F Ti
0.125027 0.833311 0.096588 F F F Ti
0.625096 0.833309 0.096579 F F F Ti
0.122898 0.830451 0.483640 F F F Ti
0.624812 0.832816 0.483463 F F F Ti
0.125065 0.333299 0.096637 F F F Ti
0.625052 0.333323 0.096621 F F F Ti
0.116062 0.343054 0.485186 F F F Ti
0.626167 0.334743 0.483428 F F F Ti
0.375970 0.584357 0.483563 F F F Ti
0.873113 0.584725 0.483605 F F F Ti
0.375027 0.583279 0.096590 F F F Ti
0.875116 0.583262 0.096586 F F F Ti
0.375041 0.083342 0.096619 F F F Ti
0.875132 0.083346 0.096618 F F F Ti
0.865868 0.082752 0.484514 F F F Ti
0.376968 0.419101 0.386470 F F F Ti
0.875501 0.417094 0.386615 F F F Ti
0.382969 0.907322 0.384516 F F F Ti
0.874631 0.915494 0.386680 F F F Ti
0.374995 0.416648 -0.000026 F F F Ti
0.875013 0.416642 -0.000025 F F F Ti
0.375003 0.916666 -0.000030 F F F Ti
0.875014 0.916670 -0.000029 F F F Ti
0.376700 0.082841 0.289610 F F F Ti
0.876845 0.082980 0.289952 F F F Ti
0.125233 0.166641 0.193320 F F F Ti
0.625421 0.166622 0.193229 F F F Ti
0.125679 0.333104 0.290099 F F F Ti
0.625690 0.333502 0.289742 F F F Ti
0.375046 0.416562 0.193263 F F F Ti
0.875328 0.416513 0.193271 F F F Ti
0.375270 0.583219 0.289729 F F F Ti
0.875747 0.582974 0.289787 F F F Ti
0.125060 0.666474 0.193167 F F F Ti
0.625274 0.666404 0.193121 F F F Ti
0.124703 0.832772 0.289705 F F F Ti
0.627170 0.832551 0.289404 F F F Ti
0.375150 0.916503 0.193166 F F F Ti
0.875241 0.916676 0.193205 F F F Ti
0.251781 0.123418 0.436621 T T T Mo

0.000000 0.000000 0.000000
0.000000 0.000000 0.000000
0.000000 0.000000 0.000000
0.000000 0.000000 0.000000
0.000000 0.000000 0.000000
0.000000 0.000000 0.000000
0.000000 0.000000 0.000000
0.000000 0.000000 0.000000
0.000000 0.000000 0.000000
0.000000 0.000000 0.000000
0.000000 0.000000 0.000000
0.000000 0.000000 0.000000
0.000000 0.000000 0.000000
0.000000 0.000000 0.000000
0.000000 0.000000 0.000000
0.000000 0.000000 0.000000
0.000000 0.000000 0.000000
0.000000 0.000000 0.000000
0.000000 0.000000 0.000000
0.000000 0.000000 0.000000
0.000000 0.000000 0.000000
0.000000 0.000000 0.000000
0.000000 0.000000 0.000000
0.000000 0.000000 0.000000
0.000000 0.000000 0.000000
0.000000 0.000000 0.000000
0.000000 0.000000 0.000000
0.000000 0.000000 0.000000
0.000000 0.000000 0.000000
0.000000 0.000000 0.000000
0.000000 0.000000 0.000000
0.000000 0.000000 0.000000
0.000000 0.000000 0.000000
0.000000 0.000000 0.000000
0.000000 0.000000 0.000000
0.000000 0.000000 0.000000
0.000000 0.000000 0.000000
0.000000 0.000000 0.000000
0.000000 0.000000 0.000000
0.000000 0.000000 0.000000
0.000000 0.000000 0.000000
0.000000 0.000000 0.000000
0.000000 0.000000 0.000000
0.000000 0.000000 0.000000
0.000000 0.000000 0.000000
0.000000 0.000000 0.000000
0.000000 0.000000 0.000000
0.000000 0.000000 0.000000
0.000000 0.000000 0.000000
0.000000 0.000000 0.000000
0.000000 0.000000 0.000000
0.000000 0.000000 0.000000
0.000000 0.000000 0.000000
0.000000 0.000000 0.000000
0.000000 0.000000 0.000000
0.000000 0.000000 0.000000
0.000000 0.000000 0.000000
0.000000 0.000000 0.000000
0.000000 0.000000 0.000000
0.000000 0.000000 0.000000
0.000000 0.000000 0.000000
0.000000 0.000000 0.000000
0.000000 0.000000 0.000000
0.000000 0.000000 0.000000
0.000000 0.000000 0.000000
0.000000 0.000000 0.000000
0.000000 0.000000 0.000000
0.000000 0.000000 0.000000
0.000000 0.000000 0.000000
0.000000 0.000000 0.000000
0.000000 0.000000 0.000000
0.000000 0.000000 0.000000
0.000000 0.000000 0.000000
0.000000 0.000000 0.000000
0.000000 0.000000 0.000000
0.000000 0.000000 0.000000
0.000000 0.000000 0.000000
0.000000 0.000000 0.000000
0.000000 0.000000 0.000000
0.000000 0.000000 0.000000
0.000000 0.000000 0.000000
0.000000 0.000000 0.000000
0.000000 0.000000 0.000000
