Ti97
1.0
9.513020 0.000000 0.000000
0.000000 9.350860 0.000000
0.000000 0.000000 18.547230
Ti
97
Selective dynamics
direct
0.149627 0.374900 0.405310 T T T Ti
0.647453 0.342943 0.401186 T T T Ti
0.137196 0.858541 0.393380 T T T Ti
0.664441 0.869234 0.396707 T T T Ti
0.161331 0.371141 0.234720 T T T Ti
0.660135 0.375470 0.234553 T T T Ti
0.162530 0.873860 0.235828 T T T Ti
0.656003 0.870486 0.236306 T T T Ti
0.166666 0.375025 0.077650 F F F Ti
0.666673 0.375010 0.077632 F F F Ti
0.166666 0.874990 0.077647 F F F Ti
0.666676 0.874983 0.077641 F F F Ti
0.405959 0.381051 0.314456 T T T Ti
0.901166 0.373447 0.320451 T T T Ti
0.404440 0.889128 0.326648 T T T Ti
0.909850 0.883702 0.311392 T T T Ti
0.416664 0.375006 0.155311 F F F Ti
0.916680 0.374985 0.155310 F F F Ti
0.416673 0.874985 0.155337 F F F Ti
0.916674 0.874993 0.155331 F F F Ti
0.416665 0.375028 -0.000026 F F F Ti
0.916648 0.375016 -0.000017 F F F Ti
0.416669 0.874985 -0.000041 F F F Ti
0.916649 0.874988 -0.000029 F F F Ti
0.098834 0.126553 0.320450 T T T Ti
0.594041 0.118949 0.314455 T T T Ti
0.090150 0.616298 0.311391 T T T Ti
0.595560 0.610872 0.326647 T T T Ti
0.083321 0.125018 0.155310 F F F Ti
0.583336 0.124998 0.155312 F F F Ti
0.083326 0.625011 0.155331 F F F Ti
0.583327 0.625018 0.155337 F F F Ti
0.083353 0.124988 -0.000017 F F F Ti
0.583335 0.124977 -0.000025 F F F Ti
0.083351 0.625019 -0.000028 F F F Ti
0.583331 0.625023 -0.000041 F F F Ti
0.352546 0.157057 0.401186 T T T Ti
0.850372 0.125100 0.405310 T T T Ti
0.335558 0.630766 0.396707 T T T Ti
0.862803 0.641459 0.393380 T T T Ti
0.339864 0.124531 0.234553 T T T Ti
0.838668 0.128860 0.234720 T T T Ti
0.343996 0.629515 0.236306 T T T Ti
0.837469 0.626140 0.235827 T T T Ti
0.333327 0.124995 0.077633 F F F Ti
0.833333 0.124979 0.077651 F F F Ti
0.333323 0.625023 0.077641 F F F Ti
0.833333 0.625016 0.077647 F F F Ti
0.374999 0.375010 0.823843 F F F Ti
0.874978 0.374970 0.823834 F F F Ti
0.375015 0.874968 0.823777 F F F Ti
0.875035 0.874979 0.823773 F F F Ti
0.125026 0.125028 0.823834 F F F Ti
0.625004 0.124989 0.823843 F F F Ti
0.124966 0.625022 0.823774 F F F Ti
0.624987 0.625028 0.823778 F F F Ti
0.124989 0.375019 0.910124 F F F Ti
0.625006 0.375003 0.910124 F F F Ti
0.125004 0.874978 0.910097 F F F Ti
0.625007 0.874978 0.910096 F F F Ti
0.374996 0.124996 0.910124 F F F Ti
0.875015 0.124981 0.910123 F F F Ti
0.374995 0.625022 0.910096 F F F Ti
0.874999 0.625022 0.910096 F F F Ti
0.389868 0.380219 0.662735 T T T Ti
0.889048 0.376131 0.647148 T T T Ti
0.387803 0.892792 0.649111 T T T Ti
0.889494 0.883727 0.664798 T T T Ti
0.110952 0.123868 0.647148 T T T Ti
0.610131 0.119779 0.662735 T T T Ti
0.110505 0.616271 0.664798 T T T Ti
0.612196 0.607205 0.649111 T T T Ti
0.147135 0.373038 0.568620 T T T Ti
0.636979 0.343641 0.572584 T T T Ti
0.133014 0.857302 0.579811 T T T Ti
0.664553 0.884275 0.579214 T T T Ti
0.363021 0.156358 0.572584 T T T Ti
0.852865 0.126962 0.568620 T T T Ti
0.335447 0.615725 0.579214 T T T Ti
0.866986 0.642697 0.579811 T T T Ti
0.409020 0.404595 0.485343 T T T Ti
0.895990 0.377027 0.487628 T T T Ti
0.335386 0.926990 0.484346 T T T Ti
0.907170 0.880499 0.486723 T T T Ti
0.104010 0.122973 0.487628 T T T Ti
0.590980 0.095404 0.485343 T T T Ti
0.092830 0.619501 0.486723 T T T Ti
0.664614 0.573009 0.484346 T T T Ti
0.125235 0.874979 0.737553 F F F Ti
0.625156 0.875011 0.737578 F F F Ti
0.374838 0.624978 0.737579 F F F Ti
0.874761 0.625012 0.737555 F F F Ti
0.124894 0.374872 0.737588 F F F Ti
0.625039 0.374832 0.737623 F F F Ti
0.374955 0.125154 0.737621 F F F Ti
0.875102 0.125117 0.737586 F F F Ti
0.500000 0.750000 0.505306 T T T Ti

0.000000 0.000000 0.000000
0.000000 0.000000 0.000000
0.000000 0.000000 0.000000
0.000000 0.000000 0.000000
0.000000 0.000000 0.000000
0.000000 0.000000 0.000000
0.000000 0.000000 0.000000
0.000000 0.000000 0.000000
0.000000 0.000000 0.000000
0.000000 0.000000 0.000000
0.000000 0.000000 0.000000
0.000000 0.000000 0.000000
0.000000 0.000000 0.000000
0.000000 0.000000 0.000000
0.000000 0.000000 0.000000
0.000000 0.000000 0.000000
0.000000 0.000000 0.000000
0.000000 0.000000 0.000000
0.000000 0.000000 0.000000
0.000000 0.000000 0.000000
0.000000 0.000000 0.000000
0.000000 0.000000 0.000000
0.000000 0.000000 0.000000
0.000000 0.000000 0.000000
0.000000 0.000000 0.000000
0.000000 0.000000 0.000000
0.000000 0.000000 0.000000
0.000000 0.000000 0.000000
0.000000 0.000000 0.000000
0.000000 0.000000 0.000000
0.000000 0.000000 0.000000
0.000000 0.000000 0.000000
0.000000 0.000000 0.000000
0.000000 0.000000 0.000000
0.000000 0.000000 0.000000
0.000000 0.000000 0.000000
0.000000 0.000000 0.000000
0.000000 0.000000 0.000000
0.000000 0.000000 0.000000
0.000000 0.000000 0.000000
0.000000 0.000000 0.000000
0.000000 0.000000 0.000000
0.000000 0.000000 0.000000
0.000000 0.000000 0.000000
0.000000 0.000000 0.000000
0.000000 0.000000 0.000000
0.000000 0.000000 0.000000
0.000000 0.000000 0.000000
0.000000 0.000000 0.000000
0.000000 0.000000 0.000000
0.000000 0.000000 0.000000
0.000000 0.000000 0.000000
0.000000 0.000000 0.000000
0.000000 0.000000 0.000000
0.000000 0.000000 0.000000
0.000000 0.000000 0.000000
0.000000 0.000000 0.000000
0.000000 0.000000 0.000000
0.000000 0.000000 0.000000
0.000000 0.000000 0.000000
0.000000 0.000000 0.000000
0.000000 0.000000 0.000000
0.000000 0.000000 0.000000
0.000000 0.000000 0.000000
0.000000 0.000000 0.000000
0.000000 0.000000 0.000000
0.000000 0.000000 0.000000
0.000000 0.000000 0.000000
0.000000 0.000000 0.000000
0.000000 0.000000 0.000000
0.000000 0.000000 0.000000
0.000000 0.000000 0.000000
0.000000 0.000000 0.000000
0.000000 0.000000 0.000000
0.000000 0.000000 0.000000
0.000000 0.000000 0.000000
0.000000 0.000000 0.000000
0.000000 0.000000 0.000000
0.000000 0.000000 0.000000
0.000000 0.000000 0.000000
0.000000 0.000000 0.000000
0.000000 0.000000 0.000000
0.000000 0.000000 0.000000
0.000000 0.000000 0.000000
0.000000 0.000000 0.000000
0.000000 0.000000 0.000000
0.000000 0.000000 0.000000
0.000000 0.000000 0.000000
0.000000 0.000000 0.000000
0.000000 0.000000 0.000000
0.000000 0.000000 0.000000
0.000000 0.000000 0.000000
0.000000 0.000000 0.000000
0.000000 0.000000 0.000000
0.000000 0.000000 0.000000
0.000000 0.000000 0.000000
0.000000 0.000000 0.000000
