Ti66 Cr1
1.0
6.309760 0.000000 0.000000
0.000000 9.464640 0.000000
0.000000 0.000000 18.918326
Ti Cr
66 1
Selective dynamics
direct
0.136649 0.046599 0.495799 T T T Ti
0.613272 0.044655 0.496036 T T T Ti
0.146904 0.081287 0.642877 T T T Ti
0.601777 0.081060 0.643315 T T T Ti
0.125087 0.042150 0.817375 F F F Ti
0.624728 0.042149 0.817410 F F F Ti
0.150393 0.387696 0.478865 T T T Ti
0.604581 0.397291 0.479716 T T T Ti
0.138944 0.383003 0.639407 T T T Ti
0.610737 0.383805 0.639962 T T T Ti
0.125139 0.375071 0.817375 F F F Ti
0.624802 0.375098 0.817418 F F F Ti
0.105663 0.749927 0.492938 T T T Ti
0.643553 0.749800 0.493041 T T T Ti
0.102893 0.691176 0.646960 T T T Ti
0.646905 0.691190 0.647087 T T T Ti
0.125256 0.708596 0.817692 F F F Ti
0.624771 0.708579 0.817709 F F F Ti
0.870061 0.237987 0.558273 T T T Ti
0.374766 0.208815 0.738006 F F F Ti
0.874955 0.208911 0.738065 F F F Ti
0.374982 0.208427 0.896506 F F F Ti
0.874853 0.208484 0.896509 F F F Ti
0.374761 0.567266 0.550739 T T T Ti
0.877106 0.532347 0.540814 T T T Ti
0.374976 0.541985 0.738433 F F F Ti
0.875313 0.541903 0.738648 F F F Ti
0.375055 0.541580 0.896628 F F F Ti
0.875083 0.541572 0.896634 F F F Ti
0.374839 0.869882 0.584883 T T T Ti
0.873207 0.908244 0.581631 T T T Ti
0.374781 0.875607 0.738327 F F F Ti
0.874826 0.875742 0.738761 F F F Ti
0.375024 0.875295 0.896593 F F F Ti
0.874917 0.875268 0.896644 F F F Ti
0.128867 0.599031 0.375971 T T T Ti
0.620608 0.600450 0.375490 T T T Ti
0.124866 0.624810 0.118799 F F F Ti
0.624805 0.624823 0.118772 F F F Ti
0.143139 0.118224 0.362333 T T T Ti
0.605469 0.117286 0.361638 T T T Ti
0.125070 0.124966 0.118682 F F F Ti
0.624382 0.124970 0.118622 F F F Ti
0.125033 0.374942 0.039662 F F F Ti
0.624666 0.374953 0.039663 F F F Ti
0.125176 0.874950 0.039445 F F F Ti
0.624501 0.874947 0.039451 F F F Ti
0.140971 0.367185 0.283722 T T T Ti
0.607902 0.367663 0.283229 T T T Ti
0.114565 0.857825 0.280699 T T T Ti
0.633946 0.857587 0.280379 T T T Ti
0.374666 0.874542 0.158389 F F F Ti
0.874974 0.874609 0.157444 F F F Ti
0.374810 0.374735 0.158533 F F F Ti
0.875099 0.374796 0.158277 F F F Ti
0.870138 0.326744 0.395696 T T T Ti
0.374303 0.865726 0.397880 T T T Ti
0.872302 0.890453 0.396590 T T T Ti
0.374448 0.618756 0.250279 T T T Ti
0.874789 0.610638 0.249302 T T T Ti
0.374820 0.624774 0.000167 F F F Ti
0.874739 0.624825 0.000096 F F F Ti
0.374287 0.113415 0.242805 T T T Ti
0.873602 0.121284 0.250309 T T T Ti
0.374798 0.125168 0.000090 F F F Ti
0.874744 0.125154 0.000018 F F F Ti
0.396953 0.222995 0.461016 T T T Cr

0.000000 0.000000 0.000000
0.000000 0.000000 0.000000
0.000000 0.000000 0.000000
0.000000 0.000000 0.000000
0.000000 0.000000 0.000000
0.000000 0.000000 0.000000
0.000000 0.000000 0.000000
0.000000 0.000000 0.000000
0.000000 0.000000 0.000000
0.000000 0.000000 0.000000
0.000000 0.000000 0.000000
0.000000 0.000000 0.000000
0.000000 0.000000 0.000000
0.000000 0.000000 0.000000
0.000000 0.000000 0.000000
0.000000 0.000000 0.000000
0.000000 0.000000 0.000000
0.000000 0.000000 0.000000
0.000000 0.000000 0.000000
0.000000 0.000000 0.000000
0.000000 0.000000 0.000000
0.000000 0.000000 0.000000
0.000000 0.000000 0.000000
0.000000 0.000000 0.000000
0.000000 0.000000 0.000000
0.000000 0.000000 0.000000
0.000000 0.000000 0.000000
0.000000 0.000000 0.000000
0.000000 0.000000 0.000000
0.000000 0.000000 0.000000
0.000000 0.000000 0.000000
0.000000 0.000000 0.000000
0.000000 0.000000 0.000000
0.000000 0.000000 0.000000
0.000000 0.000000 0.000000
0.000000 0.000000 0.000000
0.000000 0.000000 0.000000
0.000000 0.000000 0.000000
0.000000 0.000000 0.000000
0.000000 0.000000 0.000000
0.000000 0.000000 0.000000
0.000000 0.000000 0.000000
0.000000 0.000000 0.000000
0.000000 0.000000 0.000000
0.000000 0.000000 0.000000
0.000000 0.000000 0.000000
0.000000 0.000000 0.000000
0.000000 0.000000 0.000000
0.000000 0.000000 0.000000
0.000000 0.000000 0.000000
0.000000 0.000000 0.000000
0.000000 0.000000 0.000000
0.000000 0.000000 0.000000
0.000000 0.000000 0.000000
0.000000 0.000000 0.000000
0.000000 0.000000 0.000000
0.000000 0.000000 0.000000
0.000000 0.000000 0.000000
0.000000 0.000000 0.000000
0.000000 0.000000 0.000000
0.000000 0.000000 0.000000
0.000000 0.000000 0.000000
0.000000 0.000000 0.000000
0.000000 0.000000 0.000000
0.000000 0.000000 0.000000
0.000000 0.000000 0.000000
0.000000 0.000000 0.000000
