Optimistic_Structure                    
   1.00000000000000     
     6.3097599999999998    0.0000000000000000    0.0000000000000000
     0.0000000000000000    9.4646399999999993    0.0000000000000000
     0.0000000000000000    0.0000000000000000   18.9183260000000004
   Ti   Mo
    66     1
Selective dynamics
Direct
  0.1220198102493038  0.0262246533256004  0.4986647080990959   T   T   T
  0.5728165181009640  0.0234335500716762  0.4860537018301261   T   T   T
  0.1017031475755326  0.0642971056721611  0.6468288454717123   T   T   T
  0.6480694289081862  0.0695218181823194  0.6439457681155178   T   T   T
  0.1250000000000000  0.0416669999999968  0.8171529999999976   F   F   F
  0.6250000000000000  0.0416669999999968  0.8171529999999976   F   F   F
  0.5141507503736356  0.3750000000000000  0.4314853597867872   T   T   T
  0.0941443708328066  0.3750000000000000  0.6380930183312900   T   T   T
  0.6362793428789967  0.3750000000000000  0.6489849612048870   T   T   T
  0.1250000000000000  0.3750000000000000  0.8171529999999976   F   F   F
  0.6250000000000000  0.3750000000000000  0.8171529999999976   F   F   F
  0.1220198102493038  0.7237753466744001  0.4986647080990959   T   T   T
  0.5728165181009640  0.7265664499283239  0.4860537018301261   T   T   T
  0.1017031475755326  0.6857028943278386  0.6468288454717123   T   T   T
  0.6480694289081862  0.6804781818176807  0.6439457681155178   T   T   T
  0.1250000000000000  0.7083330000000032  0.8171529999999976   F   F   F
  0.6250000000000000  0.7083330000000032  0.8171529999999976   F   F   F
  0.3804113435824542  0.2261687742290782  0.5586826392358127   T   T   T
  0.8345525043973587  0.2340878108489454  0.5307743409415492   T   T   T
  0.3750000000000000  0.2083330000000032  0.7378649999999993   F   F   F
  0.8750000000000000  0.2083330000000032  0.7378649999999993   F   F   F
  0.3750000000000000  0.2083330000000032  0.8964410000000029   F   F   F
  0.8750000000000000  0.2083330000000032  0.8964410000000029   F   F   F
  0.3804113435824542  0.5238312257709220  0.5586826392358127   T   T   T
  0.8345525043973587  0.5159121891510551  0.5307743409415492   T   T   T
  0.3750000000000000  0.5416669999999968  0.7378649999999993   F   F   F
  0.8750000000000000  0.5416669999999968  0.7378649999999993   F   F   F
  0.3750000000000000  0.5416669999999968  0.8964410000000029   F   F   F
  0.8750000000000000  0.5416669999999968  0.8964410000000029   F   F   F
  0.3727124069028557  0.8750000000000000  0.5920093655736264   T   T   T
  0.8407680094422417  0.8750000000000000  0.5643878111115108   T   T   T
  0.3750000000000000  0.8750000000000000  0.7378649999999993   F   F   F
  0.8750000000000000  0.8750000000000000  0.7378649999999993   F   F   F
  0.3750000000000000  0.8750000000000000  0.8964410000000029   F   F   F
  0.8750000000000000  0.8750000000000000  0.8964410000000029   F   F   F
  0.1769402503876301  0.6090365705887296  0.3758314117669360   T   T   T
  0.6489532947164268  0.6256899455796353  0.3633592005897284   T   T   T
  0.1250000000000000  0.6250000000000000  0.1189320000000009   F   F   F
  0.6250000000000000  0.6250000000000000  0.1189320000000009   F   F   F
  0.1769402503876301  0.1409634294112703  0.3758314117669360   T   T   T
  0.6489532947164268  0.1243100544203648  0.3633592005897284   T   T   T
  0.1250000000000000  0.1250000000000000  0.1189320000000009   F   F   F
  0.6250000000000000  0.1250000000000000  0.1189320000000009   F   F   F
  0.1250000000000000  0.3750000000000000  0.0396440000000027   F   F   F
  0.6250000000000000  0.3750000000000000  0.0396440000000027   F   F   F
  0.1250000000000000  0.8750000000000000  0.0396440000000027   F   F   F
  0.6250000000000000  0.8750000000000000  0.0396440000000027   F   F   F
  0.1730315770766936  0.3750000000000000  0.2867351770927812   T   T   T
  0.6074604474398173  0.3750000000000000  0.2801804899123395   T   T   T
  0.0896218292915373  0.8750000000000000  0.2793038055172701   T   T   T
  0.6374590599672704  0.8750000000000000  0.2792734930169578   T   T   T
  0.3750000000000000  0.8750000000000000  0.1585759999999965   F   F   F
  0.8750000000000000  0.8750000000000000  0.1585759999999965   F   F   F
  0.3749990000000025  0.3750000000000000  0.1585759999999965   F   F   F
  0.8749990000000025  0.3750000000000000  0.1585759999999965   F   F   F
  0.8776698273035581  0.3750000000000000  0.3832670091359717   T   T   T
  0.3473241992990945  0.8750000000000000  0.3884444223548438   T   T   T
  0.8829981241930402  0.8750000000000000  0.4068137757084251   T   T   T
  0.3741527952867906  0.6367018575674721  0.2462079226921048   T   T   T
  0.8916803614831247  0.6122591075972561  0.2508996841964648   T   T   T
  0.3750000000000000  0.6250000000000000  0.0000000000000000   F   F   F
  0.8750000000000000  0.6250000000000000  0.0000000000000000   F   F   F
  0.3741527952867906  0.1132981424325277  0.2462089226921022   T   T   T
  0.8916803614831247  0.1377408924027440  0.2509006841964623   T   T   T
  0.3750000000000000  0.1250000000000000  0.0000000000000000   F   F   F
  0.8750000000000000  0.1250000000000000  0.0000000000000000   F   F   F
  0.1541321006443420  0.3750000000000000  0.4711340129030936   T   T   T
 
  0.00000000E+00  0.00000000E+00  0.00000000E+00
  0.00000000E+00  0.00000000E+00  0.00000000E+00
  0.00000000E+00  0.00000000E+00  0.00000000E+00
  0.00000000E+00  0.00000000E+00  0.00000000E+00
  0.00000000E+00  0.00000000E+00  0.00000000E+00
  0.00000000E+00  0.00000000E+00  0.00000000E+00
  0.00000000E+00  0.00000000E+00  0.00000000E+00
  0.00000000E+00  0.00000000E+00  0.00000000E+00
  0.00000000E+00  0.00000000E+00  0.00000000E+00
  0.00000000E+00  0.00000000E+00  0.00000000E+00
  0.00000000E+00  0.00000000E+00  0.00000000E+00
  0.00000000E+00  0.00000000E+00  0.00000000E+00
  0.00000000E+00  0.00000000E+00  0.00000000E+00
  0.00000000E+00  0.00000000E+00  0.00000000E+00
  0.00000000E+00  0.00000000E+00  0.00000000E+00
  0.00000000E+00  0.00000000E+00  0.00000000E+00
  0.00000000E+00  0.00000000E+00  0.00000000E+00
  0.00000000E+00  0.00000000E+00  0.00000000E+00
  0.00000000E+00  0.00000000E+00  0.00000000E+00
  0.00000000E+00  0.00000000E+00  0.00000000E+00
  0.00000000E+00  0.00000000E+00  0.00000000E+00
  0.00000000E+00  0.00000000E+00  0.00000000E+00
  0.00000000E+00  0.00000000E+00  0.00000000E+00
  0.00000000E+00  0.00000000E+00  0.00000000E+00
  0.00000000E+00  0.00000000E+00  0.00000000E+00
  0.00000000E+00  0.00000000E+00  0.00000000E+00
  0.00000000E+00  0.00000000E+00  0.00000000E+00
  0.00000000E+00  0.00000000E+00  0.00000000E+00
  0.00000000E+00  0.00000000E+00  0.00000000E+00
  0.00000000E+00  0.00000000E+00  0.00000000E+00
  0.00000000E+00  0.00000000E+00  0.00000000E+00
  0.00000000E+00  0.00000000E+00  0.00000000E+00
  0.00000000E+00  0.00000000E+00  0.00000000E+00
  0.00000000E+00  0.00000000E+00  0.00000000E+00
  0.00000000E+00  0.00000000E+00  0.00000000E+00
  0.00000000E+00  0.00000000E+00  0.00000000E+00
  0.00000000E+00  0.00000000E+00  0.00000000E+00
  0.00000000E+00  0.00000000E+00  0.00000000E+00
  0.00000000E+00  0.00000000E+00  0.00000000E+00
  0.00000000E+00  0.00000000E+00  0.00000000E+00
  0.00000000E+00  0.00000000E+00  0.00000000E+00
  0.00000000E+00  0.00000000E+00  0.00000000E+00
  0.00000000E+00  0.00000000E+00  0.00000000E+00
  0.00000000E+00  0.00000000E+00  0.00000000E+00
  0.00000000E+00  0.00000000E+00  0.00000000E+00
  0.00000000E+00  0.00000000E+00  0.00000000E+00
  0.00000000E+00  0.00000000E+00  0.00000000E+00
  0.00000000E+00  0.00000000E+00  0.00000000E+00
  0.00000000E+00  0.00000000E+00  0.00000000E+00
  0.00000000E+00  0.00000000E+00  0.00000000E+00
  0.00000000E+00  0.00000000E+00  0.00000000E+00
  0.00000000E+00  0.00000000E+00  0.00000000E+00
  0.00000000E+00  0.00000000E+00  0.00000000E+00
  0.00000000E+00  0.00000000E+00  0.00000000E+00
  0.00000000E+00  0.00000000E+00  0.00000000E+00
  0.00000000E+00  0.00000000E+00  0.00000000E+00
  0.00000000E+00  0.00000000E+00  0.00000000E+00
  0.00000000E+00  0.00000000E+00  0.00000000E+00
  0.00000000E+00  0.00000000E+00  0.00000000E+00
  0.00000000E+00  0.00000000E+00  0.00000000E+00
  0.00000000E+00  0.00000000E+00  0.00000000E+00
  0.00000000E+00  0.00000000E+00  0.00000000E+00
  0.00000000E+00  0.00000000E+00  0.00000000E+00
  0.00000000E+00  0.00000000E+00  0.00000000E+00
  0.00000000E+00  0.00000000E+00  0.00000000E+00
  0.00000000E+00  0.00000000E+00  0.00000000E+00
  0.00000000E+00  0.00000000E+00  0.00000000E+00
