beta_Ti
1.0
6.391540 0.000000 0.000000
0.000000 9.587310 0.000000
0.000000 0.000000 32.750000
Ti
36
direct
0.125000 0.083333 0.557252 Ti
0.625000 0.083333 0.557252 Ti
0.125000 0.083333 0.648855 Ti
0.625000 0.083333 0.648855 Ti
0.125000 0.083333 0.740458 Ti
0.625000 0.083333 0.740458 Ti
0.125000 0.416667 0.557252 Ti
0.625000 0.416667 0.557252 Ti
0.125000 0.416667 0.648855 Ti
0.625000 0.416667 0.648855 Ti
0.125000 0.416667 0.740458 Ti
0.625000 0.416667 0.740458 Ti
0.125000 0.750000 0.557252 Ti
0.625000 0.750000 0.557252 Ti
0.125000 0.750000 0.648855 Ti
0.625000 0.750000 0.648855 Ti
0.125000 0.750000 0.740458 Ti
0.625000 0.750000 0.740458 Ti
0.375000 0.250000 0.603053 Ti
0.875000 0.250000 0.603053 Ti
0.375000 0.250000 0.694656 Ti
0.875000 0.250000 0.694656 Ti
0.375000 0.250000 0.786260 Ti
0.875000 0.250000 0.786260 Ti
0.375000 0.583333 0.603053 Ti
0.875000 0.583333 0.603053 Ti
0.375000 0.583333 0.694656 Ti
0.875000 0.583333 0.694656 Ti
0.375000 0.583333 0.786260 Ti
0.875000 0.583333 0.786260 Ti
0.375000 0.916667 0.603053 Ti
0.875000 0.916667 0.603053 Ti
0.375000 0.916667 0.694656 Ti
0.875000 0.916667 0.694656 Ti
0.375000 0.916667 0.786260 Ti
0.875000 0.916667 0.786260 Ti
