Ti66 Al1
1.0
6.309760 0.000000 0.000000
0.000000 9.464640 0.000000
0.000000 0.000000 18.918326
Ti Al
66 1
Selective dynamics
direct
0.628596 0.041490 0.499974 F F F Ti
0.125198 0.041968 0.658427 F F F Ti
0.625159 0.041796 0.658571 F F F Ti
0.125092 0.041750 0.817113 F F F Ti
0.625045 0.041733 0.817150 F F F Ti
0.125864 0.380028 0.500725 F F F Ti
0.626286 0.375482 0.500307 F F F Ti
0.125404 0.375477 0.658848 F F F Ti
0.625116 0.375378 0.658878 F F F Ti
0.125071 0.375046 0.817217 F F F Ti
0.625019 0.375024 0.817238 F F F Ti
0.125259 0.708324 0.500081 F F F Ti
0.624794 0.707655 0.500433 F F F Ti
0.125277 0.708762 0.658720 F F F Ti
0.624911 0.708806 0.658831 F F F Ti
0.125048 0.708494 0.817206 F F F Ti
0.625000 0.708517 0.817232 F F F Ti
0.376089 0.209086 0.579469 F F F Ti
0.874592 0.209656 0.579975 F F F Ti
0.375122 0.208394 0.737891 F F F Ti
0.875127 0.208424 0.737969 F F F Ti
0.374965 0.208267 0.896370 F F F Ti
0.875111 0.208269 0.896382 F F F Ti
0.375991 0.542425 0.579759 F F F Ti
0.874676 0.542534 0.579832 F F F Ti
0.375117 0.541933 0.738060 F F F Ti
0.875048 0.541939 0.738073 F F F Ti
0.374982 0.541634 0.896412 F F F Ti
0.875034 0.541635 0.896414 F F F Ti
0.375221 0.875481 0.579090 F F F Ti
0.875151 0.874811 0.579444 F F F Ti
0.374976 0.875266 0.737849 F F F Ti
0.875155 0.875222 0.737899 F F F Ti
0.374938 0.875104 0.896355 F F F Ti
0.875100 0.875102 0.896365 F F F Ti
0.125900 0.624086 0.356411 F F F Ti
0.624643 0.623361 0.356186 F F F Ti
0.125160 0.624780 0.118721 F F F Ti
0.625032 0.624779 0.118681 F F F Ti
0.629488 0.124580 0.356726 F F F Ti
0.125299 0.124857 0.118949 F F F Ti
0.624966 0.124884 0.118912 F F F Ti
0.125082 0.374858 0.039585 F F F Ti
0.624983 0.374859 0.039574 F F F Ti
0.125108 0.874980 0.039530 F F F Ti
0.625008 0.874995 0.039519 F F F Ti
0.125237 0.374710 0.277536 F F F Ti
0.625430 0.374388 0.277260 F F F Ti
0.125283 0.873846 0.277300 F F F Ti
0.625255 0.874569 0.276668 F F F Ti
0.374946 0.874890 0.158386 F F F Ti
0.875321 0.874775 0.158305 F F F Ti
0.375027 0.374607 0.158525 F F F Ti
0.875202 0.374709 0.158425 F F F Ti
0.377730 0.377282 0.396497 F F F Ti
0.872840 0.379254 0.396431 F F F Ti
0.382090 0.869474 0.395699 F F F Ti
0.866074 0.865993 0.395341 F F F Ti
0.375265 0.624458 0.237456 F F F Ti
0.875100 0.624355 0.237424 F F F Ti
0.375036 0.624962 -0.000087 F F F Ti
0.875044 0.624960 -0.000086 F F F Ti
0.375056 0.124622 0.238168 F F F Ti
0.875623 0.124633 0.237691 F F F Ti
0.375026 0.124969 -0.000044 F F F Ti
0.875078 0.124964 -0.000034 F F F Ti
0.108130 0.089006 0.429191 T T T Al
