Ti96 Nb1
1.0
9.513020 0.000000 0.000000
0.000000 9.350860 0.000000
0.000000 0.000000 18.547230
Ti Nb
96 1
Selective dynamics
direct
0.166666 0.375000 0.388446 T T T Ti
0.666666 0.375000 0.388446 T T T Ti
0.166666 0.875000 0.388446 T T T Ti
0.666666 0.875000 0.388446 T T T Ti
0.166666 0.375000 0.233068 T T T Ti
0.666666 0.375000 0.233068 T T T Ti
0.166666 0.875000 0.233068 T T T Ti
0.666666 0.875000 0.233068 T T T Ti
0.166666 0.375000 0.077689 F F F Ti
0.666666 0.375000 0.077689 F F F Ti
0.166666 0.875000 0.077689 F F F Ti
0.666666 0.875000 0.077689 F F F Ti
0.416667 0.375000 0.310757 T T T Ti
0.916667 0.375000 0.310757 T T T Ti
0.416667 0.875000 0.310757 T T T Ti
0.916667 0.875000 0.310757 T T T Ti
0.416667 0.375000 0.155379 F F F Ti
0.916667 0.375000 0.155379 F F F Ti
0.416667 0.875000 0.155379 F F F Ti
0.916667 0.875000 0.155379 F F F Ti
0.416667 0.375000 0.000000 F F F Ti
0.916667 0.375000 0.000000 F F F Ti
0.416667 0.875000 0.000000 F F F Ti
0.916667 0.875000 0.000000 F F F Ti
0.083333 0.125000 0.310756 T T T Ti
0.583333 0.125000 0.310756 T T T Ti
0.083333 0.625000 0.310756 T T T Ti
0.583333 0.625000 0.310756 T T T Ti
0.083333 0.125000 0.155379 F F F Ti
0.583333 0.125000 0.155379 F F F Ti
0.083333 0.625000 0.155379 F F F Ti
0.583333 0.625000 0.155379 F F F Ti
0.083333 0.125000 0.000000 F F F Ti
0.583333 0.125000 0.000000 F F F Ti
0.083333 0.625000 0.000000 F F F Ti
0.583333 0.625000 0.000000 F F F Ti
0.333333 0.125000 0.388446 T T T Ti
0.833333 0.125000 0.388446 T T T Ti
0.333333 0.625000 0.388446 T T T Ti
0.833333 0.625000 0.388446 T T T Ti
0.333333 0.125000 0.233068 T T T Ti
0.833333 0.125000 0.233068 T T T Ti
0.333333 0.625000 0.233068 T T T Ti
0.833333 0.625000 0.233068 T T T Ti
0.333333 0.125000 0.077689 F F F Ti
0.833333 0.125000 0.077689 F F F Ti
0.333333 0.625000 0.077689 F F F Ti
0.833333 0.625000 0.077689 F F F Ti
0.375000 0.375000 0.823738 F F F Ti
0.875000 0.375000 0.823738 F F F Ti
0.375000 0.875000 0.823738 F F F Ti
0.875000 0.875000 0.823738 F F F Ti
0.125000 0.125000 0.823738 F F F Ti
0.625000 0.125000 0.823738 F F F Ti
0.125000 0.625000 0.823738 F F F Ti
0.625000 0.625000 0.823738 F F F Ti
0.125000 0.375000 0.910084 F F F Ti
0.625000 0.375000 0.910084 F F F Ti
0.125000 0.875000 0.910084 F F F Ti
0.625000 0.875000 0.910084 F F F Ti
0.375000 0.125000 0.910084 F F F Ti
0.875000 0.125000 0.910084 F F F Ti
0.375000 0.625000 0.910084 F F F Ti
0.875000 0.625000 0.910084 F F F Ti
0.375000 0.375000 0.651050 T T T Ti
0.875000 0.375000 0.651050 T T T Ti
0.375000 0.875000 0.651050 T T T Ti
0.875000 0.875000 0.651050 T T T Ti
0.125000 0.125000 0.651050 T T T Ti
0.625000 0.125000 0.651050 T T T Ti
0.125000 0.625000 0.651050 T T T Ti
0.625000 0.625000 0.651050 T T T Ti
0.125000 0.375000 0.564706 T T T Ti
0.625000 0.375000 0.564706 T T T Ti
0.125000 0.875000 0.564706 T T T Ti
0.625000 0.875000 0.564706 T T T Ti
0.375000 0.125000 0.564706 T T T Ti
0.875000 0.125000 0.564706 T T T Ti
0.375000 0.625000 0.564706 T T T Ti
0.875000 0.625000 0.564706 T T T Ti
0.375000 0.375000 0.478361 T T T Ti
0.875000 0.375000 0.478361 T T T Ti
0.375000 0.875000 0.478361 T T T Ti
0.875000 0.875000 0.478361 T T T Ti
0.125000 0.125000 0.478361 T T T Ti
0.625000 0.125000 0.478361 T T T Ti
0.125000 0.625000 0.478361 T T T Ti
0.625000 0.625000 0.478361 T T T Ti
0.125000 0.875000 0.737395 F F F Ti
0.625000 0.875000 0.737395 F F F Ti
0.375000 0.625000 0.737395 F F F Ti
0.875000 0.625000 0.737395 F F F Ti
0.125000 0.375000 0.737395 F F F Ti
0.625000 0.375000 0.737395 F F F Ti
0.375000 0.125000 0.737395 F F F Ti
0.875000 0.125000 0.737395 F F F Ti
0.750000 0.750000 0.564706 T T T Nb
