Ti83
1.0
6.391540 0.000000 0.000000
0.000000 9.587310 0.000000
0.000000 0.000000 23.271695
Ti
83
Selective dynamics
direct
0.628515 0.082202 0.580320 F F F Ti
0.124072 0.082800 0.709918 F F F Ti
0.625139 0.083123 0.709575 F F F Ti
0.124967 0.083317 0.838455 F F F Ti
0.624952 0.083322 0.838432 F F F Ti
0.123149 0.418696 0.580325 F F F Ti
0.625181 0.416883 0.580498 F F F Ti
0.124744 0.416798 0.709544 F F F Ti
0.624765 0.416709 0.709516 F F F Ti
0.124992 0.416669 0.838418 F F F Ti
0.624958 0.416674 0.838418 F F F Ti
0.124958 0.750110 0.580564 F F F Ti
0.625104 0.749821 0.580535 F F F Ti
0.124920 0.749870 0.709541 F F F Ti
0.625093 0.749845 0.709553 F F F Ti
0.124988 0.749960 0.838430 F F F Ti
0.624975 0.749956 0.838436 F F F Ti
0.873069 0.250397 0.645207 F F F Ti
0.374945 0.249980 0.773976 F F F Ti
0.874798 0.250057 0.774012 F F F Ti
0.374994 0.250003 0.902868 F F F Ti
0.874974 0.250007 0.902873 F F F Ti
0.374976 0.583371 0.645040 F F F Ti
0.874723 0.583526 0.645092 F F F Ti
0.374974 0.583315 0.773970 F F F Ti
0.874947 0.583318 0.773985 F F F Ti
0.374992 0.583322 0.902868 F F F Ti
0.874992 0.583320 0.902871 F F F Ti
0.375650 0.915544 0.645202 F F F Ti
0.875067 0.916439 0.645107 F F F Ti
0.375057 0.916548 0.774011 F F F Ti
0.874823 0.916516 0.774022 F F F Ti
0.374997 0.916650 0.902874 F F F Ti
0.874975 0.916649 0.902875 F F F Ti
0.125001 0.166668 0.386693 F F F Ti
0.625097 0.166673 0.386681 F F F Ti
0.125020 0.666636 0.386736 F F F Ti
0.624961 0.666631 0.386720 F F F Ti
0.124998 0.166666 0.000007 F F F Ti
0.624994 0.166666 0.000008 F F F Ti
0.124999 0.666658 0.000003 F F F Ti
0.624990 0.666659 0.000005 F F F Ti
0.125000 0.833332 0.096683 F F F Ti
0.624996 0.833332 0.096683 F F F Ti
0.125026 0.833379 0.483410 F F F Ti
0.625093 0.833238 0.483370 F F F Ti
0.125000 0.333332 0.096681 F F F Ti
0.624995 0.333332 0.096681 F F F Ti
0.124776 0.333607 0.483251 F F F Ti
0.625264 0.333410 0.483325 F F F Ti
0.375064 0.583450 0.483364 F F F Ti
0.874848 0.583486 0.483345 F F F Ti
0.374999 0.583330 0.096682 F F F Ti
0.875004 0.583331 0.096682 F F F Ti
0.374998 0.083333 0.096682 F F F Ti
0.875003 0.083333 0.096682 F F F Ti
0.375474 0.083162 0.483178 F F F Ti
0.875265 0.083352 0.483325 F F F Ti
0.375035 0.416684 0.386696 F F F Ti
0.874958 0.416701 0.386685 F F F Ti
0.375007 0.916615 0.386694 F F F Ti
0.875013 0.916645 0.386713 F F F Ti
0.374995 0.416667 0.000006 F F F Ti
0.874994 0.416668 0.000007 F F F Ti
0.374996 0.916662 0.000011 F F F Ti
0.874993 0.916662 0.000011 F F F Ti
0.375001 0.083328 0.290035 F F F Ti
0.875000 0.083324 0.290035 F F F Ti
0.124997 0.166665 0.193362 F F F Ti
0.625000 0.166665 0.193360 F F F Ti
0.124996 0.333337 0.290035 F F F Ti
0.624999 0.333338 0.290030 F F F Ti
0.374997 0.416668 0.193360 F F F Ti
0.874997 0.416669 0.193360 F F F Ti
0.374999 0.583339 0.290037 F F F Ti
0.875003 0.583344 0.290036 F F F Ti
0.125000 0.666663 0.193366 F F F Ti
0.624995 0.666663 0.193364 F F F Ti
0.124993 0.833325 0.290042 F F F Ti
0.625008 0.833324 0.290038 F F F Ti
0.374997 0.916663 0.193362 F F F Ti
0.874998 0.916662 0.193362 F F F Ti
0.285070 0.187635 0.608624 T T T Ti

0.000000 0.000000 0.000000
0.000000 0.000000 0.000000
0.000000 0.000000 0.000000
0.000000 0.000000 0.000000
0.000000 0.000000 0.000000
0.000000 0.000000 0.000000
0.000000 0.000000 0.000000
0.000000 0.000000 0.000000
0.000000 0.000000 0.000000
0.000000 0.000000 0.000000
0.000000 0.000000 0.000000
0.000000 0.000000 0.000000
0.000000 0.000000 0.000000
0.000000 0.000000 0.000000
0.000000 0.000000 0.000000
0.000000 0.000000 0.000000
0.000000 0.000000 0.000000
0.000000 0.000000 0.000000
0.000000 0.000000 0.000000
0.000000 0.000000 0.000000
0.000000 0.000000 0.000000
0.000000 0.000000 0.000000
0.000000 0.000000 0.000000
0.000000 0.000000 0.000000
0.000000 0.000000 0.000000
0.000000 0.000000 0.000000
0.000000 0.000000 0.000000
0.000000 0.000000 0.000000
0.000000 0.000000 0.000000
0.000000 0.000000 0.000000
0.000000 0.000000 0.000000
0.000000 0.000000 0.000000
0.000000 0.000000 0.000000
0.000000 0.000000 0.000000
0.000000 0.000000 0.000000
0.000000 0.000000 0.000000
0.000000 0.000000 0.000000
0.000000 0.000000 0.000000
0.000000 0.000000 0.000000
0.000000 0.000000 0.000000
0.000000 0.000000 0.000000
0.000000 0.000000 0.000000
0.000000 0.000000 0.000000
0.000000 0.000000 0.000000
0.000000 0.000000 0.000000
0.000000 0.000000 0.000000
0.000000 0.000000 0.000000
0.000000 0.000000 0.000000
0.000000 0.000000 0.000000
0.000000 0.000000 0.000000
0.000000 0.000000 0.000000
0.000000 0.000000 0.000000
0.000000 0.000000 0.000000
0.000000 0.000000 0.000000
0.000000 0.000000 0.000000
0.000000 0.000000 0.000000
0.000000 0.000000 0.000000
0.000000 0.000000 0.000000
0.000000 0.000000 0.000000
0.000000 0.000000 0.000000
0.000000 0.000000 0.000000
0.000000 0.000000 0.000000
0.000000 0.000000 0.000000
0.000000 0.000000 0.000000
0.000000 0.000000 0.000000
0.000000 0.000000 0.000000
0.000000 0.000000 0.000000
0.000000 0.000000 0.000000
0.000000 0.000000 0.000000
0.000000 0.000000 0.000000
0.000000 0.000000 0.000000
0.000000 0.000000 0.000000
0.000000 0.000000 0.000000
0.000000 0.000000 0.000000
0.000000 0.000000 0.000000
0.000000 0.000000 0.000000
0.000000 0.000000 0.000000
0.000000 0.000000 0.000000
0.000000 0.000000 0.000000
0.000000 0.000000 0.000000
0.000000 0.000000 0.000000
0.000000 0.000000 0.000000
0.000000 0.000000 0.000000
