beta_Ti
1.0
9.445957 0.000000 0.000000
0.000000 9.093951 0.000000
0.000000 0.000000 17.591864
Ti
48
direct
0.375000 0.375000 0.841320 Ti
0.875000 0.375000 0.841320 Ti
0.375000 0.875000 0.841320 Ti
0.875000 0.875000 0.841320 Ti
0.125000 0.125000 0.841320 Ti
0.625000 0.125000 0.841320 Ti
0.125000 0.625000 0.841320 Ti
0.625000 0.625000 0.841320 Ti
0.125000 0.375000 0.932354 Ti
0.625000 0.375000 0.932354 Ti
0.125000 0.875000 0.932354 Ti
0.625000 0.875000 0.932354 Ti
0.375000 0.125000 0.932354 Ti
0.875000 0.125000 0.932354 Ti
0.375000 0.625000 0.932354 Ti
0.875000 0.625000 0.932354 Ti
0.375000 0.375000 0.659253 Ti
0.875000 0.375000 0.659253 Ti
0.375000 0.875000 0.659253 Ti
0.875000 0.875000 0.659253 Ti
0.125000 0.125000 0.659253 Ti
0.625000 0.125000 0.659253 Ti
0.125000 0.625000 0.659253 Ti
0.625000 0.625000 0.659253 Ti
0.125000 0.375000 0.568220 Ti
0.625000 0.375000 0.568220 Ti
0.125000 0.875000 0.568220 Ti
0.625000 0.875000 0.568220 Ti
0.375000 0.125000 0.568220 Ti
0.875000 0.125000 0.568220 Ti
0.375000 0.625000 0.568220 Ti
0.875000 0.625000 0.568220 Ti
0.375000 0.375000 0.477186 Ti
0.875000 0.375000 0.477186 Ti
0.375000 0.875000 0.477186 Ti
0.875000 0.875000 0.477186 Ti
0.125000 0.125000 0.477186 Ti
0.625000 0.125000 0.477186 Ti
0.125000 0.625000 0.477186 Ti
0.625000 0.625000 0.477186 Ti
0.125000 0.875000 0.750287 Ti
0.625000 0.875000 0.750287 Ti
0.375000 0.625000 0.750287 Ti
0.875000 0.625000 0.750287 Ti
0.125000 0.375000 0.750287 Ti
0.625000 0.375000 0.750287 Ti
0.375000 0.125000 0.750287 Ti
0.875000 0.125000 0.750287 Ti
