Ti66 Mo1
1.0
6.309760 0.000000 0.000000
0.000000 9.464640 0.000000
0.000000 0.000000 18.918326
Ti Mo
66 1
Selective dynamics
direct
0.127005 0.032306 0.507291 F F F Ti
0.629080 0.042492 0.500889 F F F Ti
0.125528 0.041047 0.660205 F F F Ti
0.625130 0.041526 0.659665 F F F Ti
0.125095 0.041594 0.817851 F F F Ti
0.624968 0.041652 0.817820 F F F Ti
0.627199 0.375701 0.501390 F F F Ti
0.125279 0.374938 0.659039 F F F Ti
0.625309 0.375275 0.659291 F F F Ti
0.125121 0.375008 0.817620 F F F Ti
0.625098 0.375065 0.817673 F F F Ti
0.125233 0.710337 0.500213 F F F Ti
0.622799 0.710184 0.500444 F F F Ti
0.125301 0.707833 0.659217 F F F Ti
0.624473 0.707398 0.659471 F F F Ti
0.125044 0.708151 0.817705 F F F Ti
0.624918 0.708075 0.817766 F F F Ti
0.376872 0.208265 0.580355 F F F Ti
0.874739 0.208336 0.580894 F F F Ti
0.375344 0.208410 0.738574 F F F Ti
0.875045 0.208369 0.738654 F F F Ti
0.375065 0.208503 0.896898 F F F Ti
0.875074 0.208488 0.896902 F F F Ti
0.374704 0.541434 0.579587 F F F Ti
0.875344 0.542156 0.579781 F F F Ti
0.374935 0.541297 0.738424 F F F Ti
0.875289 0.541387 0.738452 F F F Ti
0.374986 0.541606 0.896866 F F F Ti
0.875090 0.541625 0.896858 F F F Ti
0.378627 0.873545 0.580993 F F F Ti
0.872283 0.872936 0.581167 F F F Ti
0.375444 0.874515 0.738794 F F F Ti
0.874709 0.874460 0.738792 F F F Ti
0.375064 0.875096 0.896977 F F F Ti
0.874961 0.875098 0.896965 F F F Ti
0.126386 0.628085 0.356755 F F F Ti
0.622863 0.631621 0.356098 F F F Ti
0.125353 0.626468 0.118922 F F F Ti
0.625065 0.626500 0.118884 F F F Ti
0.634229 0.128756 0.357203 F F F Ti
0.125880 0.126266 0.119161 F F F Ti
0.625040 0.126131 0.119046 F F F Ti
0.125410 0.375657 0.039641 F F F Ti
0.625156 0.375651 0.039624 F F F Ti
0.125160 0.875847 0.039903 F F F Ti
0.624956 0.875825 0.039907 F F F Ti
0.125876 0.381164 0.276679 F F F Ti
0.626486 0.378082 0.276391 F F F Ti
0.125132 0.878873 0.278206 F F F Ti
0.625378 0.878905 0.277692 F F F Ti
0.374952 0.877002 0.158938 F F F Ti
0.875536 0.876731 0.158754 F F F Ti
0.375513 0.376608 0.158366 F F F Ti
0.875554 0.376921 0.158082 F F F Ti
0.388082 0.385877 0.396183 F F F Ti
0.858835 0.392850 0.395924 F F F Ti
0.375211 0.879136 0.397101 F F F Ti
0.874712 0.875332 0.397233 F F F Ti
0.375327 0.627905 0.237650 F F F Ti
0.875330 0.628095 0.237660 F F F Ti
0.375058 0.625640 0.000219 F F F Ti
0.875083 0.625659 0.000213 F F F Ti
0.376137 0.127905 0.238433 F F F Ti
0.875148 0.127770 0.237231 F F F Ti
0.375209 0.125366 0.000328 F F F Ti
0.875218 0.125373 0.000349 F F F Ti
0.099569 0.169699 0.397322 T T T Mo

0.000000 0.000000 0.000000
0.000000 0.000000 0.000000
0.000000 0.000000 0.000000
0.000000 0.000000 0.000000
0.000000 0.000000 0.000000
0.000000 0.000000 0.000000
0.000000 0.000000 0.000000
0.000000 0.000000 0.000000
0.000000 0.000000 0.000000
0.000000 0.000000 0.000000
0.000000 0.000000 0.000000
0.000000 0.000000 0.000000
0.000000 0.000000 0.000000
0.000000 0.000000 0.000000
0.000000 0.000000 0.000000
0.000000 0.000000 0.000000
0.000000 0.000000 0.000000
0.000000 0.000000 0.000000
0.000000 0.000000 0.000000
0.000000 0.000000 0.000000
0.000000 0.000000 0.000000
0.000000 0.000000 0.000000
0.000000 0.000000 0.000000
0.000000 0.000000 0.000000
0.000000 0.000000 0.000000
0.000000 0.000000 0.000000
0.000000 0.000000 0.000000
0.000000 0.000000 0.000000
0.000000 0.000000 0.000000
0.000000 0.000000 0.000000
0.000000 0.000000 0.000000
0.000000 0.000000 0.000000
0.000000 0.000000 0.000000
0.000000 0.000000 0.000000
0.000000 0.000000 0.000000
0.000000 0.000000 0.000000
0.000000 0.000000 0.000000
0.000000 0.000000 0.000000
0.000000 0.000000 0.000000
0.000000 0.000000 0.000000
0.000000 0.000000 0.000000
0.000000 0.000000 0.000000
0.000000 0.000000 0.000000
0.000000 0.000000 0.000000
0.000000 0.000000 0.000000
0.000000 0.000000 0.000000
0.000000 0.000000 0.000000
0.000000 0.000000 0.000000
0.000000 0.000000 0.000000
0.000000 0.000000 0.000000
0.000000 0.000000 0.000000
0.000000 0.000000 0.000000
0.000000 0.000000 0.000000
0.000000 0.000000 0.000000
0.000000 0.000000 0.000000
0.000000 0.000000 0.000000
0.000000 0.000000 0.000000
0.000000 0.000000 0.000000
0.000000 0.000000 0.000000
0.000000 0.000000 0.000000
0.000000 0.000000 0.000000
0.000000 0.000000 0.000000
0.000000 0.000000 0.000000
0.000000 0.000000 0.000000
0.000000 0.000000 0.000000
0.000000 0.000000 0.000000
0.000000 0.000000 0.000000
