Ti66 Cr1
1.0
6.309760 0.000000 0.000000
0.000000 9.464640 0.000000
0.000000 0.000000 18.918326
Ti Cr
66 1
Selective dynamics
direct
0.127804 0.023683 0.506078 F F F Ti
0.630017 0.040251 0.500529 F F F Ti
0.125872 0.038816 0.659796 F F F Ti
0.625304 0.039157 0.659431 F F F Ti
0.125218 0.040657 0.817502 F F F Ti
0.625064 0.040696 0.817494 F F F Ti
0.631321 0.373755 0.501204 F F F Ti
0.125523 0.372937 0.658774 F F F Ti
0.625850 0.373564 0.659233 F F F Ti
0.125277 0.374150 0.817339 F F F Ti
0.625280 0.374219 0.817441 F F F Ti
0.124981 0.699301 0.499469 F F F Ti
0.622227 0.706752 0.500002 F F F Ti
0.125464 0.704982 0.658716 F F F Ti
0.624288 0.705467 0.659136 F F F Ti
0.125127 0.707230 0.817346 F F F Ti
0.624955 0.707257 0.817435 F F F Ti
0.378920 0.205421 0.580516 F F F Ti
0.873282 0.204910 0.581600 F F F Ti
0.375547 0.207068 0.738321 F F F Ti
0.875245 0.206976 0.738488 F F F Ti
0.375157 0.207849 0.896480 F F F Ti
0.875166 0.207829 0.896501 F F F Ti
0.375913 0.538371 0.579392 F F F Ti
0.874509 0.539705 0.579819 F F F Ti
0.375114 0.539999 0.738191 F F F Ti
0.875399 0.540173 0.738262 F F F Ti
0.375065 0.541092 0.896493 F F F Ti
0.875162 0.541120 0.896493 F F F Ti
0.378194 0.870441 0.580431 F F F Ti
0.872998 0.869722 0.580593 F F F Ti
0.375331 0.873107 0.738408 F F F Ti
0.875036 0.873012 0.738400 F F F Ti
0.375095 0.874550 0.896546 F F F Ti
0.875036 0.874549 0.896539 F F F Ti
0.126246 0.627394 0.355949 F F F Ti
0.622344 0.634432 0.354975 F F F Ti
0.125351 0.626417 0.118418 F F F Ti
0.625054 0.626479 0.118335 F F F Ti
0.633520 0.127605 0.356714 F F F Ti
0.125886 0.125965 0.118863 F F F Ti
0.625233 0.125876 0.118782 F F F Ti
0.125478 0.375379 0.039180 F F F Ti
0.625182 0.375370 0.039205 F F F Ti
0.125129 0.875733 0.039551 F F F Ti
0.624960 0.875758 0.039547 F F F Ti
0.125974 0.379457 0.276313 F F F Ti
0.625599 0.377714 0.274092 F F F Ti
0.125117 0.878531 0.277826 F F F Ti
0.625288 0.879278 0.277235 F F F Ti
0.374965 0.876936 0.158528 F F F Ti
0.875562 0.876804 0.158394 F F F Ti
0.374768 0.376314 0.157702 F F F Ti
0.876305 0.376520 0.157430 F F F Ti
0.403184 0.389995 0.393228 F F F Ti
0.839094 0.399010 0.391231 F F F Ti
0.374081 0.878573 0.396826 F F F Ti
0.876652 0.875823 0.396866 F F F Ti
0.374995 0.627935 0.236934 F F F Ti
0.875533 0.628205 0.236901 F F F Ti
0.375053 0.625451 -0.000180 F F F Ti
0.875110 0.625470 -0.000184 F F F Ti
0.375389 0.127471 0.238232 F F F Ti
0.876510 0.127381 0.237433 F F F Ti
0.375183 0.125066 0.000006 F F F Ti
0.875260 0.125072 0.000036 F F F Ti
0.095249 0.240780 0.433905 T T T Cr

0.000000 0.000000 0.000000
0.000000 0.000000 0.000000
0.000000 0.000000 0.000000
0.000000 0.000000 0.000000
0.000000 0.000000 0.000000
0.000000 0.000000 0.000000
0.000000 0.000000 0.000000
0.000000 0.000000 0.000000
0.000000 0.000000 0.000000
0.000000 0.000000 0.000000
0.000000 0.000000 0.000000
0.000000 0.000000 0.000000
0.000000 0.000000 0.000000
0.000000 0.000000 0.000000
0.000000 0.000000 0.000000
0.000000 0.000000 0.000000
0.000000 0.000000 0.000000
0.000000 0.000000 0.000000
0.000000 0.000000 0.000000
0.000000 0.000000 0.000000
0.000000 0.000000 0.000000
0.000000 0.000000 0.000000
0.000000 0.000000 0.000000
0.000000 0.000000 0.000000
0.000000 0.000000 0.000000
0.000000 0.000000 0.000000
0.000000 0.000000 0.000000
0.000000 0.000000 0.000000
0.000000 0.000000 0.000000
0.000000 0.000000 0.000000
0.000000 0.000000 0.000000
0.000000 0.000000 0.000000
0.000000 0.000000 0.000000
0.000000 0.000000 0.000000
0.000000 0.000000 0.000000
0.000000 0.000000 0.000000
0.000000 0.000000 0.000000
0.000000 0.000000 0.000000
0.000000 0.000000 0.000000
0.000000 0.000000 0.000000
0.000000 0.000000 0.000000
0.000000 0.000000 0.000000
0.000000 0.000000 0.000000
0.000000 0.000000 0.000000
0.000000 0.000000 0.000000
0.000000 0.000000 0.000000
0.000000 0.000000 0.000000
0.000000 0.000000 0.000000
0.000000 0.000000 0.000000
0.000000 0.000000 0.000000
0.000000 0.000000 0.000000
0.000000 0.000000 0.000000
0.000000 0.000000 0.000000
0.000000 0.000000 0.000000
0.000000 0.000000 0.000000
0.000000 0.000000 0.000000
0.000000 0.000000 0.000000
0.000000 0.000000 0.000000
0.000000 0.000000 0.000000
0.000000 0.000000 0.000000
0.000000 0.000000 0.000000
0.000000 0.000000 0.000000
0.000000 0.000000 0.000000
0.000000 0.000000 0.000000
0.000000 0.000000 0.000000
0.000000 0.000000 0.000000
0.000000 0.000000 0.000000
