total_Ti
1.0
6.309760 0.000000 0.000000
0.000000 9.464640 0.000000
0.000000 0.000000 19.900004
Ti
68
direct
0.125000 0.041667 0.500000 Ti
0.625000 0.041667 0.500000 Ti
0.125000 0.041667 0.650754 Ti
0.625000 0.041667 0.650754 Ti
0.125000 0.041667 0.801507 Ti
0.625000 0.041667 0.801507 Ti
0.125000 0.375000 0.500000 Ti
0.625000 0.375000 0.500000 Ti
0.125000 0.375000 0.650754 Ti
0.625000 0.375000 0.650754 Ti
0.125000 0.375000 0.801507 Ti
0.625000 0.375000 0.801507 Ti
0.125000 0.708333 0.500000 Ti
0.625000 0.708333 0.500000 Ti
0.125000 0.708333 0.650754 Ti
0.625000 0.708333 0.650754 Ti
0.125000 0.708333 0.801507 Ti
0.625000 0.708333 0.801507 Ti
0.375000 0.208333 0.575377 Ti
0.875000 0.208333 0.575377 Ti
0.375000 0.208333 0.726131 Ti
0.875000 0.208333 0.726131 Ti
0.375000 0.208333 0.876884 Ti
0.875000 0.208333 0.876884 Ti
0.375000 0.541667 0.575377 Ti
0.875000 0.541667 0.575377 Ti
0.375000 0.541667 0.726131 Ti
0.875000 0.541667 0.726131 Ti
0.375000 0.541667 0.876884 Ti
0.875000 0.541667 0.876884 Ti
0.375000 0.875000 0.575377 Ti
0.875000 0.875000 0.575377 Ti
0.375000 0.875000 0.726131 Ti
0.875000 0.875000 0.726131 Ti
0.375000 0.875000 0.876884 Ti
0.875000 0.875000 0.876884 Ti
0.125000 0.625000 0.339196 Ti
0.625000 0.625000 0.339196 Ti
0.125000 0.625000 0.113065 Ti
0.625000 0.625000 0.113065 Ti
0.125000 0.125000 0.339196 Ti
0.625000 0.125000 0.339196 Ti
0.125000 0.125000 0.113065 Ti
0.625000 0.125000 0.113065 Ti
0.125000 0.375000 0.037688 Ti
0.625000 0.375000 0.037688 Ti
0.125000 0.875000 0.037688 Ti
0.625000 0.875000 0.037688 Ti
0.125000 0.375000 0.263819 Ti
0.625000 0.375000 0.263819 Ti
0.125000 0.875000 0.263819 Ti
0.625000 0.875000 0.263819 Ti
0.375000 0.875000 0.150754 Ti
0.875000 0.875000 0.150754 Ti
0.374999 0.375000 0.150754 Ti
0.874999 0.375000 0.150754 Ti
0.375000 0.375000 0.376884 Ti
0.875000 0.375000 0.376884 Ti
0.375000 0.875000 0.376884 Ti
0.875000 0.875000 0.376884 Ti
0.375000 0.625000 0.226131 Ti
0.875000 0.625000 0.226131 Ti
0.375000 0.625000 -0.000000 Ti
0.875000 0.625000 -0.000000 Ti
0.375000 0.125000 0.226131 Ti
0.875000 0.125000 0.226131 Ti
0.375000 0.125000 -0.000000 Ti
0.875000 0.125000 -0.000000 Ti
