Ti97
1.0
9.513020 0.000000 0.000000
0.000000 9.350860 0.000000
0.000000 0.000000 18.547230
Ti
97
Selective dynamics
direct
0.150129 0.374931 0.403712 T T T Ti
0.653577 0.348925 0.396772 T T T Ti
0.141985 0.862123 0.395605 T T T Ti
0.661521 0.865910 0.401945 T T T Ti
0.161725 0.371016 0.235460 T T T Ti
0.659370 0.374766 0.234670 T T T Ti
0.162117 0.873859 0.235782 T T T Ti
0.658046 0.871511 0.235818 T T T Ti
0.166658 0.375027 0.077679 F F F Ti
0.666676 0.375009 0.077660 F F F Ti
0.166670 0.874982 0.077699 F F F Ti
0.666671 0.874982 0.077693 F F F Ti
0.406922 0.382598 0.315734 T T T Ti
0.905646 0.375153 0.319291 T T T Ti
0.404334 0.883877 0.323425 T T T Ti
0.907781 0.880814 0.313547 T T T Ti
0.416666 0.375000 0.155290 F F F Ti
0.916685 0.374990 0.155297 F F F Ti
0.416677 0.874992 0.155338 F F F Ti
0.916676 0.874963 0.155325 F F F Ti
0.416660 0.375027 -0.000010 F F F Ti
0.916648 0.375019 -0.000006 F F F Ti
0.416665 0.874982 -0.000020 F F F Ti
0.916655 0.874984 -0.000009 F F F Ti
0.094354 0.124847 0.319290 T T T Ti
0.593078 0.117402 0.315733 T T T Ti
0.092219 0.619186 0.313546 T T T Ti
0.595666 0.616123 0.323424 T T T Ti
0.083315 0.125015 0.155297 F F F Ti
0.583334 0.125006 0.155290 F F F Ti
0.083324 0.625042 0.155325 F F F Ti
0.583323 0.625013 0.155338 F F F Ti
0.083352 0.124986 -0.000005 F F F Ti
0.583341 0.124979 -0.000009 F F F Ti
0.083345 0.625023 -0.000008 F F F Ti
0.583335 0.625025 -0.000019 F F F Ti
0.346422 0.151075 0.396772 T T T Ti
0.849869 0.125069 0.403712 T T T Ti
0.338478 0.634090 0.401945 T T T Ti
0.858014 0.637877 0.395605 T T T Ti
0.340629 0.125235 0.234670 T T T Ti
0.838274 0.128985 0.235460 T T T Ti
0.341953 0.628490 0.235818 T T T Ti
0.837882 0.626142 0.235782 T T T Ti
0.333323 0.124996 0.077661 F F F Ti
0.833341 0.124977 0.077679 F F F Ti
0.333328 0.625024 0.077693 F F F Ti
0.833329 0.625023 0.077699 F F F Ti
0.374985 0.375019 0.823902 F F F Ti
0.874980 0.374968 0.823866 F F F Ti
0.375042 0.874954 0.823800 F F F Ti
0.875016 0.874974 0.823829 F F F Ti
0.125024 0.125028 0.823866 F F F Ti
0.625020 0.124981 0.823903 F F F Ti
0.124986 0.625026 0.823830 F F F Ti
0.624961 0.625040 0.823801 F F F Ti
0.124986 0.375025 0.910142 F F F Ti
0.625010 0.375016 0.910150 F F F Ti
0.125021 0.874970 0.910115 F F F Ti
0.624996 0.874964 0.910123 F F F Ti
0.374993 0.124984 0.910151 F F F Ti
0.875018 0.124975 0.910141 F F F Ti
0.375006 0.625036 0.910122 F F F Ti
0.874982 0.625030 0.910115 F F F Ti
0.387072 0.376399 0.665315 T T T Ti
0.886915 0.382205 0.647453 T T T Ti
0.382419 0.891190 0.655496 T T T Ti
0.895904 0.881647 0.659579 T T T Ti
0.113085 0.117794 0.647453 T T T Ti
0.612927 0.123598 0.665315 T T T Ti
0.104095 0.618350 0.659579 T T T Ti
0.617580 0.608807 0.655497 T T T Ti
0.144495 0.367431 0.570154 T T T Ti
0.635693 0.351847 0.574626 T T T Ti
0.146090 0.856001 0.573171 T T T Ti
0.669552 0.899874 0.576689 T T T Ti
0.364307 0.148153 0.574625 T T T Ti
0.855505 0.132569 0.570154 T T T Ti
0.330447 0.600126 0.576689 T T T Ti
0.853909 0.643998 0.573171 T T T Ti
0.404060 0.389015 0.483050 T T T Ti
0.892060 0.378914 0.488121 T T T Ti
0.355915 0.925368 0.479724 T T T Ti
0.910331 0.883044 0.486398 T T T Ti
0.107940 0.121086 0.488121 T T T Ti
0.595939 0.110984 0.483050 T T T Ti
0.089669 0.616956 0.486398 T T T Ti
0.644085 0.574632 0.479724 T T T Ti
0.125408 0.875040 0.737601 F F F Ti
0.625152 0.874894 0.737630 F F F Ti
0.374841 0.625093 0.737629 F F F Ti
0.874587 0.624949 0.737604 F F F Ti
0.124866 0.374874 0.737618 F F F Ti
0.625067 0.374771 0.737693 F F F Ti
0.374926 0.125212 0.737691 F F F Ti
0.875130 0.125114 0.737615 F F F Ti
0.500000 0.750000 0.527121 T T T Ti

0.000000 0.000000 0.000000
0.000000 0.000000 0.000000
0.000000 0.000000 0.000000
0.000000 0.000000 0.000000
0.000000 0.000000 0.000000
0.000000 0.000000 0.000000
0.000000 0.000000 0.000000
0.000000 0.000000 0.000000
0.000000 0.000000 0.000000
0.000000 0.000000 0.000000
0.000000 0.000000 0.000000
0.000000 0.000000 0.000000
0.000000 0.000000 0.000000
0.000000 0.000000 0.000000
0.000000 0.000000 0.000000
0.000000 0.000000 0.000000
0.000000 0.000000 0.000000
0.000000 0.000000 0.000000
0.000000 0.000000 0.000000
0.000000 0.000000 0.000000
0.000000 0.000000 0.000000
0.000000 0.000000 0.000000
0.000000 0.000000 0.000000
0.000000 0.000000 0.000000
0.000000 0.000000 0.000000
0.000000 0.000000 0.000000
0.000000 0.000000 0.000000
0.000000 0.000000 0.000000
0.000000 0.000000 0.000000
0.000000 0.000000 0.000000
0.000000 0.000000 0.000000
0.000000 0.000000 0.000000
0.000000 0.000000 0.000000
0.000000 0.000000 0.000000
0.000000 0.000000 0.000000
0.000000 0.000000 0.000000
0.000000 0.000000 0.000000
0.000000 0.000000 0.000000
0.000000 0.000000 0.000000
0.000000 0.000000 0.000000
0.000000 0.000000 0.000000
0.000000 0.000000 0.000000
0.000000 0.000000 0.000000
0.000000 0.000000 0.000000
0.000000 0.000000 0.000000
0.000000 0.000000 0.000000
0.000000 0.000000 0.000000
0.000000 0.000000 0.000000
0.000000 0.000000 0.000000
0.000000 0.000000 0.000000
0.000000 0.000000 0.000000
0.000000 0.000000 0.000000
0.000000 0.000000 0.000000
0.000000 0.000000 0.000000
0.000000 0.000000 0.000000
0.000000 0.000000 0.000000
0.000000 0.000000 0.000000
0.000000 0.000000 0.000000
0.000000 0.000000 0.000000
0.000000 0.000000 0.000000
0.000000 0.000000 0.000000
0.000000 0.000000 0.000000
0.000000 0.000000 0.000000
0.000000 0.000000 0.000000
0.000000 0.000000 0.000000
0.000000 0.000000 0.000000
0.000000 0.000000 0.000000
0.000000 0.000000 0.000000
0.000000 0.000000 0.000000
0.000000 0.000000 0.000000
0.000000 0.000000 0.000000
0.000000 0.000000 0.000000
0.000000 0.000000 0.000000
0.000000 0.000000 0.000000
0.000000 0.000000 0.000000
0.000000 0.000000 0.000000
0.000000 0.000000 0.000000
0.000000 0.000000 0.000000
0.000000 0.000000 0.000000
0.000000 0.000000 0.000000
0.000000 0.000000 0.000000
0.000000 0.000000 0.000000
0.000000 0.000000 0.000000
0.000000 0.000000 0.000000
0.000000 0.000000 0.000000
0.000000 0.000000 0.000000
0.000000 0.000000 0.000000
0.000000 0.000000 0.000000
0.000000 0.000000 0.000000
0.000000 0.000000 0.000000
0.000000 0.000000 0.000000
0.000000 0.000000 0.000000
0.000000 0.000000 0.000000
0.000000 0.000000 0.000000
0.000000 0.000000 0.000000
0.000000 0.000000 0.000000
0.000000 0.000000 0.000000
