substance_bottem
1.0
   3.0750000000000002    0.0000000000000000    0.0000000000000002
   0.0000000000000026   16.0000000000000000    0.0000000000000010
   0.0000000000000000    0.0000000000000000   52.0109925000000004
Cr N
30 36
Selective dynamics
direct
   0.3179800000000000    0.8541700000000000    0.1769222823425259 T T T Cr
   0.3171399999999999    0.9636600000000000    0.2256051256856904 T T T Cr
   0.8244299999999999    0.7978400000000000    0.2252455478522160 T T T Cr
   0.3327500000000000    0.5208500000000000    0.1769222823425260 T T T Cr
   0.3319100000000000    0.6303400000000000    0.2256051256856904 T T T Cr
   0.8252700000000001    0.6883500000000000    0.1765726927822037 T T T Cr
   0.8391900000000000    0.4645200000000000    0.2252455478522161 T T T Cr
   0.3475200000000000    0.1875300000000000    0.1769222823425260 T T T Cr
   0.3466800000000000    0.2970200000000000    0.2256051256856904 T T T Cr
   0.8400400000000000    0.3550300000000000    0.1765627045090516 T T T Cr
   0.8539600000000002    0.1311900000000000    0.2252455478522161 T T T Cr
   0.3190500000000000    0.8541800000000001    0.0319125327208474 F F F Cr
   0.3182000000000000    0.9636700000000000    0.0805953760640119 F F F Cr
   0.8254899999999999    0.7978400000000000    0.0802357982305375 F F F Cr
   0.3320899999999999    0.7398700000000000    0.1282294507262094 F F F Cr
   0.8246500000000000    0.9073300000000000    0.1289186415737019 F F F Cr
   0.3338200000000000    0.5208600000000000    0.0319125327208474 F F F Cr
   0.3329700000000000    0.6303500000000000    0.0805953760640119 F F F Cr
   0.8263400000000001    0.6883500000000000    0.0315629431605252 F F F Cr
   0.8402600000000000    0.4645200000000000    0.0802357982305375 F F F Cr
   0.3468600000000001    0.4065500000000000    0.1282294507262095 F F F Cr
   0.8394100000000000    0.5740100000000000    0.1289186415737019 F F F Cr
   0.3485900000000000    0.1875400000000000    0.0319125327208474 F F F Cr
   0.3477400000000000    0.2970300000000000    0.0805953760640119 F F F Cr
   0.8411000000000000    0.3550300000000000    0.0315529548873731 F F F Cr
   0.8550300000000000    0.1312000000000000    0.0802357982305375 F F F Cr
   0.3616200000000000    0.0732300000000000    0.1282294507262095 F F F Cr
   0.8541800000000001    0.2406900000000000    0.1289186415737019 F F F Cr
   0.8400400000000000    0.0233600000000000    0.1765627045090516 T T T Cr
   0.8411000000000000    0.0233700000000000    0.0315529548873731 F F F Cr
   0.8174800000000000    0.9097300000000000    0.2014335046576933 T T T N
   0.3249200000000000    0.7422700000000000    0.2007343255370487 T T T N
   0.3240800000000000    0.8517600000000000    0.2494171688802131 T T T N
   0.8315899999999999    0.7954300000000000    0.1527406730413768 T T T N
   0.3243000000000000    0.9612600000000000    0.1530902626016990 T T T N
   0.8322500000000002    0.5764100000000000    0.2014335046576933 T T T N
   0.8313700000000001    0.6859400000000000    0.2490675793198908 T T T N
   0.3396900000000000    0.4089500000000000    0.2007343255370487 T T T N
   0.3388500000000000    0.5184400000000000    0.2494171688802131 T T T N
   0.8463600000000001    0.4621100000000000    0.1527406730413768 T T T N
   0.3390700000000000    0.6279400000000001    0.1530902626016991 T T T N
   0.8470199999999999    0.2430900000000000    0.2014335046576933 T T T N
   0.8461400000000000    0.3526200000000000    0.2490675793198909 T T T N
   0.3544600000000000    0.0756300000000000    0.2007343255370487 T T T N
   0.3536200000000000    0.1851200000000000    0.2494171688802131 T T T N
   0.8611300000000000    0.1287900000000000    0.1527406730413768 T T T N
   0.3538400000000000    0.2946200000000000    0.1530902626016990 T T T N
   0.8185500000000000    0.9097400000000000    0.0564237550360147 F F F N
   0.3259899999999999    0.7422800000000001    0.0557245759153702 F F F N
   0.3251400000000000    0.8517700000000000    0.1044074192585346 F F F N
   0.8326499999999999    0.7954400000000000    0.0077309234196982 F F F N
   0.3253600000000000    0.9612700000000000    0.0080805129800205 F F F N
   0.8333199999999999    0.5764200000000000    0.0564237550360148 F F F N
   0.8324300000000000    0.6859400000000000    0.1040578296982124 F F F N
   0.3407600000000001    0.4089600000000000    0.0557245759153702 F F F N
   0.3399100000000000    0.5184500000000000    0.1044074192585346 F F F N
   0.8474200000000001    0.4621200000000000    0.0077309234196982 F F F N
   0.3401300000000000    0.6279400000000001    0.0080805129800205 F F F N
   0.8480899999999999    0.2431000000000000    0.0564237550360147 F F F N
   0.8472000000000000    0.3526200000000000    0.1040578296982124 F F F N
   0.3555300000000000    0.0756400000000000    0.0557245759153702 F F F N
   0.3546799999999999    0.1851300000000000    0.1044074192585346 F F F N
   0.8621900000000001    0.1288000000000000    0.0077309234196982 F F F N
   0.3549000000000000    0.2946200000000000    0.0080805129800205 F F F N
   0.8461400000000000    0.0209600000000000    0.2490675793198909 T T T N
   0.8472000000000000    0.0209600000000000    0.1040578296982123 F F F N
