total_structure
1.0
   3.5062000000000002    0.0000000000000000    0.0000000000000002
   0.0000000000000019   12.0001999999999995    0.0000000000000007
   0.0000000000000000    0.0000000000000000   28.3249410620000006
Cr Fe Mo N
20 36 4 24
Selective dynamics
direct
   0.6482100000000000    0.3787300000000000    0.3358162197823958 T T T Cr
   0.6482100000000000    0.1287300000000000    0.3358162197823958 T T T Cr
   0.1482100000000000    0.0037300000000000    0.2560807173128091 T T T Cr
   0.6482100000000000    0.3787300000000000    0.1763349818475255 F F F Cr
   0.6482100000000000    0.1287300000000000    0.1763349818475255 F F F Cr
   0.1482100000000000    0.2537300000000000    0.2560807173128091 T T T Cr
   0.6482100000000000    0.8787300000000000    0.3358162197823958 T T T Cr
   0.6482100000000000    0.6287300000000000    0.3358162197823958 T T T Cr
   0.1482100000000000    0.5037300000000000    0.2560807173128091 T T T Cr
   0.6482100000000000    0.8787300000000000    0.1763349818475255 F F F Cr
   0.6482100000000000    0.6287300000000000    0.1763349818475255 F F F Cr
   0.1482100000000000    0.7537299999999999    0.2560807173128091 T T T Cr
   0.1317400000000000    0.0053800000000000    0.0967120423306037 F F F Cr
   0.6317400000000001    0.3803800000000000    0.0169663068653202 F F F Cr
   0.6317400000000000    0.1303800000000000    0.0169663068653202 F F F Cr
   0.1317400000000000    0.2553800000000000    0.0967120423306037 F F F Cr
   0.1317400000000000    0.5053800000000001    0.0967120423306037 F F F Cr
   0.6317400000000001    0.8803800000000001    0.0169663068653202 F F F Cr
   0.6317400000000001    0.6303800000000001    0.0169663068653202 F F F Cr
   0.1317400000000000    0.7553800000000001    0.0967120423306037 F F F Cr
   0.1415300000000000    0.7221700000000000    0.7957801048786520 F F F Fe
   0.6415299999999999    0.5580400000000000    0.7825693074340633 F F F Fe
   0.6415299999999999    0.7428899999999999    0.7421285084402481 F F F Fe
   0.1415300000000000    0.5787500000000000    0.7289177109956594 F F F Fe
   0.1415300000000000    0.3939000000000000    0.7693482769937775 F F F Fe
   0.6415300000000000    0.2297700000000000    0.7561374795491886 F F F Fe
   0.6415300000000000    0.4146200000000000    0.7156966805553736 F F F Fe
   0.1415300000000000    0.2504800000000000    0.7024858831107847 F F F Fe
   0.1415300000000000    0.0656300000000000    0.7429164491089030 F F F Fe
   0.6415300000000000    0.9015000000000000    0.7297056516643141 F F F Fe
   0.6415300000000000    0.0863500000000000    0.6892648526704991 F F F Fe
   0.1415300000000000    0.9222099999999999    0.6760540552259102 F F F Fe
   0.1415300000000000    0.7635999999999999    0.6884871449975412 F F F Fe
   0.6415300000000000    0.5994699999999999    0.6752661145572555 F F F Fe
   0.6415299999999999    0.7843100000000000    0.6348355485591373 F F F Fe
   0.1415300000000000    0.6201800000000000    0.6216145181188515 F F F Fe
   0.1415300000000000    0.4353300000000000    0.6620553171126665 F F F Fe
   0.6415300000000000    0.2712000000000000    0.6488342866723809 F F F Fe
   0.6415300000000000    0.4560500000000000    0.6084037206742626 F F F Fe
   0.1415300000000000    0.2919100000000000    0.5951826902339770 F F F Fe
   0.1415300000000000    0.1070600000000000    0.6356234892277921 F F F Fe
   0.6415299999999999    0.9429300000000000    0.6224024587875063 F F F Fe
   0.6415300000000000    0.1277800000000000    0.5819718927893881 T T T Fe
   0.1415300000000000    0.9636399999999999    0.5687508623491024 T T T Fe
   0.1415300000000000    0.8050300000000000    0.5811839521207334 T T T Fe
   0.6415300000000000    0.6408900000000000    0.5679731546761444 T T T Fe
   0.6415300000000000    0.8257400000000000    0.5275323556823295 T T T Fe
   0.1415300000000000    0.6616100000000000    0.5143215582377405 T T T Fe
   0.1415300000000000    0.4767600000000000    0.5547521242358587 T T T Fe
   0.6415299999999999    0.3126200000000000    0.5415413267912699 T T T Fe
   0.6415300000000000    0.4974700000000000    0.5011005277974548 T T T Fe
   0.1415300000000000    0.3333333333333333    0.4878897303528659 T T T Fe
   0.1415300000000000    0.1484900000000000    0.5283202963509842 T T T Fe
   0.6415299999999999    0.9843499999999999    0.5151094989063952 T T T Fe
   0.6415300000000000    0.1692000000000000    0.4746686999125803 T T T Fe
   0.1415300000000000    0.0050700000000000    0.4614579024679914 T T T Fe
   0.1482100000000000    0.0037300000000000    0.4155619552476794 T T T Mo
   0.1482100000000000    0.2537300000000000    0.4155619552476794 T T T Mo
   0.1482100000000000    0.5037300000000000    0.4155619552476794 T T T Mo
   0.1482100000000000    0.7537299999999999    0.4155619552476794 T T T Mo
   0.6482100000000000    0.3787300000000000    0.4155619552476794 T T T N
   0.1482100000000000    0.0037300000000000    0.3358162197823958 T T T N
   0.1482100000000000    0.2537300000000000    0.3358162197823958 T T T N
   0.6482100000000000    0.1287300000000000    0.4155619552476794 T T T N
   0.6482100000000000    0.3787300000000000    0.2560807173128091 T T T N
   0.1482100000000000    0.0037300000000000    0.1763349818475255 F F F N
   0.1482100000000000    0.2537300000000000    0.1763349818475255 F F F N
   0.6482100000000000    0.1287300000000000    0.2560807173128091 T T T N
   0.6482100000000000    0.8787300000000000    0.4155619552476794 T T T N
   0.1482100000000000    0.5037300000000000    0.3358162197823958 T T T N
   0.1482100000000000    0.7537299999999999    0.3358162197823958 T T T N
   0.6482100000000000    0.6287300000000000    0.4155619552476794 T T T N
   0.6482100000000000    0.8787300000000000    0.2560807173128091 T T T N
   0.1482100000000000    0.5037300000000000    0.1763349818475255 F F F N
   0.1482100000000000    0.7537299999999999    0.1763349818475255 F F F N
   0.6482100000000000    0.6287300000000000    0.2560807173128091 T T T N
   0.6317400000000001    0.3803800000000000    0.0967120423306037 F F F N
   0.1317400000000000    0.0053800000000000    0.0169663068653202 F F F N
   0.1317400000000000    0.2553800000000000    0.0169663068653202 F F F N
   0.6317400000000000    0.1303800000000000    0.0967120423306037 F F F N
   0.6317400000000001    0.8803800000000001    0.0967120423306037 F F F N
   0.1317400000000000    0.5053800000000001    0.0169663068653202 F F F N
   0.1317400000000000    0.7553800000000001    0.0169663068653202 F F F N
   0.6317400000000001    0.6303800000000001    0.0967120423306037 F F F N
