substance_top
1.0
   2.9630000000000001    0.0000000000000000    0.0000000000000002
   0.0000000000000025   15.3989999999999991    0.0000000000000009
   0.0000000000000000    0.0000000000000000   48.6920000000000002
Fe
52
Selective dynamics
direct
   0.3530400000000001    0.0451600000000000    0.3492052082477615 T T T Fe
   0.3478800000000001    0.1587300000000000    0.3973650702374108 T T T Fe
   0.3467900000000000    0.1101100000000000    0.4792573728743942 F F F Fe
   0.3427100000000000    0.2723000000000000    0.4455352008543499 F F F Fe
   0.3457200000000001    0.0614800000000000    0.5611496755113777 F F F Fe
   0.3416300000000000    0.2236700000000000    0.5274275034913334 F F F Fe
   0.3375500000000000    0.3858699999999999    0.4936950628439991 F F F Fe
   0.3489500000000000    0.2073600000000000    0.3154727676004273 T T T Fe
   0.3437800000000000    0.3209400000000000    0.3636428982173665 T T T Fe
   0.3396899999999999    0.4831299999999999    0.3299207261973220 T T T Fe
   0.3386200000000000    0.4344999999999999    0.4118027602070156 T T T Fe
   0.3345300000000000    0.5967000000000000    0.3780805881869712 T T T Fe
   0.3304300000000001    0.7588900000000000    0.3443584161669269 T T T Fe
   0.3334500000000000    0.5480600000000000    0.4599728908239548 F F F Fe
   0.3293600000000000    0.7102600000000000    0.4262507188039104 T T T Fe
   0.3252700000000000    0.8724700000000000    0.3925182781565761 T T T Fe
   0.3405600000000000    0.1750400000000000    0.6093095375010270 F F F Fe
   0.3364600000000000    0.3372400000000000    0.5755873654809827 F F F Fe
   0.3323800000000000    0.4994300000000000    0.5418651934609382 F F F Fe
   0.3272200000000001    0.6130100000000001    0.5900250554505875 F F F Fe
   0.3282900000000001    0.6616400000000000    0.5081327528136040 F F F Fe
   0.3242000000000000    0.8238400000000000    0.4744105807935596 F F F Fe
   0.3201000000000000    0.9860300000000000    0.4406884087735153 F F F Fe
   0.3231200000000000    0.7752000000000000    0.5563028834305431 F F F Fe
   0.3190300000000000    0.9374000000000000    0.5225807114104988 F F F Fe
   0.3179600000000001    0.8887699999999999    0.6044627454201923 F F F Fe
   0.8304500000000001    0.1350900000000000    0.4383676990059970 F F F Fe
   0.8293799999999999    0.0864600000000000    0.5202600016429805 F F F Fe
   0.8252900000000000    0.2486500000000000    0.4865378296229361 F F F Fe
   0.8366899999999999    0.0701500000000000    0.3083155343793643 T T T Fe
   0.8315300000000000    0.1837200000000000    0.3564753963690134 T T T Fe
   0.8274300000000000    0.3459199999999999    0.3227532243489691 T T T Fe
   0.8263600000000001    0.2972799999999999    0.4046455269859526 T T T Fe
   0.8222700000000002    0.4594800000000000    0.3709233549659082 T T T Fe
   0.8181899999999999    0.6216800000000000    0.3371909143185740 T T T Fe
   0.8212000000000000    0.4108500000000000    0.4528053889756018 F F F Fe
   0.8171000000000002    0.5730499999999999    0.4190832169555574 T T T Fe
   0.8130200000000000    0.7352500000000000    0.3853610449355132 T T T Fe
   0.8089300000000000    0.8974500000000000    0.3516286042881788 T T T Fe
   0.8283100000000000    0.0378300000000000    0.6021523042799640 F F F Fe
   0.8242200000000000    0.2000200000000000    0.5684301322599197 F F F Fe
   0.8201199999999998    0.3622300000000000    0.5346976916125853 F F F Fe
   0.8149600000000000    0.4757900000000000    0.5828678222295245 F F F Fe
   0.8160300000000000    0.5244200000000000    0.5009755195925409 F F F Fe
   0.8119400000000001    0.6866200000000000    0.4672533475724966 F F F Fe
   0.8078600000000001    0.8488200000000000    0.4335209069251624 T T T Fe
   0.8037600000000000    0.0110100000000000    0.3997987349051180 T T T Fe
   0.8108700000000001    0.6379899999999999    0.5491353815821902 F F F Fe
   0.8067700000000001    0.8001900000000000    0.5154132095621459 F F F Fe
   0.8026900000000000    0.9623800000000000    0.4816910375421015 F F F Fe
   0.8056999999999999    0.7515500000000001    0.5973055121991294 F F F Fe
   0.8016100000000000    0.9137599999999999    0.5635833401790848 F F F Fe
