substance_top
1.0
   3.5061499999999999    0.0000000000000000    0.0000000000000002
   0.0000000000000019   12.0001999999999995    0.0000000000000007
   0.0000000000000000    0.0000000000000000   26.3716049620000028
Fe
36
Selective dynamics
direct
   0.9933200000000000    0.7184400000000000    0.6208010500153646 F F F Fe
   0.4933200000000000    0.5543100000000000    0.6076373229877444 F F F Fe
   0.4933200000000000    0.7391600000000000    0.5673406156189182 F F F Fe
   0.9933200000000000    0.5750200000000000    0.5541768885912982 F F F Fe
   0.9933200000000002    0.3901700000000000    0.5944633994248590 F F F Fe
   0.4933200000000000    0.2260400000000000    0.5812996723972389 F F F Fe
   0.4933200000000000    0.4108899999999999    0.5410029650284126 F F F Fe
   0.9933200000000002    0.2467500000000000    0.5278392380007926 F F F Fe
   0.9933200000000000    0.0619000000000000    0.5681257488343534 F F F Fe
   0.4933200000000000    0.8977699999999998    0.5549620218067333 F F F Fe
   0.4933200000000000    0.0826200000000000    0.5146653144379071 F F F Fe
   0.9933200000000000    0.9184800000000000    0.5015015874102869 F F F Fe
   0.9933200000000000    0.7598700000000000    0.5138903777577373 F F F Fe
   0.4933200000000000    0.5957300000000000    0.5007164541948518 F F F Fe
   0.4933200000000000    0.7805800000000001    0.4604299433612910 F F F Fe
   0.9933200000000002    0.6164500000000001    0.4472560197984055 F F F Fe
   0.9933200000000002    0.4315999999999999    0.4875527271672317 F F F Fe
   0.4933200000000000    0.2674600000000000    0.4743788036043462 F F F Fe
   0.4933200000000000    0.4523100000000000    0.4340922927707854 F F F Fe
   0.9933200000000002    0.2881800000000000    0.4209183692078998 F F F Fe
   0.9933199999999998    0.1033300000000000    0.4612150765767261 F F F Fe
   0.4933200000000000    0.9391999999999999    0.4480411530138404 F F F Fe
   0.4933200000000000    0.1240400000000000    0.4077546421802797 F F F Fe
   0.9933200000000000    0.9599100000000000    0.3945807186173941 F F F Fe
   0.9933200000000000    0.8013000000000000    0.4069695089648445 F F F Fe
   0.4933200000000000    0.6371599999999998    0.3938057819372246 F F F Fe
   0.4933200000000000    0.8220099999999999    0.3535090745683983 F F F Fe
   0.9933200000000002    0.6578799999999999    0.3403453475407782 F F F Fe
   0.9933200000000002    0.4730300000000000    0.3806318583743390 F F F Fe
   0.4933200000000000    0.3088900000000000    0.3674681313467190 F F F Fe
   0.4933200000000000    0.4937400000000000    0.3271714239778926 F F F Fe
   0.9933200000000000    0.3296100000000000    0.3140076969502726 F F F Fe
   0.9933200000000002    0.1447600000000000    0.3542942077838334 F F F Fe
   0.4933200000000000    0.9806200000000000    0.3411304807562132 F F F Fe
   0.4933200000000000    0.1654700000000000    0.3008337733873869 F F F Fe
   0.9933200000000000    0.0013400000000000    0.2876700463597670 F F F Fe
