substance_top
1.0
   3.0750000000000002    0.0000000000000000    0.0000000000000002
   0.0000000000000026   16.0000000000000000    0.0000000000000010
   0.0000000000000000    0.0000000000000000   52.0109925000000004
Fe W
54 6
Selective dynamics
direct
   0.3530400000000000    0.0286600000000000    0.3517810489772907 T T T Fe
   0.3478800000000001    0.1409000000000000    0.3989256982550371 T T T Fe
   0.3467900000000000    0.0900100000000000    0.4784523290917781 F F F Fe
   0.3427100000000000    0.2531300000000000    0.4460803358059356 T T T Fe
   0.3457200000000000    0.0391300000000000    0.5579689716553669 F F F Fe
   0.3416299999999999    0.2022400000000000    0.5256069666426766 F F F Fe
   0.3375500000000000    0.3653700000000000    0.4932349733568342 F F F Fe
   0.3489500000000000    0.1917800000000000    0.3194090556914483 T T T Fe
   0.3437799999999999    0.3040200000000000    0.3665636932423468 T T T Fe
   0.3396900000000000    0.4671400000000000    0.3342016882296564 T T T Fe
   0.3386200000000000    0.4162500000000000    0.4137083425200933 T T T Fe
   0.3345300000000000    0.5793800000000000    0.3813463375074029 T T T Fe
   0.3304300000000000    0.7425000000000000    0.3489843324947126 T T T Fe
   0.3334500000000000    0.5284799999999999    0.4608729683441438 F F F Fe
   0.3293600000000000    0.6916099999999999    0.4285009750583014 T T T Fe
   0.3252700000000000    0.8547400000000001    0.3961289817724589 T T T Fe
   0.3405600000000000    0.1513600000000000    0.6051236092062654 F F F Fe
   0.3364600000000000    0.3144800000000000    0.5727516159204230 F F F Fe
   0.3323800000000000    0.4776000000000000    0.5403896109077327 F F F Fe
   0.3272200000000001    0.5898400000000000    0.5875442484586312 F F F Fe
   0.3282900000000000    0.6407200000000000    0.5080176176218902 F F F Fe
   0.3242000000000000    0.8038500000000000    0.4756556126091999 F F F Fe
   0.3200999999999999    0.9669700000000000    0.4432836193233574 T T T Fe
   0.3231200000000000    0.7529500000000000    0.5551722551727887 F F F Fe
   0.3190300000000000    0.9160800000000000    0.5228102501600984 F F F Fe
   0.3179600000000000    0.8652000000000000    0.6023268927236872 F F F Fe
   0.8304500000000001    0.1161200000000000    0.4387489433123200 T T T Fe
   0.8293800000000001    0.0652400000000000    0.5182655858759090 F F F Fe
   0.8252899999999999    0.2283500000000000    0.4859035808632184 F F F Fe
   0.8366900000000000    0.0547800000000000    0.3120776631978326 T T T Fe
   0.8315300000000000    0.1670100000000000    0.3592223124755792 T T T Fe
   0.8274300000000000    0.3301300000000000    0.3268603074628888 T T T Fe
   0.8263600000000000    0.2792400000000000    0.4063769500264775 T T T Fe
   0.8222699999999999    0.4423600000000000    0.3740149450137873 T T T Fe
   0.8181899999999999    0.6054900000000000    0.3416429517279448 T T T Fe
   0.8212000000000000    0.3914800000000000    0.4535315875773761 F F F Fe
   0.8171000000000000    0.5546000000000000    0.4211595942915337 T T T Fe
   0.8130200000000001    0.7177200000000000    0.3887975892788433 T T T Fe
   0.8089300000000000    0.8808500000000000    0.3564255959930008 T T T Fe
   0.8283100000000001    0.0143500000000000    0.5977922167126497 F F F Fe
   0.8242200000000000    0.1774700000000000    0.5654302116999594 F F F Fe
   0.8201200000000000    0.3405900000000000    0.5330482301409648 F F F Fe
   0.8149600000000001    0.4528200000000000    0.5802128559650155 F F F Fe
   0.8160300000000000    0.5037100000000000    0.5006862251282747 F F F Fe
   0.8119400000000000    0.6668300000000000    0.4683242201155843 F F F Fe
   0.8078600000000001    0.8299600000000000    0.4359422385565898 T T T Fe
   0.8030800000000000    0.0063900000000000    0.3909450680065373 T T T Fe
   0.8108699999999999    0.6159500000000000    0.5478308744060210 F F F Fe
   0.8067699999999999    0.7790700000000000    0.5154688693933306 F F F Fe
   0.8026899999999999    0.9421900000000000    0.4831068643806403 F F F Fe
   0.8057000000000000    0.7281800000000000    0.5949955002300715 F F F Fe
   0.8016100000000000    0.8913000000000000    0.5626235069442291 F F F Fe
   0.3238700000000000    0.9110900000000000    0.3169719170423445 T T T Fe
   0.8118499999999998    0.7695300000000000    0.3092409936226461 T T T Fe
   0.3310199999999999    0.7398700000000000    0.2744118851413959 T T T W
   0.8235800000000000    0.9073300000000000    0.2751010759888883 T T T W
   0.3457900000000000    0.4065500000000000    0.2744118851413959 T T T W
   0.8383500000000002    0.5740100000000000    0.2751010759888883 T T T W
   0.3605600000000000    0.0732200000000000    0.2744118851413959 T T T W
   0.8531199999999999    0.2406800000000000    0.2751010759888883 T T T W
