total_structure
1.0
   3.0750000000000002    0.0000000000000000    0.0000000000000002
   0.0000000000000026   16.0000000000000000    0.0000000000000010
   0.0000000000000000    0.0000000000000000   52.0109925000000004
Cr Fe W N
30 54 6 36
Selective dynamics
direct
   0.3179800000000000    0.8541700000000000    0.1769222823425259 T T T Cr
   0.3171399999999999    0.9636600000000000    0.2256051256856904 T T T Cr
   0.8244299999999999    0.7978400000000000    0.2252455478522160 T T T Cr
   0.3327500000000000    0.5208500000000000    0.1769222823425260 T T T Cr
   0.3319100000000000    0.6303400000000000    0.2256051256856904 T T T Cr
   0.8252700000000001    0.6883500000000000    0.1765726927822037 T T T Cr
   0.8391900000000000    0.4645200000000000    0.2252455478522161 T T T Cr
   0.3475200000000000    0.1875300000000000    0.1769222823425260 T T T Cr
   0.3466800000000000    0.2970200000000000    0.2256051256856904 T T T Cr
   0.8400400000000000    0.3550300000000000    0.1765627045090516 T T T Cr
   0.8539600000000002    0.1311900000000000    0.2252455478522161 T T T Cr
   0.3190500000000000    0.8541800000000001    0.0319125327208474 F F F Cr
   0.3182000000000000    0.9636700000000000    0.0805953760640119 F F F Cr
   0.8254899999999999    0.7978400000000000    0.0802357982305375 F F F Cr
   0.3320899999999999    0.7398700000000000    0.1282294507262094 F F F Cr
   0.8246500000000000    0.9073300000000000    0.1289186415737019 F F F Cr
   0.3338200000000000    0.5208600000000000    0.0319125327208474 F F F Cr
   0.3329700000000000    0.6303500000000000    0.0805953760640119 F F F Cr
   0.8263400000000001    0.6883500000000000    0.0315629431605252 F F F Cr
   0.8402600000000000    0.4645200000000000    0.0802357982305375 F F F Cr
   0.3468600000000001    0.4065500000000000    0.1282294507262095 F F F Cr
   0.8394100000000000    0.5740100000000000    0.1289186415737019 F F F Cr
   0.3485900000000000    0.1875400000000000    0.0319125327208474 F F F Cr
   0.3477400000000000    0.2970300000000000    0.0805953760640119 F F F Cr
   0.8411000000000000    0.3550300000000000    0.0315529548873731 F F F Cr
   0.8550300000000000    0.1312000000000000    0.0802357982305375 F F F Cr
   0.3616200000000000    0.0732300000000000    0.1282294507262095 F F F Cr
   0.8541800000000001    0.2406900000000000    0.1289186415737019 F F F Cr
   0.8400400000000000    0.0233600000000000    0.1765627045090516 T T T Cr
   0.8411000000000000    0.0233700000000000    0.0315529548873731 F F F Cr
   0.3530400000000000    0.0286600000000000    0.3517810489772907 T T T Fe
   0.3478800000000001    0.1409000000000000    0.3989256982550371 T T T Fe
   0.3467900000000000    0.0900100000000000    0.4784523290917781 F F F Fe
   0.3427100000000000    0.2531300000000000    0.4460803358059356 T T T Fe
   0.3457200000000000    0.0391300000000000    0.5579689716553669 F F F Fe
   0.3416299999999999    0.2022400000000000    0.5256069666426766 F F F Fe
   0.3375500000000000    0.3653700000000000    0.4932349733568342 F F F Fe
   0.3489500000000000    0.1917800000000000    0.3194090556914483 T T T Fe
   0.3437799999999999    0.3040200000000000    0.3665636932423468 T T T Fe
   0.3396900000000000    0.4671400000000000    0.3342016882296564 T T T Fe
   0.3386200000000000    0.4162500000000000    0.4137083425200933 T T T Fe
   0.3345300000000000    0.5793800000000000    0.3813463375074029 T T T Fe
   0.3304300000000000    0.7425000000000000    0.3489843324947126 T T T Fe
   0.3334500000000000    0.5284799999999999    0.4608729683441438 F F F Fe
   0.3293600000000000    0.6916099999999999    0.4285009750583014 T T T Fe
   0.3252700000000000    0.8547400000000001    0.3961289817724589 T T T Fe
   0.3405600000000000    0.1513600000000000    0.6051236092062654 F F F Fe
   0.3364600000000000    0.3144800000000000    0.5727516159204230 F F F Fe
   0.3323800000000000    0.4776000000000000    0.5403896109077327 F F F Fe
   0.3272200000000001    0.5898400000000000    0.5875442484586312 F F F Fe
   0.3282900000000000    0.6407200000000000    0.5080176176218902 F F F Fe
   0.3242000000000000    0.8038500000000000    0.4756556126091999 F F F Fe
   0.3200999999999999    0.9669700000000000    0.4432836193233574 T T T Fe
   0.3231200000000000    0.7529500000000000    0.5551722551727887 F F F Fe
   0.3190300000000000    0.9160800000000000    0.5228102501600984 F F F Fe
   0.3179600000000000    0.8652000000000000    0.6023268927236872 F F F Fe
   0.8304500000000001    0.1161200000000000    0.4387489433123200 T T T Fe
   0.8293800000000001    0.0652400000000000    0.5182655858759090 F F F Fe
   0.8252899999999999    0.2283500000000000    0.4859035808632184 F F F Fe
   0.8366900000000000    0.0547800000000000    0.3120776631978326 T T T Fe
   0.8315300000000000    0.1670100000000000    0.3592223124755792 T T T Fe
   0.8274300000000000    0.3301300000000000    0.3268603074628888 T T T Fe
   0.8263600000000000    0.2792400000000000    0.4063769500264775 T T T Fe
   0.8222699999999999    0.4423600000000000    0.3740149450137873 T T T Fe
   0.8181899999999999    0.6054900000000000    0.3416429517279448 T T T Fe
   0.8212000000000000    0.3914800000000000    0.4535315875773761 F F F Fe
   0.8171000000000000    0.5546000000000000    0.4211595942915337 T T T Fe
   0.8130200000000001    0.7177200000000000    0.3887975892788433 T T T Fe
   0.8089300000000000    0.8808500000000000    0.3564255959930008 T T T Fe
   0.8283100000000001    0.0143500000000000    0.5977922167126497 F F F Fe
   0.8242200000000000    0.1774700000000000    0.5654302116999594 F F F Fe
   0.8201200000000000    0.3405900000000000    0.5330482301409648 F F F Fe
   0.8149600000000001    0.4528200000000000    0.5802128559650155 F F F Fe
   0.8160300000000000    0.5037100000000000    0.5006862251282747 F F F Fe
   0.8119400000000000    0.6668300000000000    0.4683242201155843 F F F Fe
   0.8078600000000001    0.8299600000000000    0.4359422385565898 T T T Fe
   0.8030800000000000    0.0063900000000000    0.3909450680065373 T T T Fe
   0.8108699999999999    0.6159500000000000    0.5478308744060210 F F F Fe
   0.8067699999999999    0.7790700000000000    0.5154688693933306 F F F Fe
   0.8026899999999999    0.9421900000000000    0.4831068643806403 F F F Fe
   0.8057000000000000    0.7281800000000000    0.5949955002300715 F F F Fe
   0.8016100000000000    0.8913000000000000    0.5626235069442291 F F F Fe
   0.3238700000000000    0.9110900000000000    0.3169719170423445 T T T Fe
   0.8118499999999998    0.7695300000000000    0.3092409936226461 T T T Fe
   0.3310199999999999    0.7398700000000000    0.2744118851413959 T T T W
   0.8235800000000000    0.9073300000000000    0.2751010759888883 T T T W
   0.3457900000000000    0.4065500000000000    0.2744118851413959 T T T W
   0.8383500000000002    0.5740100000000000    0.2751010759888883 T T T W
   0.3605600000000000    0.0732200000000000    0.2744118851413959 T T T W
   0.8531199999999999    0.2406800000000000    0.2751010759888883 T T T W
   0.8174800000000000    0.9097300000000000    0.2014335046576933 T T T N
   0.3249200000000000    0.7422700000000000    0.2007343255370487 T T T N
   0.3240800000000000    0.8517600000000000    0.2494171688802131 T T T N
   0.8315899999999999    0.7954300000000000    0.1527406730413768 T T T N
   0.3243000000000000    0.9612600000000000    0.1530902626016990 T T T N
   0.8322500000000002    0.5764100000000000    0.2014335046576933 T T T N
   0.8313700000000001    0.6859400000000000    0.2490675793198908 T T T N
   0.3396900000000000    0.4089500000000000    0.2007343255370487 T T T N
   0.3388500000000000    0.5184400000000000    0.2494171688802131 T T T N
   0.8463600000000001    0.4621100000000000    0.1527406730413768 T T T N
   0.3390700000000000    0.6279400000000001    0.1530902626016991 T T T N
   0.8470199999999999    0.2430900000000000    0.2014335046576933 T T T N
   0.8461400000000000    0.3526200000000000    0.2490675793198909 T T T N
   0.3544600000000000    0.0756300000000000    0.2007343255370487 T T T N
   0.3536200000000000    0.1851200000000000    0.2494171688802131 T T T N
   0.8611300000000000    0.1287900000000000    0.1527406730413768 T T T N
   0.3538400000000000    0.2946200000000000    0.1530902626016990 T T T N
   0.8185500000000000    0.9097400000000000    0.0564237550360147 F F F N
   0.3259899999999999    0.7422800000000001    0.0557245759153702 F F F N
   0.3251400000000000    0.8517700000000000    0.1044074192585346 F F F N
   0.8326499999999999    0.7954400000000000    0.0077309234196982 F F F N
   0.3253600000000000    0.9612700000000000    0.0080805129800205 F F F N
   0.8333199999999999    0.5764200000000000    0.0564237550360148 F F F N
   0.8324300000000000    0.6859400000000000    0.1040578296982124 F F F N
   0.3407600000000001    0.4089600000000000    0.0557245759153702 F F F N
   0.3399100000000000    0.5184500000000000    0.1044074192585346 F F F N
   0.8474200000000001    0.4621200000000000    0.0077309234196982 F F F N
   0.3401300000000000    0.6279400000000001    0.0080805129800205 F F F N
   0.8480899999999999    0.2431000000000000    0.0564237550360147 F F F N
   0.8472000000000000    0.3526200000000000    0.1040578296982124 F F F N
   0.3555300000000000    0.0756400000000000    0.0557245759153702 F F F N
   0.3546799999999999    0.1851300000000000    0.1044074192585346 F F F N
   0.8621900000000001    0.1288000000000000    0.0077309234196982 F F F N
   0.3549000000000000    0.2946200000000000    0.0080805129800205 F F F N
   0.8461400000000000    0.0209600000000000    0.2490675793198909 T T T N
   0.8472000000000000    0.0209600000000000    0.1040578296982123 F F F N
