substance_top
1.0
   3.5062000000000002    0.0000000000000000    0.0000000000000002
   0.0000000000000019   12.0001999999999995    0.0000000000000007
   0.0000000000000000    0.0000000000000000   28.3249410620000006
Fe
36
Selective dynamics
direct
   0.1373800000000000    0.7201700000000000    0.7957698718829553 F F F Fe
   0.6373799999999998    0.5560300000000000    0.7825488414426697 F F F Fe
   0.6373799999999998    0.7408799999999999    0.7421182754445514 F F F Fe
   0.1373800000000000    0.5767400000000000    0.7289074779999625 F F F Fe
   0.1373800000000000    0.3919000000000000    0.7693380439980807 F F F Fe
   0.6373799999999999    0.2277600000000000    0.7561170135577950 F F F Fe
   0.6373799999999999    0.4126100000000000    0.7156864475596768 F F F Fe
   0.1373800000000000    0.2484800000000000    0.7024756501150881 F F F Fe
   0.1373800000000000    0.0636300000000000    0.7429062161132062 F F F Fe
   0.6373799999999999    0.8994900000000000    0.7296851856729206 F F F Fe
   0.6373799999999999    0.0843400000000000    0.6892546196748023 F F F Fe
   0.1373800000000000    0.9202099999999999    0.6760438222302134 F F F Fe
   0.1373800000000000    0.7615900000000000    0.6884666790061474 F F F Fe
   0.6373799999999999    0.5974600000000000    0.6752558815615586 F F F Fe
   0.6373799999999998    0.7823099999999999    0.6348253155634404 F F F Fe
   0.1373800000000000    0.6181700000000000    0.6216042851231547 F F F Fe
   0.1373800000000000    0.4333199999999999    0.6620348511212729 F F F Fe
   0.6373799999999999    0.2691900000000000    0.6488240536766841 F F F Fe
   0.6373799999999999    0.4540399999999999    0.6083934876785659 F F F Fe
   0.1373800000000000    0.2899000000000000    0.5951724572382802 F F F Fe
   0.1373800000000000    0.1050500000000000    0.6356030232363984 F F F Fe
   0.6373799999999998    0.9409200000000000    0.6223922257918095 F F F Fe
   0.6373799999999999    0.1257700000000000    0.5819616597936913 F F F Fe
   0.1373800000000000    0.9616299999999999    0.5687406293534055 T T T Fe
   0.1373800000000000    0.8030199999999998    0.5811737191250365 F F F Fe
   0.6373799999999999    0.6388900000000000    0.5679526886847508 T T T Fe
   0.6373799999999999    0.8237400000000000    0.5275221226866326 T T T Fe
   0.1373800000000000    0.6595999999999999    0.5143113252420437 T T T Fe
   0.1373800000000000    0.4747499999999999    0.5547418912401620 T T T Fe
   0.6373799999999998    0.3106200000000000    0.5415208607998763 T T T Fe
   0.6373799999999999    0.4954700000000000    0.5010902948017580 T T T Fe
   0.1373800000000000    0.3313300000000000    0.4878794973571691 T T T Fe
   0.1373800000000000    0.1464800000000000    0.5283100633552874 T T T Fe
   0.6373799999999998    0.9823499999999998    0.5150890329150016 T T T Fe
   0.6373799999999999    0.1672000000000000    0.4746584669168835 T T T Fe
   0.1373800000000000    0.0030600000000000    0.4614476694722946 T T T Fe
