Ti83
1.0
6.391540 0.000000 0.000000
0.000000 9.587310 0.000000
0.000000 0.000000 23.271695
Ti
83
Selective dynamics
direct
0.634636 0.083320 0.581769 F F F Ti
0.125322 0.083326 0.709480 F F F Ti
0.625555 0.083323 0.709720 F F F Ti
0.125025 0.083329 0.838422 F F F Ti
0.625059 0.083329 0.838459 F F F Ti
0.124868 0.417457 0.580684 F F F Ti
0.625783 0.417121 0.580673 F F F Ti
0.125194 0.416759 0.709597 F F F Ti
0.625318 0.416835 0.709644 F F F Ti
0.125031 0.416667 0.838449 F F F Ti
0.625041 0.416677 0.838462 F F F Ti
0.124824 0.749181 0.580676 F F F Ti
0.625646 0.749528 0.580668 F F F Ti
0.125177 0.749883 0.709585 F F F Ti
0.625269 0.749825 0.709632 F F F Ti
0.125023 0.749998 0.838445 F F F Ti
0.625032 0.749990 0.838458 F F F Ti
0.376261 0.250549 0.645389 F F F Ti
0.876059 0.250573 0.645275 F F F Ti
0.375063 0.250013 0.774022 F F F Ti
0.875183 0.250021 0.774027 F F F Ti
0.374999 0.249992 0.902876 F F F Ti
0.875031 0.249993 0.902881 F F F Ti
0.375235 0.583235 0.645127 F F F Ti
0.875018 0.583246 0.645195 F F F Ti
0.375041 0.583314 0.774022 F F F Ti
0.875108 0.583313 0.774041 F F F Ti
0.374997 0.583327 0.902882 F F F Ti
0.875020 0.583328 0.902887 F F F Ti
0.376206 0.916143 0.645359 F F F Ti
0.876086 0.916081 0.645260 F F F Ti
0.375052 0.916645 0.774011 F F F Ti
0.875177 0.916630 0.774016 F F F Ti
0.374990 0.916664 0.902870 F F F Ti
0.875025 0.916662 0.902874 F F F Ti
0.124013 0.166894 0.386522 F F F Ti
0.623995 0.166821 0.386603 F F F Ti
0.124921 0.666322 0.386464 F F F Ti
0.624942 0.666603 0.386609 F F F Ti
0.125001 0.166658 -0.000008 F F F Ti
0.624987 0.166659 -0.000005 F F F Ti
0.125001 0.666678 -0.000004 F F F Ti
0.624989 0.666676 -0.000002 F F F Ti
0.124999 0.833340 0.096663 F F F Ti
0.624988 0.833341 0.096662 F F F Ti
0.121549 0.829699 0.482908 F F F Ti
0.625624 0.832331 0.483376 F F F Ti
0.124996 0.333327 0.096661 F F F Ti
0.624986 0.333328 0.096659 F F F Ti
0.121331 0.337136 0.482819 F F F Ti
0.625643 0.334287 0.483352 F F F Ti
0.375419 0.583136 0.483368 F F F Ti
0.873858 0.583206 0.483338 F F F Ti
0.375000 0.583334 0.096659 F F F Ti
0.875000 0.583335 0.096657 F F F Ti
0.374994 0.083333 0.096668 F F F Ti
0.874991 0.083335 0.096664 F F F Ti
0.867803 0.083290 0.482675 F F F Ti
0.375012 0.416798 0.386576 F F F Ti
0.874166 0.416905 0.386424 F F F Ti
0.374554 0.916432 0.386689 F F F Ti
0.874307 0.916452 0.386478 F F F Ti
0.374985 0.416661 -0.000005 F F F Ti
0.875002 0.416661 -0.000003 F F F Ti
0.374986 0.916670 -0.000004 F F F Ti
0.875004 0.916668 -0.000001 F F F Ti
0.374805 0.083304 0.290008 F F F Ti
0.874766 0.083334 0.289953 F F F Ti
0.124979 0.166652 0.193327 F F F Ti
0.624931 0.166650 0.193321 F F F Ti
0.124923 0.333368 0.289939 F F F Ti
0.624791 0.333315 0.289934 F F F Ti
0.374960 0.416666 0.193308 F F F Ti
0.874945 0.416660 0.193302 F F F Ti
0.375045 0.583331 0.289951 F F F Ti
0.874865 0.583346 0.289904 F F F Ti
0.124990 0.666666 0.193313 F F F Ti
0.624943 0.666670 0.193307 F F F Ti
0.124945 0.833322 0.289970 F F F Ti
0.624803 0.833311 0.289965 F F F Ti
0.374949 0.916666 0.193330 F F F Ti
0.874955 0.916655 0.193320 F F F Ti
0.271626 0.084050 0.526675 T T T Ti

0.000000 0.000000 0.000000
0.000000 0.000000 0.000000
0.000000 0.000000 0.000000
0.000000 0.000000 0.000000
0.000000 0.000000 0.000000
0.000000 0.000000 0.000000
0.000000 0.000000 0.000000
0.000000 0.000000 0.000000
0.000000 0.000000 0.000000
0.000000 0.000000 0.000000
0.000000 0.000000 0.000000
0.000000 0.000000 0.000000
0.000000 0.000000 0.000000
0.000000 0.000000 0.000000
0.000000 0.000000 0.000000
0.000000 0.000000 0.000000
0.000000 0.000000 0.000000
0.000000 0.000000 0.000000
0.000000 0.000000 0.000000
0.000000 0.000000 0.000000
0.000000 0.000000 0.000000
0.000000 0.000000 0.000000
0.000000 0.000000 0.000000
0.000000 0.000000 0.000000
0.000000 0.000000 0.000000
0.000000 0.000000 0.000000
0.000000 0.000000 0.000000
0.000000 0.000000 0.000000
0.000000 0.000000 0.000000
0.000000 0.000000 0.000000
0.000000 0.000000 0.000000
0.000000 0.000000 0.000000
0.000000 0.000000 0.000000
0.000000 0.000000 0.000000
0.000000 0.000000 0.000000
0.000000 0.000000 0.000000
0.000000 0.000000 0.000000
0.000000 0.000000 0.000000
0.000000 0.000000 0.000000
0.000000 0.000000 0.000000
0.000000 0.000000 0.000000
0.000000 0.000000 0.000000
0.000000 0.000000 0.000000
0.000000 0.000000 0.000000
0.000000 0.000000 0.000000
0.000000 0.000000 0.000000
0.000000 0.000000 0.000000
0.000000 0.000000 0.000000
0.000000 0.000000 0.000000
0.000000 0.000000 0.000000
0.000000 0.000000 0.000000
0.000000 0.000000 0.000000
0.000000 0.000000 0.000000
0.000000 0.000000 0.000000
0.000000 0.000000 0.000000
0.000000 0.000000 0.000000
0.000000 0.000000 0.000000
0.000000 0.000000 0.000000
0.000000 0.000000 0.000000
0.000000 0.000000 0.000000
0.000000 0.000000 0.000000
0.000000 0.000000 0.000000
0.000000 0.000000 0.000000
0.000000 0.000000 0.000000
0.000000 0.000000 0.000000
0.000000 0.000000 0.000000
0.000000 0.000000 0.000000
0.000000 0.000000 0.000000
0.000000 0.000000 0.000000
0.000000 0.000000 0.000000
0.000000 0.000000 0.000000
0.000000 0.000000 0.000000
0.000000 0.000000 0.000000
0.000000 0.000000 0.000000
0.000000 0.000000 0.000000
0.000000 0.000000 0.000000
0.000000 0.000000 0.000000
0.000000 0.000000 0.000000
0.000000 0.000000 0.000000
0.000000 0.000000 0.000000
0.000000 0.000000 0.000000
0.000000 0.000000 0.000000
0.000000 0.000000 0.000000
