Ti82 Nb1
1.0
6.391540 0.000000 0.000000
0.000000 9.587310 0.000000
0.000000 0.000000 23.271695
Ti Nb
82 1
Selective dynamics
direct
0.628821 0.082351 0.580359 F F F Ti
0.124097 0.082807 0.710023 F F F Ti
0.625102 0.083152 0.709580 F F F Ti
0.124973 0.083320 0.838467 F F F Ti
0.624949 0.083326 0.838436 F F F Ti
0.123401 0.418920 0.580353 F F F Ti
0.625155 0.416895 0.580504 F F F Ti
0.124812 0.416792 0.709544 F F F Ti
0.624719 0.416748 0.709531 F F F Ti
0.124998 0.416672 0.838421 F F F Ti
0.624955 0.416679 0.838422 F F F Ti
0.124981 0.750111 0.580569 F F F Ti
0.625168 0.749806 0.580531 F F F Ti
0.124913 0.749853 0.709553 F F F Ti
0.625157 0.749813 0.709572 F F F Ti
0.124988 0.749958 0.838435 F F F Ti
0.624980 0.749954 0.838441 F F F Ti
0.872582 0.250648 0.645306 F F F Ti
0.374959 0.249992 0.773979 F F F Ti
0.874788 0.250078 0.774029 F F F Ti
0.374996 0.250005 0.902870 F F F Ti
0.874974 0.250009 0.902876 F F F Ti
0.375019 0.583383 0.645049 F F F Ti
0.874741 0.583545 0.645097 F F F Ti
0.374971 0.583315 0.773977 F F F Ti
0.874964 0.583315 0.773991 F F F Ti
0.374992 0.583321 0.902870 F F F Ti
0.874994 0.583319 0.902873 F F F Ti
0.376031 0.915248 0.645293 F F F Ti
0.875020 0.916416 0.645130 F F F Ti
0.375086 0.916537 0.774028 F F F Ti
0.874806 0.916513 0.774031 F F F Ti
0.375000 0.916649 0.902877 F F F Ti
0.874973 0.916649 0.902877 F F F Ti
0.124994 0.166672 0.386685 F F F Ti
0.625138 0.166684 0.386670 F F F Ti
0.125027 0.666593 0.386753 F F F Ti
0.624940 0.666600 0.386731 F F F Ti
0.124998 0.166666 0.000008 F F F Ti
0.624994 0.166666 0.000008 F F F Ti
0.124999 0.666655 0.000002 F F F Ti
0.624987 0.666655 0.000003 F F F Ti
0.124999 0.833332 0.096682 F F F Ti
0.624994 0.833332 0.096682 F F F Ti
0.125043 0.833387 0.483412 F F F Ti
0.625139 0.833233 0.483372 F F F Ti
0.125000 0.333332 0.096680 F F F Ti
0.624993 0.333332 0.096680 F F F Ti
0.124773 0.333737 0.483212 F F F Ti
0.625330 0.333443 0.483326 F F F Ti
0.375096 0.583476 0.483364 F F F Ti
0.874847 0.583503 0.483349 F F F Ti
0.374999 0.583329 0.096681 F F F Ti
0.875005 0.583330 0.096682 F F F Ti
0.374997 0.083333 0.096680 F F F Ti
0.875004 0.083332 0.096680 F F F Ti
0.375752 0.083134 0.483076 F F F Ti
0.875257 0.083363 0.483322 F F F Ti
0.375055 0.416689 0.386689 F F F Ti
0.874948 0.416707 0.386680 F F F Ti
0.375015 0.916595 0.386684 F F F Ti
0.875014 0.916640 0.386715 F F F Ti
0.374995 0.416667 0.000007 F F F Ti
0.874994 0.416668 0.000008 F F F Ti
0.374996 0.916661 0.000012 F F F Ti
0.874992 0.916660 0.000012 F F F Ti
0.375004 0.083327 0.290032 F F F Ti
0.875000 0.083321 0.290034 F F F Ti
0.124997 0.166665 0.193361 F F F Ti
0.625001 0.166664 0.193359 F F F Ti
0.124996 0.333338 0.290032 F F F Ti
0.625003 0.333340 0.290027 F F F Ti
0.374997 0.416669 0.193359 F F F Ti
0.874997 0.416670 0.193359 F F F Ti
0.374999 0.583341 0.290037 F F F Ti
0.875003 0.583346 0.290037 F F F Ti
0.125001 0.666659 0.193368 F F F Ti
0.624994 0.666659 0.193366 F F F Ti
0.124992 0.833319 0.290044 F F F Ti
0.625015 0.833318 0.290039 F F F Ti
0.374997 0.916661 0.193362 F F F Ti
0.874998 0.916661 0.193363 F F F Ti
0.254200 0.167641 0.603129 T T T Nb

0.000000 0.000000 0.000000
0.000000 0.000000 0.000000
0.000000 0.000000 0.000000
0.000000 0.000000 0.000000
0.000000 0.000000 0.000000
0.000000 0.000000 0.000000
0.000000 0.000000 0.000000
0.000000 0.000000 0.000000
0.000000 0.000000 0.000000
0.000000 0.000000 0.000000
0.000000 0.000000 0.000000
0.000000 0.000000 0.000000
0.000000 0.000000 0.000000
0.000000 0.000000 0.000000
0.000000 0.000000 0.000000
0.000000 0.000000 0.000000
0.000000 0.000000 0.000000
0.000000 0.000000 0.000000
0.000000 0.000000 0.000000
0.000000 0.000000 0.000000
0.000000 0.000000 0.000000
0.000000 0.000000 0.000000
0.000000 0.000000 0.000000
0.000000 0.000000 0.000000
0.000000 0.000000 0.000000
0.000000 0.000000 0.000000
0.000000 0.000000 0.000000
0.000000 0.000000 0.000000
0.000000 0.000000 0.000000
0.000000 0.000000 0.000000
0.000000 0.000000 0.000000
0.000000 0.000000 0.000000
0.000000 0.000000 0.000000
0.000000 0.000000 0.000000
0.000000 0.000000 0.000000
0.000000 0.000000 0.000000
0.000000 0.000000 0.000000
0.000000 0.000000 0.000000
0.000000 0.000000 0.000000
0.000000 0.000000 0.000000
0.000000 0.000000 0.000000
0.000000 0.000000 0.000000
0.000000 0.000000 0.000000
0.000000 0.000000 0.000000
0.000000 0.000000 0.000000
0.000000 0.000000 0.000000
0.000000 0.000000 0.000000
0.000000 0.000000 0.000000
0.000000 0.000000 0.000000
0.000000 0.000000 0.000000
0.000000 0.000000 0.000000
0.000000 0.000000 0.000000
0.000000 0.000000 0.000000
0.000000 0.000000 0.000000
0.000000 0.000000 0.000000
0.000000 0.000000 0.000000
0.000000 0.000000 0.000000
0.000000 0.000000 0.000000
0.000000 0.000000 0.000000
0.000000 0.000000 0.000000
0.000000 0.000000 0.000000
0.000000 0.000000 0.000000
0.000000 0.000000 0.000000
0.000000 0.000000 0.000000
0.000000 0.000000 0.000000
0.000000 0.000000 0.000000
0.000000 0.000000 0.000000
0.000000 0.000000 0.000000
0.000000 0.000000 0.000000
0.000000 0.000000 0.000000
0.000000 0.000000 0.000000
0.000000 0.000000 0.000000
0.000000 0.000000 0.000000
0.000000 0.000000 0.000000
0.000000 0.000000 0.000000
0.000000 0.000000 0.000000
0.000000 0.000000 0.000000
0.000000 0.000000 0.000000
0.000000 0.000000 0.000000
0.000000 0.000000 0.000000
0.000000 0.000000 0.000000
0.000000 0.000000 0.000000
0.000000 0.000000 0.000000
