alpha_Ti
1.0
5.745590 0.000000 0.000000
0.000000 9.072750 0.000000
0.000000 0.000000 22.625032
Ti
32
direct
0.041667 0.875000 0.412510 Ti
0.041667 0.375000 0.412510 Ti
0.541667 0.875000 0.412510 Ti
0.541667 0.375000 0.412510 Ti
0.291667 0.875000 0.300007 Ti
0.291667 0.375000 0.300007 Ti
0.791667 0.875000 0.300007 Ti
0.791667 0.375000 0.300007 Ti
0.041667 0.625000 0.337509 Ti
0.041667 0.125000 0.337509 Ti
0.541667 0.625000 0.337509 Ti
0.541667 0.125000 0.337509 Ti
0.041667 0.875000 0.187505 Ti
0.041667 0.375000 0.187505 Ti
0.541667 0.875000 0.187505 Ti
0.541667 0.375000 0.187505 Ti
0.291667 0.625000 0.225006 Ti
0.291667 0.125000 0.225006 Ti
0.791667 0.625000 0.225006 Ti
0.791667 0.125000 0.225006 Ti
0.291667 0.875000 0.075001 Ti
0.291667 0.375000 0.075001 Ti
0.791667 0.875000 0.075001 Ti
0.791667 0.375000 0.075001 Ti
0.041667 0.625000 0.112503 Ti
0.041667 0.125000 0.112503 Ti
0.541667 0.625000 0.112503 Ti
0.541667 0.125000 0.112503 Ti
0.791667 0.125000 0.000000 Ti
0.291667 0.125000 0.000000 Ti
0.791667 0.625000 -0.000000 Ti
0.291667 0.625000 -0.000000 Ti
