total_Ti
1.0
5.745590 0.000000 0.000000
0.000000 9.072750 0.000000
0.000000 0.000000 22.625032
Ti
64
direct
0.041667 0.875000 0.412510 Ti
0.041667 0.375000 0.412510 Ti
0.541667 0.875000 0.412510 Ti
0.541667 0.375000 0.412510 Ti
0.291667 0.625000 0.500908 Ti
0.291667 0.125000 0.500908 Ti
0.791667 0.625000 0.500908 Ti
0.791667 0.125000 0.500908 Ti
0.291667 0.875000 0.300007 Ti
0.291667 0.375000 0.300007 Ti
0.791667 0.875000 0.300007 Ti
0.791667 0.375000 0.300007 Ti
0.041667 0.625000 0.337509 Ti
0.041667 0.125000 0.337509 Ti
0.541667 0.625000 0.337509 Ti
0.541667 0.125000 0.337509 Ti
0.041667 0.875000 0.187505 Ti
0.041667 0.375000 0.187505 Ti
0.541667 0.875000 0.187505 Ti
0.541667 0.375000 0.187505 Ti
0.291667 0.625000 0.225006 Ti
0.291667 0.125000 0.225006 Ti
0.791667 0.625000 0.225006 Ti
0.791667 0.125000 0.225006 Ti
0.291667 0.875000 0.075001 Ti
0.291667 0.375000 0.075001 Ti
0.791667 0.875000 0.075001 Ti
0.791667 0.375000 0.075001 Ti
0.041667 0.625000 0.112503 Ti
0.041667 0.125000 0.112503 Ti
0.541667 0.625000 0.112503 Ti
0.541667 0.125000 0.112503 Ti
0.458333 0.625000 0.618249 Ti
0.458333 0.125000 0.618249 Ti
0.958333 0.625000 0.618249 Ti
0.958333 0.125000 0.618249 Ti
0.125000 0.625000 0.735589 Ti
0.125000 0.125000 0.735589 Ti
0.625000 0.625000 0.735589 Ti
0.625000 0.125000 0.735589 Ti
0.291667 0.625000 0.852930 Ti
0.291667 0.125000 0.852930 Ti
0.791667 0.625000 0.852930 Ti
0.791667 0.125000 0.852930 Ti
0.125000 0.875000 0.559578 Ti
0.125000 0.375000 0.559578 Ti
0.625000 0.875000 0.559578 Ti
0.625000 0.375000 0.559578 Ti
0.291667 0.875000 0.676919 Ti
0.291667 0.375000 0.676919 Ti
0.791667 0.875000 0.676919 Ti
0.791667 0.375000 0.676919 Ti
0.458333 0.875000 0.794260 Ti
0.458333 0.375000 0.794260 Ti
0.958333 0.875000 0.794260 Ti
0.958333 0.375000 0.794260 Ti
0.125000 0.875000 0.911600 Ti
0.125000 0.375000 0.911600 Ti
0.625000 0.875000 0.911600 Ti
0.625000 0.375000 0.911600 Ti
0.791667 0.125000 0.000000 Ti
0.291667 0.125000 0.000000 Ti
0.791667 0.625000 -0.000000 Ti
0.291667 0.625000 -0.000000 Ti
