Zr1 Ti82
1.0
6.391540 0.000000 0.000000
0.000000 9.587310 0.000000
0.000000 0.000000 23.271695
Ti Zr
82 1
Selective dynamics
direct
0.627690 0.082486 0.580380 F F F Ti
0.124288 0.082915 0.709835 F F F Ti
0.625118 0.083179 0.709554 F F F Ti
0.124979 0.083322 0.838439 F F F Ti
0.624969 0.083326 0.838421 F F F Ti
0.123633 0.418252 0.580382 F F F Ti
0.625151 0.416835 0.580518 F F F Ti
0.124822 0.416768 0.709529 F F F Ti
0.624834 0.416702 0.709507 F F F Ti
0.124995 0.416670 0.838411 F F F Ti
0.624973 0.416674 0.838410 F F F Ti
0.124970 0.750073 0.580565 F F F Ti
0.625081 0.749869 0.580544 F F F Ti
0.124940 0.749903 0.709524 F F F Ti
0.625075 0.749886 0.709533 F F F Ti
0.124992 0.749971 0.838419 F F F Ti
0.624985 0.749969 0.838423 F F F Ti
0.873453 0.250320 0.645173 F F F Ti
0.374968 0.249989 0.773967 F F F Ti
0.874855 0.250045 0.773994 F F F Ti
0.374997 0.250003 0.902862 F F F Ti
0.874983 0.250005 0.902866 F F F Ti
0.374993 0.583363 0.645037 F F F Ti
0.874805 0.583476 0.645073 F F F Ti
0.374985 0.583321 0.773960 F F F Ti
0.874965 0.583325 0.773970 F F F Ti
0.374995 0.583326 0.902862 F F F Ti
0.874995 0.583325 0.902864 F F F Ti
0.375508 0.915774 0.645166 F F F Ti
0.875030 0.916499 0.645084 F F F Ti
0.375048 0.916578 0.773993 F F F Ti
0.874870 0.916556 0.773999 F F F Ti
0.375000 0.916655 0.902866 F F F Ti
0.874983 0.916654 0.902867 F F F Ti
0.124996 0.166666 0.386705 F F F Ti
0.625069 0.166671 0.386697 F F F Ti
0.125016 0.666636 0.386741 F F F Ti
0.624968 0.666635 0.386729 F F F Ti
0.124999 0.166666 0.000005 F F F Ti
0.624996 0.166666 0.000005 F F F Ti
0.125000 0.666660 0.000001 F F F Ti
0.624993 0.666660 0.000002 F F F Ti
0.125000 0.833333 0.096683 F F F Ti
0.624997 0.833332 0.096683 F F F Ti
0.125015 0.833365 0.483414 F F F Ti
0.625068 0.833263 0.483385 F F F Ti
0.125000 0.333332 0.096682 F F F Ti
0.624996 0.333333 0.096682 F F F Ti
0.124825 0.333547 0.483286 F F F Ti
0.625201 0.333396 0.483349 F F F Ti
0.375050 0.583421 0.483380 F F F Ti
0.874891 0.583443 0.483368 F F F Ti
0.374999 0.583331 0.096682 F F F Ti
0.875002 0.583331 0.096683 F F F Ti
0.374999 0.083333 0.096682 F F F Ti
0.875002 0.083333 0.096682 F F F Ti
0.375349 0.083198 0.483231 F F F Ti
0.875175 0.083345 0.483353 F F F Ti
0.375026 0.416680 0.386707 F F F Ti
0.874968 0.416691 0.386700 F F F Ti
0.375004 0.916628 0.386706 F F F Ti
0.875007 0.916651 0.386721 F F F Ti
0.374997 0.416667 0.000004 F F F Ti
0.874996 0.416668 0.000005 F F F Ti
0.374998 0.916664 0.000007 F F F Ti
0.874995 0.916663 0.000007 F F F Ti
0.375001 0.083329 0.290040 F F F Ti
0.874999 0.083327 0.290041 F F F Ti
0.124998 0.166666 0.193364 F F F Ti
0.625000 0.166666 0.193363 F F F Ti
0.124997 0.333336 0.290040 F F F Ti
0.625000 0.333336 0.290037 F F F Ti
0.374998 0.416668 0.193363 F F F Ti
0.874998 0.416668 0.193363 F F F Ti
0.374999 0.583338 0.290042 F F F Ti
0.875001 0.583341 0.290042 F F F Ti
0.125000 0.666664 0.193367 F F F Ti
0.624997 0.666663 0.193366 F F F Ti
0.124995 0.833327 0.290046 F F F Ti
0.625006 0.833326 0.290043 F F F Ti
0.374998 0.916664 0.193364 F F F Ti
0.874999 0.916664 0.193365 F F F Ti
0.280587 0.185975 0.608308 T T T Zr

0.000000 0.000000 0.000000
0.000000 0.000000 0.000000
0.000000 0.000000 0.000000
0.000000 0.000000 0.000000
0.000000 0.000000 0.000000
0.000000 0.000000 0.000000
0.000000 0.000000 0.000000
0.000000 0.000000 0.000000
0.000000 0.000000 0.000000
0.000000 0.000000 0.000000
0.000000 0.000000 0.000000
0.000000 0.000000 0.000000
0.000000 0.000000 0.000000
0.000000 0.000000 0.000000
0.000000 0.000000 0.000000
0.000000 0.000000 0.000000
0.000000 0.000000 0.000000
0.000000 0.000000 0.000000
0.000000 0.000000 0.000000
0.000000 0.000000 0.000000
0.000000 0.000000 0.000000
0.000000 0.000000 0.000000
0.000000 0.000000 0.000000
0.000000 0.000000 0.000000
0.000000 0.000000 0.000000
0.000000 0.000000 0.000000
0.000000 0.000000 0.000000
0.000000 0.000000 0.000000
0.000000 0.000000 0.000000
0.000000 0.000000 0.000000
0.000000 0.000000 0.000000
0.000000 0.000000 0.000000
0.000000 0.000000 0.000000
0.000000 0.000000 0.000000
0.000000 0.000000 0.000000
0.000000 0.000000 0.000000
0.000000 0.000000 0.000000
0.000000 0.000000 0.000000
0.000000 0.000000 0.000000
0.000000 0.000000 0.000000
0.000000 0.000000 0.000000
0.000000 0.000000 0.000000
0.000000 0.000000 0.000000
0.000000 0.000000 0.000000
0.000000 0.000000 0.000000
0.000000 0.000000 0.000000
0.000000 0.000000 0.000000
0.000000 0.000000 0.000000
0.000000 0.000000 0.000000
0.000000 0.000000 0.000000
0.000000 0.000000 0.000000
0.000000 0.000000 0.000000
0.000000 0.000000 0.000000
0.000000 0.000000 0.000000
0.000000 0.000000 0.000000
0.000000 0.000000 0.000000
0.000000 0.000000 0.000000
0.000000 0.000000 0.000000
0.000000 0.000000 0.000000
0.000000 0.000000 0.000000
0.000000 0.000000 0.000000
0.000000 0.000000 0.000000
0.000000 0.000000 0.000000
0.000000 0.000000 0.000000
0.000000 0.000000 0.000000
0.000000 0.000000 0.000000
0.000000 0.000000 0.000000
0.000000 0.000000 0.000000
0.000000 0.000000 0.000000
0.000000 0.000000 0.000000
0.000000 0.000000 0.000000
0.000000 0.000000 0.000000
0.000000 0.000000 0.000000
0.000000 0.000000 0.000000
0.000000 0.000000 0.000000
0.000000 0.000000 0.000000
0.000000 0.000000 0.000000
0.000000 0.000000 0.000000
0.000000 0.000000 0.000000
0.000000 0.000000 0.000000
0.000000 0.000000 0.000000
0.000000 0.000000 0.000000
0.000000 0.000000 0.000000
