alpha_Ti
1.0
4.756512 0.000000 0.000000
0.000000 4.675432 0.000000
0.000000 0.000000 19.511800
Ti
12
direct
0.333333 0.750000 0.369243 Ti
0.333333 0.750000 0.221546 Ti
0.333333 0.750000 0.073849 Ti
0.833334 0.750000 0.295395 Ti
0.833334 0.750000 0.147697 Ti
0.833334 0.750000 -0.000000 Ti
0.166666 0.250000 0.295395 Ti
0.166666 0.250000 0.147697 Ti
0.166666 0.250000 -0.000000 Ti
0.666667 0.250000 0.369243 Ti
0.666667 0.250000 0.221546 Ti
0.666667 0.250000 0.073849 Ti
