beta_Ti
1.0
8.805261 0.000000 0.000000
-4.402631 7.625580 0.000000
0.000000 0.000000 33.883422
Ti
36
direct
0.222214 0.944436 0.560349 Ti
0.222214 0.444436 0.560349 Ti
0.722214 0.944436 0.560349 Ti
0.722214 0.444436 0.560349 Ti
0.388880 0.277769 0.751364 Ti
0.388880 0.777769 0.751364 Ti
0.888880 0.277769 0.751364 Ti
0.888880 0.777769 0.751364 Ti
0.555547 0.111102 0.778652 Ti
0.555547 0.611102 0.778652 Ti
0.055556 0.111102 0.778652 Ti
0.055556 0.611102 0.778652 Ti
0.388880 0.277769 0.587637 Ti
0.388880 0.777769 0.587637 Ti
0.888880 0.277769 0.587637 Ti
0.888880 0.777769 0.587637 Ti
0.555547 0.111102 0.614925 Ti
0.555547 0.611102 0.614925 Ti
0.055556 0.111102 0.614925 Ti
0.055556 0.611102 0.614925 Ti
0.222214 0.944436 0.642213 Ti
0.222214 0.444436 0.642213 Ti
0.722214 0.944436 0.642213 Ti
0.722214 0.444436 0.642213 Ti
0.388880 0.277769 0.669501 Ti
0.388880 0.777769 0.669501 Ti
0.888880 0.277769 0.669501 Ti
0.888880 0.777769 0.669501 Ti
0.555547 0.111102 0.696789 Ti
0.555547 0.611102 0.696789 Ti
0.055556 0.111102 0.696789 Ti
0.055556 0.611102 0.696789 Ti
0.222214 0.944436 0.724077 Ti
0.222214 0.444436 0.724077 Ti
0.722214 0.944436 0.724077 Ti
0.722214 0.444436 0.724077 Ti
