alpha_Ti
1.0
8.805261 0.000000 0.000000
-4.402631 7.625580 0.000000
0.000000 0.000000 23.783422
Ti
54
direct
0.111111 0.888889 -0.000000 Ti
0.111111 0.888889 0.386372 Ti
0.111111 0.555556 -0.000000 Ti
0.222222 0.777778 0.096593 Ti
0.111111 0.555556 0.386372 Ti
0.444444 0.888889 -0.000000 Ti
0.111111 0.222222 -0.000000 Ti
0.222222 0.777778 0.482965 Ti
0.222222 0.444444 0.096593 Ti
0.444444 0.888889 0.386372 Ti
0.111111 0.222222 0.386372 Ti
0.444444 0.555556 -0.000000 Ti
0.222222 0.444444 0.482965 Ti
0.555556 0.777778 0.096593 Ti
0.222222 0.111111 0.096593 Ti
0.444444 0.555556 0.386372 Ti
0.777778 0.888889 -0.000000 Ti
0.444444 0.222222 -0.000000 Ti
0.555556 0.777778 0.482965 Ti
0.222222 0.111111 0.482965 Ti
0.555556 0.444444 0.096593 Ti
0.777778 0.888889 0.386372 Ti
0.444444 0.222222 0.386372 Ti
0.777778 0.555556 -0.000000 Ti
0.555556 0.444444 0.482965 Ti
0.888889 0.777778 0.096593 Ti
0.555556 0.111111 0.096593 Ti
0.777778 0.555556 0.386372 Ti
0.777778 0.222222 -0.000000 Ti
0.888889 0.777778 0.482965 Ti
0.555556 0.111111 0.482965 Ti
0.888889 0.444444 0.096593 Ti
0.777778 0.222222 0.386372 Ti
0.888889 0.444444 0.482965 Ti
0.888889 0.111111 0.096593 Ti
0.888889 0.111111 0.482965 Ti
0.111111 0.888889 0.193186 Ti
0.111111 0.555556 0.193186 Ti
0.222222 0.777778 0.289779 Ti
0.444444 0.888889 0.193186 Ti
0.111111 0.222222 0.193186 Ti
0.222222 0.444444 0.289779 Ti
0.444444 0.555556 0.193186 Ti
0.555556 0.777778 0.289779 Ti
0.222222 0.111111 0.289779 Ti
0.777778 0.888889 0.193186 Ti
0.444444 0.222222 0.193186 Ti
0.555556 0.444444 0.289779 Ti
0.777778 0.555556 0.193186 Ti
0.888889 0.777778 0.289779 Ti
0.555556 0.111111 0.289779 Ti
0.777778 0.222222 0.193186 Ti
0.888889 0.444444 0.289779 Ti
0.888889 0.111111 0.289779 Ti
