Ti66 Sn1
1.0
6.309760 0.000000 0.000000
0.000000 9.464640 0.000000
0.000000 0.000000 18.918326
Ti Sn
66 1
Selective dynamics
direct
0.124849 0.041292 0.500069 F F F Ti
0.625266 0.041470 0.500061 F F F Ti
0.125037 0.041615 0.658631 F F F Ti
0.625084 0.041609 0.658642 F F F Ti
0.125008 0.041663 0.817174 F F F Ti
0.625008 0.041663 0.817176 F F F Ti
0.628771 0.375082 0.500770 F F F Ti
0.125058 0.374998 0.658580 F F F Ti
0.625154 0.375006 0.658696 F F F Ti
0.124999 0.375001 0.817163 F F F Ti
0.625013 0.375002 0.817179 F F F Ti
0.124872 0.708635 0.500061 F F F Ti
0.625206 0.708538 0.500055 F F F Ti
0.125025 0.708373 0.658618 F F F Ti
0.625064 0.708397 0.658638 F F F Ti
0.125000 0.708337 0.817169 F F F Ti
0.625004 0.708339 0.817175 F F F Ti
0.375322 0.208128 0.579469 F F F Ti
0.875336 0.208127 0.579397 F F F Ti
0.375006 0.208324 0.737902 F F F Ti
0.875041 0.208320 0.737898 F F F Ti
0.375000 0.208334 0.896448 F F F Ti
0.875003 0.208333 0.896446 F F F Ti
0.375306 0.541869 0.579462 F F F Ti
0.875350 0.541876 0.579397 F F F Ti
0.375003 0.541678 0.737901 F F F Ti
0.875041 0.541679 0.737898 F F F Ti
0.374999 0.541667 0.896448 F F F Ti
0.875002 0.541666 0.896447 F F F Ti
0.375061 0.875038 0.579330 F F F Ti
0.874978 0.874995 0.579354 F F F Ti
0.375008 0.875000 0.737896 F F F Ti
0.875011 0.874995 0.737900 F F F Ti
0.375003 0.875000 0.896449 F F F Ti
0.874999 0.874999 0.896449 F F F Ti
0.124024 0.625957 0.356537 F F F Ti
0.625096 0.625311 0.356738 F F F Ti
0.124993 0.625010 0.118910 F F F Ti
0.624957 0.625008 0.118907 F F F Ti
0.123986 0.124035 0.356528 F F F Ti
0.625172 0.124704 0.356732 F F F Ti
0.124995 0.124996 0.118907 F F F Ti
0.624960 0.124999 0.118904 F F F Ti
0.124999 0.375001 0.039632 F F F Ti
0.624980 0.375002 0.039629 F F F Ti
0.124998 0.875004 0.039630 F F F Ti
0.624986 0.875003 0.039629 F F F Ti
0.124400 0.375004 0.277293 F F F Ti
0.624671 0.375006 0.277431 F F F Ti
0.124952 0.875040 0.277418 F F F Ti
0.624899 0.875033 0.277464 F F F Ti
0.375010 0.875008 0.158546 F F F Ti
0.874952 0.875008 0.158531 F F F Ti
0.374976 0.375002 0.158558 F F F Ti
0.874870 0.375001 0.158515 F F F Ti
0.871692 0.375002 0.396089 F F F Ti
0.375041 0.875153 0.396443 F F F Ti
0.874797 0.875056 0.396445 F F F Ti
0.374973 0.625025 0.237837 F F F Ti
0.874773 0.625062 0.237765 F F F Ti
0.374998 0.625003 -0.000004 F F F Ti
0.874989 0.625005 -0.000007 F F F Ti
0.374974 0.124988 0.237835 F F F Ti
0.874771 0.124946 0.237762 F F F Ti
0.374997 0.124997 -0.000005 F F F Ti
0.874989 0.124996 -0.000007 F F F Ti
0.288700 0.374588 0.426913 T T T Sn

0.000000 0.000000 0.000000
0.000000 0.000000 0.000000
0.000000 0.000000 0.000000
0.000000 0.000000 0.000000
0.000000 0.000000 0.000000
0.000000 0.000000 0.000000
0.000000 0.000000 0.000000
0.000000 0.000000 0.000000
0.000000 0.000000 0.000000
0.000000 0.000000 0.000000
0.000000 0.000000 0.000000
0.000000 0.000000 0.000000
0.000000 0.000000 0.000000
0.000000 0.000000 0.000000
0.000000 0.000000 0.000000
0.000000 0.000000 0.000000
0.000000 0.000000 0.000000
0.000000 0.000000 0.000000
0.000000 0.000000 0.000000
0.000000 0.000000 0.000000
0.000000 0.000000 0.000000
0.000000 0.000000 0.000000
0.000000 0.000000 0.000000
0.000000 0.000000 0.000000
0.000000 0.000000 0.000000
0.000000 0.000000 0.000000
0.000000 0.000000 0.000000
0.000000 0.000000 0.000000
0.000000 0.000000 0.000000
0.000000 0.000000 0.000000
0.000000 0.000000 0.000000
0.000000 0.000000 0.000000
0.000000 0.000000 0.000000
0.000000 0.000000 0.000000
0.000000 0.000000 0.000000
0.000000 0.000000 0.000000
0.000000 0.000000 0.000000
0.000000 0.000000 0.000000
0.000000 0.000000 0.000000
0.000000 0.000000 0.000000
0.000000 0.000000 0.000000
0.000000 0.000000 0.000000
0.000000 0.000000 0.000000
0.000000 0.000000 0.000000
0.000000 0.000000 0.000000
0.000000 0.000000 0.000000
0.000000 0.000000 0.000000
0.000000 0.000000 0.000000
0.000000 0.000000 0.000000
0.000000 0.000000 0.000000
0.000000 0.000000 0.000000
0.000000 0.000000 0.000000
0.000000 0.000000 0.000000
0.000000 0.000000 0.000000
0.000000 0.000000 0.000000
0.000000 0.000000 0.000000
0.000000 0.000000 0.000000
0.000000 0.000000 0.000000
0.000000 0.000000 0.000000
0.000000 0.000000 0.000000
0.000000 0.000000 0.000000
0.000000 0.000000 0.000000
0.000000 0.000000 0.000000
0.000000 0.000000 0.000000
0.000000 0.000000 0.000000
0.000000 0.000000 0.000000
0.000000 0.000000 0.000000
