beta_Ti
1.0
4.756512 0.000000 0.000000
0.000000 4.675432 0.000000
0.000000 0.000000 18.211800
Ti
12
direct
0.666667 0.750000 0.917638 Ti
0.166667 0.250000 0.917638 Ti
0.166667 0.750000 0.829704 Ti
0.666667 0.250000 0.829704 Ti
0.666667 0.750000 0.741769 Ti
0.166667 0.250000 0.741769 Ti
0.166667 0.750000 0.653834 Ti
0.666667 0.250000 0.653834 Ti
0.666667 0.750000 0.565899 Ti
0.166667 0.250000 0.565899 Ti
0.166667 0.750000 0.477965 Ti
0.666667 0.250000 0.477965 Ti
