Ti66 Cr1
1.0
6.309760 0.000000 0.000000
0.000000 9.464640 0.000000
0.000000 0.000000 18.918326
Ti Cr
66 1
Selective dynamics
direct
0.639027 0.036900 0.498535 F F F Ti
0.119311 0.038199 0.660903 F F F Ti
0.626198 0.040139 0.659118 F F F Ti
0.124573 0.041348 0.817588 F F F Ti
0.624523 0.041466 0.817415 F F F Ti
0.116249 0.383640 0.498125 F F F Ti
0.627368 0.376771 0.499181 F F F Ti
0.122408 0.375695 0.659101 F F F Ti
0.623533 0.374313 0.658498 F F F Ti
0.124812 0.374797 0.817316 F F F Ti
0.624539 0.374776 0.817238 F F F Ti
0.125295 0.709775 0.500084 F F F Ti
0.624934 0.708024 0.499899 F F F Ti
0.124955 0.707716 0.658861 F F F Ti
0.624748 0.707501 0.658840 F F F Ti
0.124951 0.707879 0.817383 F F F Ti
0.624528 0.707808 0.817413 F F F Ti
0.871238 0.208959 0.579570 F F F Ti
0.374178 0.207751 0.738027 F F F Ti
0.873891 0.208289 0.738185 F F F Ti
0.374905 0.208250 0.896522 F F F Ti
0.874701 0.208292 0.896559 F F F Ti
0.374297 0.540401 0.579178 F F F Ti
0.874005 0.542083 0.579624 F F F Ti
0.374784 0.540981 0.737896 F F F Ti
0.874409 0.541218 0.738084 F F F Ti
0.374929 0.541370 0.896520 F F F Ti
0.874838 0.541388 0.896545 F F F Ti
0.377269 0.871115 0.579950 F F F Ti
0.876169 0.873959 0.579716 F F F Ti
0.375133 0.874164 0.738337 F F F Ti
0.873743 0.873749 0.738517 F F F Ti
0.374959 0.874774 0.896620 F F F Ti
0.874708 0.874743 0.896648 F F F Ti
0.125088 0.625123 0.356653 F F F Ti
0.624597 0.625094 0.356613 F F F Ti
0.125028 0.624991 0.118878 F F F Ti
0.624967 0.624987 0.118875 F F F Ti
0.125056 0.125199 0.356451 F F F Ti
0.625899 0.124799 0.356229 F F F Ti
0.125029 0.124950 0.118849 F F F Ti
0.624987 0.124942 0.118842 F F F Ti
0.125004 0.374931 0.039571 F F F Ti
0.624900 0.374936 0.039572 F F F Ti
0.124991 0.874954 0.039625 F F F Ti
0.624902 0.874947 0.039631 F F F Ti
0.124850 0.375100 0.277124 F F F Ti
0.624835 0.375075 0.277019 F F F Ti
0.125273 0.875030 0.277367 F F F Ti
0.625248 0.874853 0.277329 F F F Ti
0.375041 0.874952 0.158493 F F F Ti
0.875053 0.874934 0.158486 F F F Ti
0.374984 0.374999 0.158390 F F F Ti
0.875029 0.375009 0.158374 F F F Ti
0.374930 0.376141 0.395677 F F F Ti
0.873168 0.375259 0.395382 F F F Ti
0.375557 0.874898 0.396270 F F F Ti
0.876914 0.874404 0.396065 F F F Ti
0.374991 0.625006 0.237739 F F F Ti
0.875069 0.624999 0.237733 F F F Ti
0.374986 0.624881 0.000011 F F F Ti
0.874972 0.624884 0.000029 F F F Ti
0.375065 0.124960 0.237677 F F F Ti
0.875172 0.124924 0.237616 F F F Ti
0.374990 0.124921 0.000022 F F F Ti
0.874937 0.124916 0.000039 F F F Ti
0.322734 0.172379 0.554736 T T T Cr

0.000000 0.000000 0.000000
0.000000 0.000000 0.000000
0.000000 0.000000 0.000000
0.000000 0.000000 0.000000
0.000000 0.000000 0.000000
0.000000 0.000000 0.000000
0.000000 0.000000 0.000000
0.000000 0.000000 0.000000
0.000000 0.000000 0.000000
0.000000 0.000000 0.000000
0.000000 0.000000 0.000000
0.000000 0.000000 0.000000
0.000000 0.000000 0.000000
0.000000 0.000000 0.000000
0.000000 0.000000 0.000000
0.000000 0.000000 0.000000
0.000000 0.000000 0.000000
0.000000 0.000000 0.000000
0.000000 0.000000 0.000000
0.000000 0.000000 0.000000
0.000000 0.000000 0.000000
0.000000 0.000000 0.000000
0.000000 0.000000 0.000000
0.000000 0.000000 0.000000
0.000000 0.000000 0.000000
0.000000 0.000000 0.000000
0.000000 0.000000 0.000000
0.000000 0.000000 0.000000
0.000000 0.000000 0.000000
0.000000 0.000000 0.000000
0.000000 0.000000 0.000000
0.000000 0.000000 0.000000
0.000000 0.000000 0.000000
0.000000 0.000000 0.000000
0.000000 0.000000 0.000000
0.000000 0.000000 0.000000
0.000000 0.000000 0.000000
0.000000 0.000000 0.000000
0.000000 0.000000 0.000000
0.000000 0.000000 0.000000
0.000000 0.000000 0.000000
0.000000 0.000000 0.000000
0.000000 0.000000 0.000000
0.000000 0.000000 0.000000
0.000000 0.000000 0.000000
0.000000 0.000000 0.000000
0.000000 0.000000 0.000000
0.000000 0.000000 0.000000
0.000000 0.000000 0.000000
0.000000 0.000000 0.000000
0.000000 0.000000 0.000000
0.000000 0.000000 0.000000
0.000000 0.000000 0.000000
0.000000 0.000000 0.000000
0.000000 0.000000 0.000000
0.000000 0.000000 0.000000
0.000000 0.000000 0.000000
0.000000 0.000000 0.000000
0.000000 0.000000 0.000000
0.000000 0.000000 0.000000
0.000000 0.000000 0.000000
0.000000 0.000000 0.000000
0.000000 0.000000 0.000000
0.000000 0.000000 0.000000
0.000000 0.000000 0.000000
0.000000 0.000000 0.000000
0.000000 0.000000 0.000000
