Ti66 Al1
1.0
6.309760 0.000000 0.000000
0.000000 9.464640 0.000000
0.000000 0.000000 18.918326
Ti Al
66 1
Selective dynamics
direct
0.641099 0.038116 0.499076 F F F Ti
0.121684 0.039855 0.660490 F F F Ti
0.625346 0.040813 0.659078 F F F Ti
0.124771 0.041564 0.817521 F F F Ti
0.624577 0.041610 0.817437 F F F Ti
0.119567 0.383032 0.499100 F F F Ti
0.626124 0.376546 0.499582 F F F Ti
0.124051 0.375133 0.658741 F F F Ti
0.623473 0.375244 0.658886 F F F Ti
0.124957 0.374842 0.817322 F F F Ti
0.624581 0.374897 0.817366 F F F Ti
0.125191 0.709222 0.500155 F F F Ti
0.625937 0.707643 0.499852 F F F Ti
0.124838 0.707686 0.659074 F F F Ti
0.625546 0.707440 0.659221 F F F Ti
0.124921 0.708065 0.817490 F F F Ti
0.624751 0.707991 0.817553 F F F Ti
0.867113 0.210686 0.580450 F F F Ti
0.374497 0.208049 0.737886 F F F Ti
0.874026 0.208491 0.738308 F F F Ti
0.374921 0.208315 0.896548 F F F Ti
0.874810 0.208353 0.896615 F F F Ti
0.375026 0.541779 0.579463 F F F Ti
0.873627 0.542626 0.579775 F F F Ti
0.374690 0.541348 0.738141 F F F Ti
0.874817 0.541350 0.738272 F F F Ti
0.374906 0.541468 0.896623 F F F Ti
0.874913 0.541467 0.896647 F F F Ti
0.379367 0.870519 0.580424 F F F Ti
0.875638 0.873774 0.580019 F F F Ti
0.375156 0.874487 0.738350 F F F Ti
0.874097 0.874276 0.738492 F F F Ti
0.374961 0.874922 0.896655 F F F Ti
0.874800 0.874914 0.896689 F F F Ti
0.125179 0.626171 0.356816 F F F Ti
0.624686 0.625786 0.356667 F F F Ti
0.125051 0.625126 0.118961 F F F Ti
0.624981 0.625108 0.118952 F F F Ti
0.125187 0.125543 0.356324 F F F Ti
0.626723 0.125154 0.356293 F F F Ti
0.125085 0.125068 0.118911 F F F Ti
0.625019 0.125060 0.118890 F F F Ti
0.125017 0.375011 0.039725 F F F Ti
0.624900 0.375021 0.039718 F F F Ti
0.125006 0.875057 0.039747 F F F Ti
0.624901 0.875041 0.039740 F F F Ti
0.124963 0.375463 0.277298 F F F Ti
0.625072 0.375372 0.277170 F F F Ti
0.125328 0.875322 0.277416 F F F Ti
0.625405 0.875120 0.277331 F F F Ti
0.375073 0.875092 0.158543 F F F Ti
0.875073 0.875063 0.158528 F F F Ti
0.375009 0.375149 0.158507 F F F Ti
0.875056 0.375170 0.158476 F F F Ti
0.375349 0.376582 0.395898 F F F Ti
0.873611 0.375932 0.395747 F F F Ti
0.376314 0.874926 0.396286 F F F Ti
0.876734 0.874690 0.396158 F F F Ti
0.374982 0.625343 0.237841 F F F Ti
0.875174 0.625310 0.237836 F F F Ti
0.374967 0.625034 0.000084 F F F Ti
0.874987 0.625030 0.000103 F F F Ti
0.375237 0.125170 0.237742 F F F Ti
0.875206 0.125148 0.237644 F F F Ti
0.375003 0.125009 0.000061 F F F Ti
0.874968 0.124995 0.000093 F F F Ti
0.256539 0.126686 0.532084 T T T Al

0.000000 0.000000 0.000000
0.000000 0.000000 0.000000
0.000000 0.000000 0.000000
0.000000 0.000000 0.000000
0.000000 0.000000 0.000000
0.000000 0.000000 0.000000
0.000000 0.000000 0.000000
0.000000 0.000000 0.000000
0.000000 0.000000 0.000000
0.000000 0.000000 0.000000
0.000000 0.000000 0.000000
0.000000 0.000000 0.000000
0.000000 0.000000 0.000000
0.000000 0.000000 0.000000
0.000000 0.000000 0.000000
0.000000 0.000000 0.000000
0.000000 0.000000 0.000000
0.000000 0.000000 0.000000
0.000000 0.000000 0.000000
0.000000 0.000000 0.000000
0.000000 0.000000 0.000000
0.000000 0.000000 0.000000
0.000000 0.000000 0.000000
0.000000 0.000000 0.000000
0.000000 0.000000 0.000000
0.000000 0.000000 0.000000
0.000000 0.000000 0.000000
0.000000 0.000000 0.000000
0.000000 0.000000 0.000000
0.000000 0.000000 0.000000
0.000000 0.000000 0.000000
0.000000 0.000000 0.000000
0.000000 0.000000 0.000000
0.000000 0.000000 0.000000
0.000000 0.000000 0.000000
0.000000 0.000000 0.000000
0.000000 0.000000 0.000000
0.000000 0.000000 0.000000
0.000000 0.000000 0.000000
0.000000 0.000000 0.000000
0.000000 0.000000 0.000000
0.000000 0.000000 0.000000
0.000000 0.000000 0.000000
0.000000 0.000000 0.000000
0.000000 0.000000 0.000000
0.000000 0.000000 0.000000
0.000000 0.000000 0.000000
0.000000 0.000000 0.000000
0.000000 0.000000 0.000000
0.000000 0.000000 0.000000
0.000000 0.000000 0.000000
0.000000 0.000000 0.000000
0.000000 0.000000 0.000000
0.000000 0.000000 0.000000
0.000000 0.000000 0.000000
0.000000 0.000000 0.000000
0.000000 0.000000 0.000000
0.000000 0.000000 0.000000
0.000000 0.000000 0.000000
0.000000 0.000000 0.000000
0.000000 0.000000 0.000000
0.000000 0.000000 0.000000
0.000000 0.000000 0.000000
0.000000 0.000000 0.000000
0.000000 0.000000 0.000000
0.000000 0.000000 0.000000
0.000000 0.000000 0.000000
