total_Ti
1.0
8.805261 0.000000 0.000000
-4.402631 7.625580 0.000000
0.000000 0.000000 34.883422
Ti
90
direct
0.967272 0.027818 0.558619 Ti
0.967272 0.527818 0.558619 Ti
0.467272 0.027818 0.558619 Ti
0.467272 0.527818 0.558619 Ti
0.133938 0.361151 0.744159 Ti
0.133938 0.861151 0.744159 Ti
0.633938 0.361151 0.744159 Ti
0.633938 0.861151 0.744159 Ti
0.300605 0.194485 0.770664 Ti
0.300605 0.694485 0.770664 Ti
0.800605 0.194485 0.770664 Ti
0.800605 0.694485 0.770664 Ti
0.133938 0.361151 0.585125 Ti
0.133938 0.861151 0.585125 Ti
0.633938 0.361151 0.585125 Ti
0.633938 0.861151 0.585125 Ti
0.300605 0.194485 0.611630 Ti
0.300605 0.694485 0.611630 Ti
0.800605 0.194485 0.611630 Ti
0.800605 0.694485 0.611630 Ti
0.967272 0.027818 0.638136 Ti
0.967272 0.527818 0.638136 Ti
0.467272 0.027818 0.638136 Ti
0.467272 0.527818 0.638136 Ti
0.133938 0.361151 0.664642 Ti
0.133938 0.861151 0.664642 Ti
0.633938 0.361151 0.664642 Ti
0.633938 0.861151 0.664642 Ti
0.300605 0.194485 0.691147 Ti
0.300605 0.694485 0.691147 Ti
0.800605 0.194485 0.691147 Ti
0.800605 0.694485 0.691147 Ti
0.967272 0.027818 0.717653 Ti
0.967272 0.527818 0.717653 Ti
0.467272 0.027818 0.717653 Ti
0.467272 0.527818 0.717653 Ti
0.111111 0.888889 -0.000000 Ti
0.111111 0.888889 0.263427 Ti
0.111111 0.555556 -0.000000 Ti
0.222222 0.777778 0.065857 Ti
0.111111 0.555556 0.263427 Ti
0.444444 0.888889 -0.000000 Ti
0.111111 0.222222 -0.000000 Ti
0.222222 0.777778 0.329284 Ti
0.222222 0.444444 0.065857 Ti
0.444444 0.888889 0.263427 Ti
0.111111 0.222222 0.263427 Ti
0.444444 0.555556 -0.000000 Ti
0.222222 0.444444 0.329284 Ti
0.555556 0.777778 0.065857 Ti
0.222222 0.111111 0.065857 Ti
0.444444 0.555556 0.263427 Ti
0.777778 0.888889 -0.000000 Ti
0.444444 0.222222 -0.000000 Ti
0.555556 0.777778 0.329284 Ti
0.222222 0.111111 0.329284 Ti
0.555556 0.444444 0.065857 Ti
0.777778 0.888889 0.263427 Ti
0.444444 0.222222 0.263427 Ti
0.777778 0.555556 -0.000000 Ti
0.555556 0.444444 0.329284 Ti
0.888889 0.777778 0.065857 Ti
0.555556 0.111111 0.065857 Ti
0.777778 0.555556 0.263427 Ti
0.777778 0.222222 -0.000000 Ti
0.888889 0.777778 0.329284 Ti
0.555556 0.111111 0.329284 Ti
0.888889 0.444444 0.065857 Ti
0.777778 0.222222 0.263427 Ti
0.888889 0.444444 0.329284 Ti
0.888889 0.111111 0.065857 Ti
0.888889 0.111111 0.329284 Ti
0.111111 0.888889 0.131714 Ti
0.111111 0.555556 0.131714 Ti
0.222222 0.777778 0.197570 Ti
0.444444 0.888889 0.131714 Ti
0.111111 0.222222 0.131714 Ti
0.222222 0.444444 0.197570 Ti
0.444444 0.555556 0.131714 Ti
0.555556 0.777778 0.197570 Ti
0.222222 0.111111 0.197570 Ti
0.777778 0.888889 0.131714 Ti
0.444444 0.222222 0.131714 Ti
0.555556 0.444444 0.197570 Ti
0.777778 0.555556 0.131714 Ti
0.888889 0.777778 0.197570 Ti
0.555556 0.111111 0.197570 Ti
0.777778 0.222222 0.131714 Ti
0.888889 0.444444 0.197570 Ti
0.888889 0.111111 0.197570 Ti
