Ti36
1.0
8.805261 0.000000 0.000000
-4.402630 7.625580 0.000000
0.000000 0.000000 33.288801
Ti
36
direct
0.967272 0.027818 0.492416 Ti
0.967272 0.527818 0.492416 Ti
0.467272 0.027818 0.492416 Ti
0.467272 0.527818 0.492416 Ti
0.133938 0.361151 0.686843 Ti
0.133938 0.861151 0.686843 Ti
0.633938 0.361151 0.686843 Ti
0.633938 0.861151 0.686843 Ti
0.300605 0.194485 0.714618 Ti
0.300605 0.694485 0.714618 Ti
0.800605 0.194485 0.714618 Ti
0.800605 0.694485 0.714618 Ti
0.133938 0.361151 0.520191 Ti
0.133938 0.861151 0.520191 Ti
0.633938 0.361151 0.520191 Ti
0.633938 0.861151 0.520191 Ti
0.300605 0.194485 0.547966 Ti
0.300605 0.694485 0.547966 Ti
0.800605 0.194485 0.547966 Ti
0.800605 0.694485 0.547966 Ti
0.967272 0.027818 0.575742 Ti
0.967272 0.527818 0.575742 Ti
0.467272 0.027818 0.575742 Ti
0.467272 0.527818 0.575742 Ti
0.133938 0.361151 0.603517 Ti
0.133938 0.861151 0.603517 Ti
0.633938 0.361151 0.603517 Ti
0.633938 0.861151 0.603517 Ti
0.300605 0.194485 0.631292 Ti
0.300605 0.694485 0.631292 Ti
0.800605 0.194485 0.631292 Ti
0.800605 0.694485 0.631292 Ti
0.967272 0.027818 0.659068 Ti
0.967272 0.527818 0.659068 Ti
0.467272 0.027818 0.659068 Ti
0.467272 0.527818 0.659068 Ti
