Ti83
1.0
6.391540 0.000000 0.000000
0.000000 9.587310 0.000000
0.000000 0.000000 23.271695
Ti
83
Selective dynamics
direct
0.631812 0.083329 0.581767 F F F Ti
0.125165 0.083326 0.709498 F F F Ti
0.625286 0.083327 0.709680 F F F Ti
0.125012 0.083330 0.838419 F F F Ti
0.625025 0.083330 0.838444 F F F Ti
0.124902 0.417059 0.580695 F F F Ti
0.625474 0.417024 0.580697 F F F Ti
0.125140 0.416724 0.709573 F F F Ti
0.625128 0.416755 0.709597 F F F Ti
0.125018 0.416670 0.838436 F F F Ti
0.625016 0.416674 0.838443 F F F Ti
0.124886 0.749573 0.580692 F F F Ti
0.625377 0.749629 0.580691 F F F Ti
0.125131 0.749926 0.709566 F F F Ti
0.625095 0.749898 0.709589 F F F Ti
0.125013 0.749995 0.838433 F F F Ti
0.625008 0.749990 0.838440 F F F Ti
0.375511 0.250214 0.645204 F F F Ti
0.875801 0.250424 0.645241 F F F Ti
0.375011 0.250008 0.773996 F F F Ti
0.875119 0.250020 0.774013 F F F Ti
0.374995 0.249995 0.902868 F F F Ti
0.875019 0.249996 0.902873 F F F Ti
0.375092 0.583264 0.645109 F F F Ti
0.875029 0.583279 0.645166 F F F Ti
0.375018 0.583316 0.774000 F F F Ti
0.875054 0.583318 0.774014 F F F Ti
0.374996 0.583328 0.902872 F F F Ti
0.875009 0.583329 0.902876 F F F Ti
0.375499 0.916459 0.645190 F F F Ti
0.875799 0.916222 0.645231 F F F Ti
0.375004 0.916650 0.773989 F F F Ti
0.875112 0.916632 0.774007 F F F Ti
0.374988 0.916663 0.902863 F F F Ti
0.875015 0.916661 0.902868 F F F Ti
0.123669 0.166975 0.386481 F F F Ti
0.624267 0.166770 0.386701 F F F Ti
0.124887 0.666408 0.386543 F F F Ti
0.624932 0.666581 0.386637 F F F Ti
0.125003 0.166659 -0.000012 F F F Ti
0.624984 0.166659 -0.000010 F F F Ti
0.125003 0.666679 -0.000008 F F F Ti
0.624987 0.666678 -0.000008 F F F Ti
0.124999 0.833339 0.096667 F F F Ti
0.624988 0.833339 0.096666 F F F Ti
0.121699 0.830493 0.483184 F F F Ti
0.625982 0.832165 0.483405 F F F Ti
0.124997 0.333328 0.096665 F F F Ti
0.624987 0.333329 0.096663 F F F Ti
0.121468 0.336275 0.483119 F F F Ti
0.626052 0.334491 0.483385 F F F Ti
0.375157 0.583149 0.483402 F F F Ti
0.874176 0.583255 0.483381 F F F Ti
0.374998 0.583334 0.096663 F F F Ti
0.874997 0.583335 0.096660 F F F Ti
0.374993 0.083332 0.096671 F F F Ti
0.874989 0.083335 0.096667 F F F Ti
0.870375 0.083299 0.483171 F F F Ti
0.374898 0.416786 0.386635 F F F Ti
0.874312 0.416887 0.386494 F F F Ti
0.374605 0.916353 0.386670 F F F Ti
0.874334 0.916545 0.386585 F F F Ti
0.374988 0.416660 -0.000010 F F F Ti
0.875007 0.416661 -0.000007 F F F Ti
0.374988 0.916672 -0.000008 F F F Ti
0.875009 0.916670 -0.000005 F F F Ti
0.374850 0.083319 0.290033 F F F Ti
0.874722 0.083320 0.289976 F F F Ti
0.124978 0.166654 0.193338 F F F Ti
0.624935 0.166655 0.193333 F F F Ti
0.124917 0.333389 0.289954 F F F Ti
0.624808 0.333313 0.289971 F F F Ti
0.374972 0.416667 0.193322 F F F Ti
0.874943 0.416663 0.193315 F F F Ti
0.375012 0.583329 0.289978 F F F Ti
0.874885 0.583351 0.289938 F F F Ti
0.124988 0.666668 0.193326 F F F Ti
0.624952 0.666670 0.193320 F F F Ti
0.124903 0.833325 0.289995 F F F Ti
0.624862 0.833311 0.289987 F F F Ti
0.374957 0.916668 0.193342 F F F Ti
0.874957 0.916658 0.193331 F F F Ti
0.323582 0.083709 0.506768 T T T Ti

0.000000 0.000000 0.000000
0.000000 0.000000 0.000000
0.000000 0.000000 0.000000
0.000000 0.000000 0.000000
0.000000 0.000000 0.000000
0.000000 0.000000 0.000000
0.000000 0.000000 0.000000
0.000000 0.000000 0.000000
0.000000 0.000000 0.000000
0.000000 0.000000 0.000000
0.000000 0.000000 0.000000
0.000000 0.000000 0.000000
0.000000 0.000000 0.000000
0.000000 0.000000 0.000000
0.000000 0.000000 0.000000
0.000000 0.000000 0.000000
0.000000 0.000000 0.000000
0.000000 0.000000 0.000000
0.000000 0.000000 0.000000
0.000000 0.000000 0.000000
0.000000 0.000000 0.000000
0.000000 0.000000 0.000000
0.000000 0.000000 0.000000
0.000000 0.000000 0.000000
0.000000 0.000000 0.000000
0.000000 0.000000 0.000000
0.000000 0.000000 0.000000
0.000000 0.000000 0.000000
0.000000 0.000000 0.000000
0.000000 0.000000 0.000000
0.000000 0.000000 0.000000
0.000000 0.000000 0.000000
0.000000 0.000000 0.000000
0.000000 0.000000 0.000000
0.000000 0.000000 0.000000
0.000000 0.000000 0.000000
0.000000 0.000000 0.000000
0.000000 0.000000 0.000000
0.000000 0.000000 0.000000
0.000000 0.000000 0.000000
0.000000 0.000000 0.000000
0.000000 0.000000 0.000000
0.000000 0.000000 0.000000
0.000000 0.000000 0.000000
0.000000 0.000000 0.000000
0.000000 0.000000 0.000000
0.000000 0.000000 0.000000
0.000000 0.000000 0.000000
0.000000 0.000000 0.000000
0.000000 0.000000 0.000000
0.000000 0.000000 0.000000
0.000000 0.000000 0.000000
0.000000 0.000000 0.000000
0.000000 0.000000 0.000000
0.000000 0.000000 0.000000
0.000000 0.000000 0.000000
0.000000 0.000000 0.000000
0.000000 0.000000 0.000000
0.000000 0.000000 0.000000
0.000000 0.000000 0.000000
0.000000 0.000000 0.000000
0.000000 0.000000 0.000000
0.000000 0.000000 0.000000
0.000000 0.000000 0.000000
0.000000 0.000000 0.000000
0.000000 0.000000 0.000000
0.000000 0.000000 0.000000
0.000000 0.000000 0.000000
0.000000 0.000000 0.000000
0.000000 0.000000 0.000000
0.000000 0.000000 0.000000
0.000000 0.000000 0.000000
0.000000 0.000000 0.000000
0.000000 0.000000 0.000000
0.000000 0.000000 0.000000
0.000000 0.000000 0.000000
0.000000 0.000000 0.000000
0.000000 0.000000 0.000000
0.000000 0.000000 0.000000
0.000000 0.000000 0.000000
0.000000 0.000000 0.000000
0.000000 0.000000 0.000000
0.000000 0.000000 0.000000
