total_Ti
1.0
8.805261 0.000000 0.000000
-4.402631 7.625580 0.000000
0.000000 0.000000 23.483422
Ti
90
direct
0.967272 0.027818 0.587076 Ti
0.967272 0.527818 0.587076 Ti
0.467272 0.027818 0.587076 Ti
0.467272 0.527818 0.587076 Ti
0.133938 0.361151 0.862685 Ti
0.133938 0.861151 0.862685 Ti
0.633938 0.361151 0.862685 Ti
0.633938 0.861151 0.862685 Ti
0.300605 0.194485 0.902058 Ti
0.300605 0.694485 0.902058 Ti
0.800605 0.194485 0.902058 Ti
0.800605 0.694485 0.902058 Ti
0.133938 0.361151 0.626449 Ti
0.133938 0.861151 0.626449 Ti
0.633938 0.361151 0.626449 Ti
0.633938 0.861151 0.626449 Ti
0.300605 0.194485 0.665821 Ti
0.300605 0.694485 0.665821 Ti
0.800605 0.194485 0.665821 Ti
0.800605 0.694485 0.665821 Ti
0.967272 0.027818 0.705194 Ti
0.967272 0.527818 0.705194 Ti
0.467272 0.027818 0.705194 Ti
0.467272 0.527818 0.705194 Ti
0.133938 0.361151 0.744567 Ti
0.133938 0.861151 0.744567 Ti
0.633938 0.361151 0.744567 Ti
0.633938 0.861151 0.744567 Ti
0.300605 0.194485 0.783940 Ti
0.300605 0.694485 0.783940 Ti
0.800605 0.194485 0.783940 Ti
0.800605 0.694485 0.783940 Ti
0.967272 0.027818 0.823312 Ti
0.967272 0.527818 0.823312 Ti
0.467272 0.027818 0.823312 Ti
0.467272 0.527818 0.823312 Ti
0.111111 0.888889 -0.000000 Ti
0.111111 0.888889 0.391308 Ti
0.111111 0.555556 -0.000000 Ti
0.222222 0.777778 0.097827 Ti
0.111111 0.555556 0.391308 Ti
0.444444 0.888889 -0.000000 Ti
0.111111 0.222222 -0.000000 Ti
0.222222 0.777778 0.489134 Ti
0.222222 0.444444 0.097827 Ti
0.444444 0.888889 0.391308 Ti
0.111111 0.222222 0.391308 Ti
0.444444 0.555556 -0.000000 Ti
0.222222 0.444444 0.489134 Ti
0.555556 0.777778 0.097827 Ti
0.222222 0.111111 0.097827 Ti
0.444444 0.555556 0.391308 Ti
0.777778 0.888889 -0.000000 Ti
0.444444 0.222222 -0.000000 Ti
0.555556 0.777778 0.489134 Ti
0.222222 0.111111 0.489134 Ti
0.555556 0.444444 0.097827 Ti
0.777778 0.888889 0.391308 Ti
0.444444 0.222222 0.391308 Ti
0.777778 0.555556 -0.000000 Ti
0.555556 0.444444 0.489134 Ti
0.888889 0.777778 0.097827 Ti
0.555556 0.111111 0.097827 Ti
0.777778 0.555556 0.391308 Ti
0.777778 0.222222 -0.000000 Ti
0.888889 0.777778 0.489134 Ti
0.555556 0.111111 0.489134 Ti
0.888889 0.444444 0.097827 Ti
0.777778 0.222222 0.391308 Ti
0.888889 0.444444 0.489134 Ti
0.888889 0.111111 0.097827 Ti
0.888889 0.111111 0.489134 Ti
0.111111 0.888889 0.195654 Ti
0.111111 0.555556 0.195654 Ti
0.222222 0.777778 0.293481 Ti
0.444444 0.888889 0.195654 Ti
0.111111 0.222222 0.195654 Ti
0.222222 0.444444 0.293481 Ti
0.444444 0.555556 0.195654 Ti
0.555556 0.777778 0.293481 Ti
0.222222 0.111111 0.293481 Ti
0.777778 0.888889 0.195654 Ti
0.444444 0.222222 0.195654 Ti
0.555556 0.444444 0.293481 Ti
0.777778 0.555556 0.195654 Ti
0.888889 0.777778 0.293481 Ti
0.555556 0.111111 0.293481 Ti
0.777778 0.222222 0.195654 Ti
0.888889 0.444444 0.293481 Ti
0.888889 0.111111 0.293481 Ti
