Ti96 Sn1
1.0
9.513020 0.000000 0.000000
0.000000 9.350860 0.000000
0.000000 0.000000 18.547230
Ti Sn
96 1
Selective dynamics
direct
0.148444 0.380674 0.404079 T T T Ti
0.645601 0.329753 0.410466 T T T Ti
0.117695 0.851477 0.408552 T T T Ti
0.690138 0.879546 0.401604 T T T Ti
0.152603 0.365220 0.238112 T T T Ti
0.659035 0.370991 0.234628 T T T Ti
0.163478 0.869754 0.233276 T T T Ti
0.671042 0.890844 0.232741 T T T Ti
0.166653 0.375059 0.077417 F F F Ti
0.666709 0.374989 0.077372 F F F Ti
0.166628 0.875029 0.077460 F F F Ti
0.666577 0.874958 0.077530 F F F Ti
0.410319 0.383092 0.318281 T T T Ti
0.897519 0.371103 0.324031 T T T Ti
0.352921 0.929642 0.336070 T T T Ti
0.918070 0.883874 0.309987 T T T Ti
0.416743 0.375111 0.154916 F F F Ti
0.916756 0.374745 0.154839 F F F Ti
0.416620 0.874967 0.155345 F F F Ti
0.916716 0.875205 0.154777 F F F Ti
0.416663 0.375047 -0.000120 F F F Ti
0.916637 0.374975 -0.000184 F F F Ti
0.416659 0.874964 0.000007 F F F Ti
0.916629 0.875005 -0.000164 F F F Ti
0.102482 0.128900 0.324030 T T T Ti
0.589681 0.116911 0.318280 T T T Ti
0.081930 0.616130 0.309987 T T T Ti
0.647079 0.570360 0.336069 T T T Ti
0.083242 0.125294 0.154835 F F F Ti
0.583257 0.124926 0.154917 F F F Ti
0.083283 0.624836 0.154779 F F F Ti
0.583382 0.625049 0.155345 F F F Ti
0.083365 0.125036 -0.000186 F F F Ti
0.583337 0.124969 -0.000119 F F F Ti
0.083372 0.625007 -0.000163 F F F Ti
0.583344 0.625036 0.000005 F F F Ti
0.354398 0.170247 0.410466 T T T Ti
0.851555 0.119326 0.404080 T T T Ti
0.309861 0.620455 0.401604 T T T Ti
0.882304 0.648524 0.408552 T T T Ti
0.340964 0.129016 0.234627 T T T Ti
0.847397 0.134788 0.238112 T T T Ti
0.328957 0.609164 0.232742 T T T Ti
0.836521 0.630256 0.233276 T T T Ti
0.333291 0.125040 0.077372 F F F Ti
0.833346 0.124969 0.077417 F F F Ti
0.333422 0.625066 0.077529 F F F Ti
0.833372 0.624997 0.077460 F F F Ti
0.375066 0.375119 0.823835 F F F Ti
0.874925 0.374979 0.823890 F F F Ti
0.375094 0.874917 0.823760 F F F Ti
0.874931 0.874983 0.823834 F F F Ti
0.125075 0.124991 0.823888 F F F Ti
0.624939 0.124868 0.823836 F F F Ti
0.125072 0.624996 0.823834 F F F Ti
0.624911 0.625065 0.823759 F F F Ti
0.125086 0.375109 0.910145 F F F Ti
0.624978 0.375125 0.910183 F F F Ti
0.125135 0.874930 0.910194 F F F Ti
0.624944 0.874895 0.910258 F F F Ti
0.375029 0.124854 0.910185 F F F Ti
0.874921 0.124876 0.910145 F F F Ti
0.375060 0.625075 0.910257 F F F Ti
0.874870 0.625046 0.910194 F F F Ti
0.394552 0.386552 0.658121 T T T Ti
0.893559 0.380032 0.650691 T T T Ti
0.392859 0.890318 0.647539 T T T Ti
0.885838 0.886877 0.665265 T T T Ti
0.106439 0.119962 0.650691 T T T Ti
0.605446 0.113441 0.658121 T T T Ti
0.114159 0.613113 0.665265 T T T Ti
0.607140 0.609676 0.647540 T T T Ti
0.150432 0.368398 0.574451 T T T Ti
0.642593 0.346383 0.573994 T T T Ti
0.130577 0.859513 0.584714 T T T Ti
0.655675 0.863643 0.576295 T T T Ti
0.357407 0.153615 0.573994 T T T Ti
0.849567 0.131600 0.574450 T T T Ti
0.344324 0.636354 0.576294 T T T Ti
0.869422 0.640484 0.584714 T T T Ti
0.405978 0.407770 0.491057 T T T Ti
0.899594 0.371207 0.486363 T T T Ti
0.340759 0.916173 0.492305 T T T Ti
0.905735 0.895048 0.498950 T T T Ti
0.100406 0.128792 0.486362 T T T Ti
0.594022 0.092229 0.491057 T T T Ti
0.094265 0.604951 0.498950 T T T Ti
0.659241 0.583826 0.492305 T T T Ti
0.125060 0.875083 0.737761 F F F Ti
0.624827 0.874947 0.737542 F F F Ti
0.375170 0.625033 0.737538 F F F Ti
0.874929 0.624883 0.737763 F F F Ti
0.124923 0.374958 0.737740 F F F Ti
0.624947 0.374925 0.737712 F F F Ti
0.375043 0.125045 0.737711 F F F Ti
0.875068 0.125012 0.737739 F F F Ti
0.500000 0.750000 0.382726 T T T Sn

0.000000 0.000000 0.000000
0.000000 0.000000 0.000000
0.000000 0.000000 0.000000
0.000000 0.000000 0.000000
0.000000 0.000000 0.000000
0.000000 0.000000 0.000000
0.000000 0.000000 0.000000
0.000000 0.000000 0.000000
0.000000 0.000000 0.000000
0.000000 0.000000 0.000000
0.000000 0.000000 0.000000
0.000000 0.000000 0.000000
0.000000 0.000000 0.000000
0.000000 0.000000 0.000000
0.000000 0.000000 0.000000
0.000000 0.000000 0.000000
0.000000 0.000000 0.000000
0.000000 0.000000 0.000000
0.000000 0.000000 0.000000
0.000000 0.000000 0.000000
0.000000 0.000000 0.000000
0.000000 0.000000 0.000000
0.000000 0.000000 0.000000
0.000000 0.000000 0.000000
0.000000 0.000000 0.000000
0.000000 0.000000 0.000000
0.000000 0.000000 0.000000
0.000000 0.000000 0.000000
0.000000 0.000000 0.000000
0.000000 0.000000 0.000000
0.000000 0.000000 0.000000
0.000000 0.000000 0.000000
0.000000 0.000000 0.000000
0.000000 0.000000 0.000000
0.000000 0.000000 0.000000
0.000000 0.000000 0.000000
0.000000 0.000000 0.000000
0.000000 0.000000 0.000000
0.000000 0.000000 0.000000
0.000000 0.000000 0.000000
0.000000 0.000000 0.000000
0.000000 0.000000 0.000000
0.000000 0.000000 0.000000
0.000000 0.000000 0.000000
0.000000 0.000000 0.000000
0.000000 0.000000 0.000000
0.000000 0.000000 0.000000
0.000000 0.000000 0.000000
0.000000 0.000000 0.000000
0.000000 0.000000 0.000000
0.000000 0.000000 0.000000
0.000000 0.000000 0.000000
0.000000 0.000000 0.000000
0.000000 0.000000 0.000000
0.000000 0.000000 0.000000
0.000000 0.000000 0.000000
0.000000 0.000000 0.000000
0.000000 0.000000 0.000000
0.000000 0.000000 0.000000
0.000000 0.000000 0.000000
0.000000 0.000000 0.000000
0.000000 0.000000 0.000000
0.000000 0.000000 0.000000
0.000000 0.000000 0.000000
0.000000 0.000000 0.000000
0.000000 0.000000 0.000000
0.000000 0.000000 0.000000
0.000000 0.000000 0.000000
0.000000 0.000000 0.000000
0.000000 0.000000 0.000000
0.000000 0.000000 0.000000
0.000000 0.000000 0.000000
0.000000 0.000000 0.000000
0.000000 0.000000 0.000000
0.000000 0.000000 0.000000
0.000000 0.000000 0.000000
0.000000 0.000000 0.000000
0.000000 0.000000 0.000000
0.000000 0.000000 0.000000
0.000000 0.000000 0.000000
0.000000 0.000000 0.000000
0.000000 0.000000 0.000000
0.000000 0.000000 0.000000
0.000000 0.000000 0.000000
0.000000 0.000000 0.000000
0.000000 0.000000 0.000000
0.000000 0.000000 0.000000
0.000000 0.000000 0.000000
0.000000 0.000000 0.000000
0.000000 0.000000 0.000000
0.000000 0.000000 0.000000
0.000000 0.000000 0.000000
0.000000 0.000000 0.000000
0.000000 0.000000 0.000000
0.000000 0.000000 0.000000
0.000000 0.000000 0.000000
0.000000 0.000000 0.000000
