total_Ti
1.0
6.391540 0.000000 0.000000
0.000000 9.587310 0.000000
0.000000 0.000000 27.750000
Ti
84
direct
0.125000 0.083333 0.567568 Ti
0.625000 0.083333 0.567568 Ti
0.125000 0.083333 0.675676 Ti
0.625000 0.083333 0.675676 Ti
0.125000 0.083333 0.783784 Ti
0.625000 0.083333 0.783784 Ti
0.125000 0.416667 0.567568 Ti
0.625000 0.416667 0.567568 Ti
0.125000 0.416667 0.675676 Ti
0.625000 0.416667 0.675676 Ti
0.125000 0.416667 0.783784 Ti
0.625000 0.416667 0.783784 Ti
0.125000 0.750000 0.567568 Ti
0.625000 0.750000 0.567568 Ti
0.125000 0.750000 0.675676 Ti
0.625000 0.750000 0.675676 Ti
0.125000 0.750000 0.783784 Ti
0.625000 0.750000 0.783784 Ti
0.375000 0.250000 0.621622 Ti
0.875000 0.250000 0.621622 Ti
0.375000 0.250000 0.729730 Ti
0.875000 0.250000 0.729730 Ti
0.375000 0.250000 0.837838 Ti
0.875000 0.250000 0.837838 Ti
0.375000 0.583333 0.621622 Ti
0.875000 0.583333 0.621622 Ti
0.375000 0.583333 0.729730 Ti
0.875000 0.583333 0.729730 Ti
0.375000 0.583333 0.837838 Ti
0.875000 0.583333 0.837838 Ti
0.375000 0.916667 0.621622 Ti
0.875000 0.916667 0.621622 Ti
0.375000 0.916667 0.729730 Ti
0.875000 0.916667 0.729730 Ti
0.375000 0.916667 0.837838 Ti
0.875000 0.916667 0.837838 Ti
0.125000 0.166667 0.324324 Ti
0.625000 0.166667 0.324324 Ti
0.125000 0.666667 0.324324 Ti
0.625000 0.666667 0.324324 Ti
0.125000 0.166667 -0.000000 Ti
0.625000 0.166667 -0.000000 Ti
0.125000 0.666667 -0.000000 Ti
0.625000 0.666667 -0.000000 Ti
0.125000 0.833333 0.081081 Ti
0.625000 0.833333 0.081081 Ti
0.125000 0.833333 0.405405 Ti
0.625000 0.833333 0.405405 Ti
0.125000 0.333333 0.081081 Ti
0.625000 0.333333 0.081081 Ti
0.125000 0.333333 0.405405 Ti
0.625000 0.333333 0.405405 Ti
0.375000 0.583333 0.405405 Ti
0.875000 0.583333 0.405405 Ti
0.374999 0.583333 0.081081 Ti
0.874999 0.583333 0.081081 Ti
0.375000 0.083333 0.081081 Ti
0.875000 0.083333 0.081081 Ti
0.375000 0.083333 0.405405 Ti
0.875000 0.083333 0.405405 Ti
0.375000 0.416667 0.324324 Ti
0.875000 0.416667 0.324324 Ti
0.375000 0.916667 0.324324 Ti
0.875000 0.916667 0.324324 Ti
0.375000 0.416667 -0.000000 Ti
0.875000 0.416667 -0.000000 Ti
0.375000 0.916667 -0.000000 Ti
0.875000 0.916667 -0.000000 Ti
0.375000 0.083333 0.243243 Ti
0.875000 0.083333 0.243243 Ti
0.125000 0.166667 0.162162 Ti
0.625000 0.166667 0.162162 Ti
0.125000 0.333333 0.243243 Ti
0.625000 0.333333 0.243243 Ti
0.375000 0.416667 0.162162 Ti
0.875000 0.416667 0.162162 Ti
0.374999 0.583333 0.243243 Ti
0.874999 0.583333 0.243243 Ti
0.125000 0.666667 0.162162 Ti
0.625000 0.666667 0.162162 Ti
0.125000 0.833333 0.243243 Ti
0.625000 0.833333 0.243243 Ti
0.375000 0.916667 0.162162 Ti
0.875000 0.916667 0.162162 Ti
