Ti66 Nb1
1.0
6.309760 0.000000 0.000000
0.000000 9.464640 0.000000
0.000000 0.000000 18.918326
Ti Nb
66 1
Selective dynamics
direct
0.630620 0.041770 0.499822 F F F Ti
0.628583 0.041721 0.659074 F F F Ti
0.125129 0.041722 0.816837 F F F Ti
0.625194 0.041727 0.817250 F F F Ti
0.125548 0.376602 0.499937 F F F Ti
0.625543 0.379216 0.498545 F F F Ti
0.125817 0.376162 0.658844 F F F Ti
0.625521 0.378728 0.660292 F F F Ti
0.125308 0.374766 0.817413 F F F Ti
0.625099 0.374979 0.817694 F F F Ti
0.125351 0.706431 0.499752 F F F Ti
0.625295 0.704814 0.498301 F F F Ti
0.125617 0.707071 0.659016 F F F Ti
0.625186 0.705199 0.660407 F F F Ti
0.125223 0.708576 0.817531 F F F Ti
0.625104 0.708474 0.817796 F F F Ti
0.393955 0.217989 0.579753 F F F Ti
0.853519 0.221421 0.580035 F F F Ti
0.375364 0.208353 0.737778 F F F Ti
0.875322 0.208835 0.738105 F F F Ti
0.374900 0.208102 0.896455 F F F Ti
0.875287 0.208149 0.896513 F F F Ti
0.375719 0.542222 0.579465 F F F Ti
0.875230 0.542282 0.579501 F F F Ti
0.374453 0.541824 0.738704 F F F Ti
0.876351 0.541731 0.738807 F F F Ti
0.374935 0.541642 0.896741 F F F Ti
0.875263 0.541632 0.896759 F F F Ti
0.393678 0.865503 0.579738 F F F Ti
0.853867 0.862075 0.580051 F F F Ti
0.375330 0.875097 0.737833 F F F Ti
0.875243 0.874604 0.738153 F F F Ti
0.374896 0.875260 0.896479 F F F Ti
0.875260 0.875236 0.896542 F F F Ti
0.125081 0.625013 0.356484 F F F Ti
0.625127 0.624979 0.356034 F F F Ti
0.124937 0.625104 0.118946 F F F Ti
0.624861 0.625082 0.118922 F F F Ti
0.125067 0.124826 0.357345 F F F Ti
0.625410 0.125003 0.356809 F F F Ti
0.125002 0.124932 0.119081 F F F Ti
0.624865 0.124948 0.119037 F F F Ti
0.124968 0.374832 0.039576 F F F Ti
0.624853 0.374853 0.039620 F F F Ti
0.124955 0.875150 0.039544 F F F Ti
0.624809 0.875131 0.039600 F F F Ti
0.125012 0.374826 0.277353 F F F Ti
0.625045 0.374844 0.277233 F F F Ti
0.125120 0.875161 0.277631 F F F Ti
0.625011 0.875133 0.277466 F F F Ti
0.374914 0.875096 0.158586 F F F Ti
0.875059 0.875096 0.158574 F F F Ti
0.374915 0.374912 0.158500 F F F Ti
0.875071 0.374913 0.158467 F F F Ti
0.374698 0.374986 0.396033 F F F Ti
0.875769 0.375243 0.395948 F F F Ti
0.375266 0.875100 0.396670 F F F Ti
0.875266 0.874574 0.396370 F F F Ti
0.374849 0.625073 0.237663 F F F Ti
0.875178 0.625043 0.237641 F F F Ti
0.374892 0.625126 0.000144 F F F Ti
0.875005 0.625129 0.000156 F F F Ti
0.374839 0.124928 0.238015 F F F Ti
0.875262 0.124928 0.237965 F F F Ti
0.374891 0.124952 0.000007 F F F Ti
0.875046 0.124942 0.000037 F F F Ti
0.111245 0.042619 0.571075 T T T Nb

0.000000 0.000000 0.000000
0.000000 0.000000 0.000000
0.000000 0.000000 0.000000
0.000000 0.000000 0.000000
0.000000 0.000000 0.000000
0.000000 0.000000 0.000000
0.000000 0.000000 0.000000
0.000000 0.000000 0.000000
0.000000 0.000000 0.000000
0.000000 0.000000 0.000000
0.000000 0.000000 0.000000
0.000000 0.000000 0.000000
0.000000 0.000000 0.000000
0.000000 0.000000 0.000000
0.000000 0.000000 0.000000
0.000000 0.000000 0.000000
0.000000 0.000000 0.000000
0.000000 0.000000 0.000000
0.000000 0.000000 0.000000
0.000000 0.000000 0.000000
0.000000 0.000000 0.000000
0.000000 0.000000 0.000000
0.000000 0.000000 0.000000
0.000000 0.000000 0.000000
0.000000 0.000000 0.000000
0.000000 0.000000 0.000000
0.000000 0.000000 0.000000
0.000000 0.000000 0.000000
0.000000 0.000000 0.000000
0.000000 0.000000 0.000000
0.000000 0.000000 0.000000
0.000000 0.000000 0.000000
0.000000 0.000000 0.000000
0.000000 0.000000 0.000000
0.000000 0.000000 0.000000
0.000000 0.000000 0.000000
0.000000 0.000000 0.000000
0.000000 0.000000 0.000000
0.000000 0.000000 0.000000
0.000000 0.000000 0.000000
0.000000 0.000000 0.000000
0.000000 0.000000 0.000000
0.000000 0.000000 0.000000
0.000000 0.000000 0.000000
0.000000 0.000000 0.000000
0.000000 0.000000 0.000000
0.000000 0.000000 0.000000
0.000000 0.000000 0.000000
0.000000 0.000000 0.000000
0.000000 0.000000 0.000000
0.000000 0.000000 0.000000
0.000000 0.000000 0.000000
0.000000 0.000000 0.000000
0.000000 0.000000 0.000000
0.000000 0.000000 0.000000
0.000000 0.000000 0.000000
0.000000 0.000000 0.000000
0.000000 0.000000 0.000000
0.000000 0.000000 0.000000
0.000000 0.000000 0.000000
0.000000 0.000000 0.000000
0.000000 0.000000 0.000000
0.000000 0.000000 0.000000
0.000000 0.000000 0.000000
0.000000 0.000000 0.000000
0.000000 0.000000 0.000000
0.000000 0.000000 0.000000
