total_Ti
1.0
8.805261 0.000000 0.000000
-4.402631 7.625580 0.000000
0.000000 0.000000 21.883422
Ti
90
direct
0.967272 0.027818 0.593442 Ti
0.967272 0.527818 0.593442 Ti
0.467272 0.027818 0.593442 Ti
0.467272 0.527818 0.593442 Ti
0.133938 0.361151 0.889203 Ti
0.133938 0.861151 0.889203 Ti
0.633938 0.361151 0.889203 Ti
0.633938 0.861151 0.889203 Ti
0.300605 0.194485 0.931454 Ti
0.300605 0.694485 0.931454 Ti
0.800605 0.194485 0.931454 Ti
0.800605 0.694485 0.931454 Ti
0.133938 0.361151 0.635694 Ti
0.133938 0.861151 0.635694 Ti
0.633938 0.361151 0.635694 Ti
0.633938 0.861151 0.635694 Ti
0.300605 0.194485 0.677945 Ti
0.300605 0.694485 0.677945 Ti
0.800605 0.194485 0.677945 Ti
0.800605 0.694485 0.677945 Ti
0.967272 0.027818 0.720197 Ti
0.967272 0.527818 0.720197 Ti
0.467272 0.027818 0.720197 Ti
0.467272 0.527818 0.720197 Ti
0.133938 0.361151 0.762448 Ti
0.133938 0.861151 0.762448 Ti
0.633938 0.361151 0.762448 Ti
0.633938 0.861151 0.762448 Ti
0.300605 0.194485 0.804700 Ti
0.300605 0.694485 0.804700 Ti
0.800605 0.194485 0.804700 Ti
0.800605 0.694485 0.804700 Ti
0.967272 0.027818 0.846951 Ti
0.967272 0.527818 0.846951 Ti
0.467272 0.027818 0.846951 Ti
0.467272 0.527818 0.846951 Ti
0.111111 0.888889 -0.000000 Ti
0.111111 0.888889 0.419918 Ti
0.111111 0.555556 -0.000000 Ti
0.222222 0.777778 0.104979 Ti
0.111111 0.555556 0.419918 Ti
0.444444 0.888889 -0.000000 Ti
0.111111 0.222222 -0.000000 Ti
0.222222 0.777778 0.524897 Ti
0.222222 0.444444 0.104979 Ti
0.444444 0.888889 0.419918 Ti
0.111111 0.222222 0.419918 Ti
0.444444 0.555556 -0.000000 Ti
0.222222 0.444444 0.524897 Ti
0.555556 0.777778 0.104979 Ti
0.222222 0.111111 0.104979 Ti
0.444444 0.555556 0.419918 Ti
0.777778 0.888889 -0.000000 Ti
0.444444 0.222222 -0.000000 Ti
0.555556 0.777778 0.524897 Ti
0.222222 0.111111 0.524897 Ti
0.555556 0.444444 0.104979 Ti
0.777778 0.888889 0.419918 Ti
0.444444 0.222222 0.419918 Ti
0.777778 0.555556 -0.000000 Ti
0.555556 0.444444 0.524897 Ti
0.888889 0.777778 0.104979 Ti
0.555556 0.111111 0.104979 Ti
0.777778 0.555556 0.419918 Ti
0.777778 0.222222 -0.000000 Ti
0.888889 0.777778 0.524897 Ti
0.555556 0.111111 0.524897 Ti
0.888889 0.444444 0.104979 Ti
0.777778 0.222222 0.419918 Ti
0.888889 0.444444 0.524897 Ti
0.888889 0.111111 0.104979 Ti
0.888889 0.111111 0.524897 Ti
0.111111 0.888889 0.209959 Ti
0.111111 0.555556 0.209959 Ti
0.222222 0.777778 0.314938 Ti
0.444444 0.888889 0.209959 Ti
0.111111 0.222222 0.209959 Ti
0.222222 0.444444 0.314938 Ti
0.444444 0.555556 0.209959 Ti
0.555556 0.777778 0.314938 Ti
0.222222 0.111111 0.314938 Ti
0.777778 0.888889 0.209959 Ti
0.444444 0.222222 0.209959 Ti
0.555556 0.444444 0.314938 Ti
0.777778 0.555556 0.209959 Ti
0.888889 0.777778 0.314938 Ti
0.555556 0.111111 0.314938 Ti
0.777778 0.222222 0.209959 Ti
0.888889 0.444444 0.314938 Ti
0.888889 0.111111 0.314938 Ti
