Ti66 Mo1
1.0
6.309760 0.000000 0.000000
0.000000 9.464640 0.000000
0.000000 0.000000 18.918326
Ti Mo
66 1
Selective dynamics
direct
0.124716 0.041265 0.500545 F F F Ti
0.624970 0.041692 0.500164 F F F Ti
0.124965 0.041656 0.658718 F F F Ti
0.624908 0.041677 0.658677 F F F Ti
0.125025 0.041712 0.817111 F F F Ti
0.624950 0.041710 0.817118 F F F Ti
0.123175 0.374964 0.500652 F F F Ti
0.623101 0.374982 0.500270 F F F Ti
0.124879 0.375014 0.658693 F F F Ti
0.624774 0.375018 0.658644 F F F Ti
0.125023 0.375015 0.817080 F F F Ti
0.624910 0.375013 0.817090 F F F Ti
0.124724 0.708789 0.500479 F F F Ti
0.624861 0.708381 0.500125 F F F Ti
0.124949 0.708364 0.658707 F F F Ti
0.624862 0.708345 0.658669 F F F Ti
0.125015 0.708299 0.817112 F F F Ti
0.624930 0.708302 0.817117 F F F Ti
0.374773 0.208274 0.579377 F F F Ti
0.874464 0.208249 0.579503 F F F Ti
0.375000 0.208336 0.737883 F F F Ti
0.874910 0.208338 0.737912 F F F Ti
0.375020 0.208364 0.896386 F F F Ti
0.875027 0.208364 0.896377 F F F Ti
0.374754 0.541744 0.579352 F F F Ti
0.874477 0.541776 0.579478 F F F Ti
0.374993 0.541669 0.737878 F F F Ti
0.874911 0.541669 0.737908 F F F Ti
0.375016 0.541647 0.896391 F F F Ti
0.875019 0.541647 0.896382 F F F Ti
0.375191 0.875018 0.579456 F F F Ti
0.874623 0.875015 0.579531 F F F Ti
0.375022 0.875004 0.737914 F F F Ti
0.874924 0.875003 0.737934 F F F Ti
0.375012 0.875006 0.896380 F F F Ti
0.875006 0.875005 0.896374 F F F Ti
0.119561 0.632468 0.357533 F F F Ti
0.626290 0.625993 0.356625 F F F Ti
0.125457 0.625161 0.118770 F F F Ti
0.625730 0.625124 0.118633 F F F Ti
0.119298 0.117180 0.357712 F F F Ti
0.626848 0.124001 0.356659 F F F Ti
0.125421 0.124895 0.118735 F F F Ti
0.625870 0.124928 0.118594 F F F Ti
0.125451 0.375016 0.039502 F F F Ti
0.625524 0.375017 0.039456 F F F Ti
0.124999 0.875041 0.039470 F F F Ti
0.625151 0.875031 0.039421 F F F Ti
0.638246 0.374970 0.275921 F F F Ti
0.124918 0.875369 0.277097 F F F Ti
0.625134 0.875199 0.277330 F F F Ti
0.375313 0.875123 0.158189 F F F Ti
0.874901 0.874984 0.158309 F F F Ti
0.376637 0.375008 0.158243 F F F Ti
0.877341 0.375021 0.158204 F F F Ti
0.868382 0.375075 0.397633 F F F Ti
0.376033 0.875438 0.396640 F F F Ti
0.873032 0.875093 0.396806 F F F Ti
0.377023 0.627190 0.237309 F F F Ti
0.875764 0.625740 0.237565 F F F Ti
0.375109 0.625022 -0.000097 F F F Ti
0.875211 0.625019 -0.000110 F F F Ti
0.377089 0.122810 0.237283 F F F Ti
0.875746 0.124314 0.237560 F F F Ti
0.375126 0.125010 -0.000102 F F F Ti
0.875218 0.125002 -0.000118 F F F Ti
0.252677 0.373429 0.329147 T T T Mo

0.000000 0.000000 0.000000
0.000000 0.000000 0.000000
0.000000 0.000000 0.000000
0.000000 0.000000 0.000000
0.000000 0.000000 0.000000
0.000000 0.000000 0.000000
0.000000 0.000000 0.000000
0.000000 0.000000 0.000000
0.000000 0.000000 0.000000
0.000000 0.000000 0.000000
0.000000 0.000000 0.000000
0.000000 0.000000 0.000000
0.000000 0.000000 0.000000
0.000000 0.000000 0.000000
0.000000 0.000000 0.000000
0.000000 0.000000 0.000000
0.000000 0.000000 0.000000
0.000000 0.000000 0.000000
0.000000 0.000000 0.000000
0.000000 0.000000 0.000000
0.000000 0.000000 0.000000
0.000000 0.000000 0.000000
0.000000 0.000000 0.000000
0.000000 0.000000 0.000000
0.000000 0.000000 0.000000
0.000000 0.000000 0.000000
0.000000 0.000000 0.000000
0.000000 0.000000 0.000000
0.000000 0.000000 0.000000
0.000000 0.000000 0.000000
0.000000 0.000000 0.000000
0.000000 0.000000 0.000000
0.000000 0.000000 0.000000
0.000000 0.000000 0.000000
0.000000 0.000000 0.000000
0.000000 0.000000 0.000000
0.000000 0.000000 0.000000
0.000000 0.000000 0.000000
0.000000 0.000000 0.000000
0.000000 0.000000 0.000000
0.000000 0.000000 0.000000
0.000000 0.000000 0.000000
0.000000 0.000000 0.000000
0.000000 0.000000 0.000000
0.000000 0.000000 0.000000
0.000000 0.000000 0.000000
0.000000 0.000000 0.000000
0.000000 0.000000 0.000000
0.000000 0.000000 0.000000
0.000000 0.000000 0.000000
0.000000 0.000000 0.000000
0.000000 0.000000 0.000000
0.000000 0.000000 0.000000
0.000000 0.000000 0.000000
0.000000 0.000000 0.000000
0.000000 0.000000 0.000000
0.000000 0.000000 0.000000
0.000000 0.000000 0.000000
0.000000 0.000000 0.000000
0.000000 0.000000 0.000000
0.000000 0.000000 0.000000
0.000000 0.000000 0.000000
0.000000 0.000000 0.000000
0.000000 0.000000 0.000000
0.000000 0.000000 0.000000
0.000000 0.000000 0.000000
0.000000 0.000000 0.000000
