Optimistic_Structure
1.0
8.805261 0.000000 0.000000
-4.402631 7.625580 0.000000
0.000000 0.000000 22.778397
Ti Al
88 1
Selective dynamics
direct
0.055556 0.055556 0.589771 T T T Ti
0.055556 0.555555 0.589771 T T T Ti
0.555556 0.055556 0.589771 T T T Ti
0.555556 0.555555 0.589771 T T T Ti
0.222222 0.388889 0.873911 F F F Ti
0.222222 0.888889 0.873911 F F F Ti
0.722222 0.888889 0.873911 F F F Ti
0.388889 0.222222 0.914502 F F F Ti
0.388889 0.722222 0.914502 F F F Ti
0.888889 0.222222 0.914502 F F F Ti
0.888889 0.722222 0.914502 F F F Ti
0.222222 0.388889 0.630362 T T T Ti
0.222222 0.888889 0.630362 T T T Ti
0.722222 0.388889 0.630362 T T T Ti
0.388889 0.222222 0.670954 T T T Ti
0.388889 0.722222 0.670954 T T T Ti
0.888889 0.222222 0.670954 T T T Ti
0.888889 0.722222 0.670954 T T T Ti
0.055556 0.055556 0.711545 T T T Ti
0.055556 0.555555 0.711545 T T T Ti
0.555556 0.055556 0.711545 T T T Ti
0.555556 0.555555 0.711545 T T T Ti
0.222222 0.388889 0.752136 F F F Ti
0.222222 0.888889 0.752136 F F F Ti
0.722222 0.388889 0.752136 F F F Ti
0.722222 0.888889 0.752136 F F F Ti
0.388889 0.222222 0.792728 F F F Ti
0.388889 0.722222 0.792728 F F F Ti
0.888889 0.222222 0.792728 F F F Ti
0.888889 0.722222 0.792728 F F F Ti
0.055556 0.055556 0.833319 F F F Ti
0.055556 0.555555 0.833319 F F F Ti
0.555556 0.055556 0.833319 F F F Ti
0.555556 0.555555 0.833319 F F F Ti
0.166666 0.944444 -0.000000 F F F Ti
0.166666 0.944444 0.403419 T T T Ti
0.166666 0.611111 -0.000000 F F F Ti
0.277778 0.833333 0.100855 F F F Ti
0.166666 0.611111 0.403419 T T T Ti
0.500000 0.944444 -0.000000 F F F Ti
0.166666 0.277778 -0.000000 F F F Ti
0.277778 0.833333 0.504274 T T T Ti
0.277778 0.500000 0.100855 F F F Ti
0.500000 0.944444 0.403419 T T T Ti
0.166666 0.277778 0.403419 T T T Ti
0.500000 0.611111 -0.000000 F F F Ti
0.277778 0.500000 0.504274 T T T Ti
0.611111 0.833333 0.100855 F F F Ti
0.277778 0.166667 0.100855 F F F Ti
0.500000 0.611111 0.403419 T T T Ti
0.833333 0.944444 -0.000000 F F F Ti
0.500000 0.277778 -0.000000 F F F Ti
0.611111 0.833333 0.504274 T T T Ti
0.277778 0.166667 0.504274 T T T Ti
0.611111 0.500000 0.100855 F F F Ti
0.833333 0.944444 0.403419 T T T Ti
0.500000 0.277778 0.403419 T T T Ti
0.833333 0.611111 -0.000000 F F F Ti
0.611111 0.500000 0.504274 T T T Ti
0.944444 0.833333 0.100855 F F F Ti
0.611111 0.166667 0.100855 F F F Ti
0.833333 0.611111 0.403419 T T T Ti
0.833333 0.277778 -0.000000 F F F Ti
0.944444 0.833333 0.504274 T T T Ti
0.611111 0.166667 0.504274 T T T Ti
0.944444 0.500000 0.100855 F F F Ti
0.833333 0.277778 0.403419 T T T Ti
0.944444 0.500000 0.504274 T T T Ti
0.944444 0.166667 0.100855 F F F Ti
0.944444 0.166667 0.504274 T T T Ti
0.166666 0.944444 0.201710 F F F Ti
0.166666 0.611111 0.201710 F F F Ti
0.277778 0.833333 0.302564 T T T Ti
0.500000 0.944444 0.201710 F F F Ti
0.166666 0.277778 0.201710 F F F Ti
0.277778 0.500000 0.302564 T T T Ti
0.500000 0.611111 0.201710 F F F Ti
0.611111 0.833333 0.302564 T T T Ti
0.277778 0.166667 0.302564 T T T Ti
0.833333 0.944444 0.201710 F F F Ti
0.500000 0.277778 0.201710 F F F Ti
0.611111 0.500000 0.302564 T T T Ti
0.833333 0.611111 0.201710 F F F Ti
0.944444 0.833333 0.302564 T T T Ti
0.611111 0.166667 0.302564 T T T Ti
0.833333 0.277778 0.201710 F F F Ti
0.944444 0.500000 0.302564 T T T Ti
0.944444 0.166667 0.302564 T T T Ti
0.722222 0.888889 0.630362 T T T Al
