beta_Ti
1.0
9.588310 0.000000 0.000000
0.000000 9.588310 0.000000
0.000000 0.000000 19.900006
Ti
54
direct
0.083333 0.083333 0.500000 Ti
0.083333 0.083333 0.650754 Ti
0.083333 0.083333 0.801507 Ti
0.083333 0.416667 0.500000 Ti
0.083333 0.416667 0.650754 Ti
0.083333 0.416667 0.801507 Ti
0.083333 0.750000 0.500000 Ti
0.083333 0.750000 0.650754 Ti
0.083333 0.750000 0.801507 Ti
0.416667 0.083333 0.500000 Ti
0.416667 0.083333 0.650754 Ti
0.416667 0.083333 0.801507 Ti
0.416667 0.416667 0.500000 Ti
0.416667 0.416667 0.650754 Ti
0.416667 0.416667 0.801507 Ti
0.416667 0.750000 0.500000 Ti
0.416667 0.750000 0.650754 Ti
0.416667 0.750000 0.801507 Ti
0.750000 0.083333 0.500000 Ti
0.750000 0.083333 0.650754 Ti
0.750000 0.083333 0.801507 Ti
0.750000 0.416667 0.500000 Ti
0.750000 0.416667 0.650754 Ti
0.750000 0.416667 0.801507 Ti
0.750000 0.750000 0.500000 Ti
0.750000 0.750000 0.650754 Ti
0.750000 0.750000 0.801507 Ti
0.250000 0.250000 0.575377 Ti
0.250000 0.250000 0.726130 Ti
0.250000 0.250000 0.876884 Ti
0.250000 0.583333 0.575377 Ti
0.250000 0.583333 0.726130 Ti
0.250000 0.583333 0.876884 Ti
0.250000 0.916667 0.575377 Ti
0.250000 0.916667 0.726130 Ti
0.250000 0.916667 0.876884 Ti
0.583333 0.250000 0.575377 Ti
0.583333 0.250000 0.726130 Ti
0.583333 0.250000 0.876884 Ti
0.583333 0.583333 0.575377 Ti
0.583333 0.583333 0.726130 Ti
0.583333 0.583333 0.876884 Ti
0.583333 0.916667 0.575377 Ti
0.583333 0.916667 0.726130 Ti
0.583333 0.916667 0.876884 Ti
0.916667 0.250000 0.575377 Ti
0.916667 0.250000 0.726130 Ti
0.916667 0.250000 0.876884 Ti
0.916667 0.583333 0.575377 Ti
0.916667 0.583333 0.726130 Ti
0.916667 0.583333 0.876884 Ti
0.916667 0.916667 0.575377 Ti
0.916667 0.916667 0.726130 Ti
0.916667 0.916667 0.876884 Ti
