beta_Ti
1.0
6.391540 0.000000 0.000000
0.000000 9.587310 0.000000
0.000000 0.000000 36.750000
Ti
36
direct
0.125000 0.083333 0.551020 Ti
0.625000 0.083333 0.551020 Ti
0.125000 0.083333 0.632653 Ti
0.625000 0.083333 0.632653 Ti
0.125000 0.083333 0.714286 Ti
0.625000 0.083333 0.714286 Ti
0.125000 0.416667 0.551020 Ti
0.625000 0.416667 0.551020 Ti
0.125000 0.416667 0.632653 Ti
0.625000 0.416667 0.632653 Ti
0.125000 0.416667 0.714286 Ti
0.625000 0.416667 0.714286 Ti
0.125000 0.750000 0.551020 Ti
0.625000 0.750000 0.551020 Ti
0.125000 0.750000 0.632653 Ti
0.625000 0.750000 0.632653 Ti
0.125000 0.750000 0.714286 Ti
0.625000 0.750000 0.714286 Ti
0.375000 0.250000 0.591837 Ti
0.875000 0.250000 0.591837 Ti
0.375000 0.250000 0.673469 Ti
0.875000 0.250000 0.673469 Ti
0.375000 0.250000 0.755102 Ti
0.875000 0.250000 0.755102 Ti
0.375000 0.583333 0.591837 Ti
0.875000 0.583333 0.591837 Ti
0.375000 0.583333 0.673469 Ti
0.875000 0.583333 0.673469 Ti
0.375000 0.583333 0.755102 Ti
0.875000 0.583333 0.755102 Ti
0.375000 0.916667 0.591837 Ti
0.875000 0.916667 0.591837 Ti
0.375000 0.916667 0.673469 Ti
0.875000 0.916667 0.673469 Ti
0.375000 0.916667 0.755102 Ti
0.875000 0.916667 0.755102 Ti
