beta_Ti
1.0
8.805261 0.000000 0.000000
-4.402630 7.625580 0.000000
0.000000 0.000000 18.088801
Ti
36
direct
0.967272 0.027818 0.486043 Ti
0.967272 0.527818 0.486043 Ti
0.467272 0.027818 0.486043 Ti
0.467272 0.527818 0.486043 Ti
0.133938 0.361151 0.843847 Ti
0.133938 0.861151 0.843847 Ti
0.633938 0.361151 0.843847 Ti
0.633938 0.861151 0.843847 Ti
0.300605 0.194485 0.894962 Ti
0.300605 0.694485 0.894962 Ti
0.800605 0.194485 0.894962 Ti
0.800605 0.694485 0.894962 Ti
0.133938 0.361151 0.537158 Ti
0.133938 0.861151 0.537158 Ti
0.633938 0.361151 0.537158 Ti
0.633938 0.861151 0.537158 Ti
0.300605 0.194485 0.588272 Ti
0.300605 0.694485 0.588272 Ti
0.800605 0.194485 0.588272 Ti
0.800605 0.694485 0.588272 Ti
0.967272 0.027818 0.639387 Ti
0.967272 0.527818 0.639387 Ti
0.467272 0.027818 0.639387 Ti
0.467272 0.527818 0.639387 Ti
0.133938 0.361151 0.690502 Ti
0.133938 0.861151 0.690502 Ti
0.633938 0.361151 0.690502 Ti
0.633938 0.861151 0.690502 Ti
0.300605 0.194485 0.741617 Ti
0.300605 0.694485 0.741617 Ti
0.800605 0.194485 0.741617 Ti
0.800605 0.694485 0.741617 Ti
0.967272 0.027818 0.792732 Ti
0.967272 0.527818 0.792732 Ti
0.467272 0.027818 0.792732 Ti
0.467272 0.527818 0.792732 Ti
