Zr1 Ti66
1.0
6.309760 0.000000 0.000000
0.000000 9.464640 0.000000
0.000000 0.000000 18.918326
Ti Zr
66 1
Selective dynamics
direct
0.125072 0.041878 0.499988 F F F Ti
0.625123 0.041585 0.500111 F F F Ti
0.125050 0.041589 0.658661 F F F Ti
0.625027 0.041563 0.658684 F F F Ti
0.125032 0.041628 0.817191 F F F Ti
0.624975 0.041619 0.817183 F F F Ti
0.125219 0.375262 0.500554 F F F Ti
0.624956 0.375054 0.501514 F F F Ti
0.124964 0.375018 0.658781 F F F Ti
0.625010 0.375001 0.658890 F F F Ti
0.124999 0.375002 0.817232 F F F Ti
0.624951 0.375003 0.817231 F F F Ti
0.125080 0.708270 0.500022 F F F Ti
0.624770 0.708679 0.500148 F F F Ti
0.124995 0.708467 0.658671 F F F Ti
0.624956 0.708516 0.658705 F F F Ti
0.125005 0.708302 0.817211 F F F Ti
0.624953 0.708313 0.817206 F F F Ti
0.374899 0.208122 0.579534 F F F Ti
0.875190 0.208120 0.579572 F F F Ti
0.374989 0.208275 0.737954 F F F Ti
0.875016 0.208270 0.737964 F F F Ti
0.374998 0.208314 0.896378 F F F Ti
0.875003 0.208319 0.896359 F F F Ti
0.374975 0.542013 0.579635 F F F Ti
0.875056 0.542067 0.579663 F F F Ti
0.374985 0.541728 0.737979 F F F Ti
0.874996 0.541739 0.737988 F F F Ti
0.374982 0.541638 0.896441 F F F Ti
0.874994 0.541644 0.896428 F F F Ti
0.374912 0.875097 0.579334 F F F Ti
0.875115 0.875065 0.579341 F F F Ti
0.374979 0.874999 0.737919 F F F Ti
0.875008 0.874998 0.737923 F F F Ti
0.375013 0.874903 0.896394 F F F Ti
0.875014 0.874897 0.896380 F F F Ti
0.125224 0.625655 0.357129 F F F Ti
0.625510 0.625824 0.356775 F F F Ti
0.125186 0.624457 0.118945 F F F Ti
0.624986 0.624672 0.118889 F F F Ti
0.627180 0.124810 0.356900 F F F Ti
0.125197 0.124279 0.118607 F F F Ti
0.625147 0.124504 0.118050 F F F Ti
0.125145 0.374797 0.039573 F F F Ti
0.624930 0.374968 0.039401 F F F Ti
0.125048 0.874594 0.039458 F F F Ti
0.625006 0.874552 0.039368 F F F Ti
0.628633 0.374642 0.277582 F F F Ti
0.125222 0.874404 0.277337 F F F Ti
0.625150 0.873674 0.277552 F F F Ti
0.375296 0.873877 0.158277 F F F Ti
0.874886 0.873679 0.158181 F F F Ti
0.376008 0.374421 0.158443 F F F Ti
0.873901 0.374688 0.157954 F F F Ti
0.382676 0.377548 0.398580 F F F Ti
0.866649 0.378362 0.399265 F F F Ti
0.374980 0.875448 0.396428 F F F Ti
0.875353 0.875161 0.396480 F F F Ti
0.375101 0.624265 0.237974 F F F Ti
0.875281 0.624747 0.237849 F F F Ti
0.374948 0.624828 -0.000019 F F F Ti
0.875073 0.624838 -0.000033 F F F Ti
0.381761 0.121283 0.236630 F F F Ti
0.867763 0.120377 0.236080 F F F Ti
0.374942 0.124803 -0.000189 F F F Ti
0.875160 0.124800 -0.000214 F F F Ti
0.117397 0.303475 0.301438 T T T Zr

0.000000 0.000000 0.000000
0.000000 0.000000 0.000000
0.000000 0.000000 0.000000
0.000000 0.000000 0.000000
0.000000 0.000000 0.000000
0.000000 0.000000 0.000000
0.000000 0.000000 0.000000
0.000000 0.000000 0.000000
0.000000 0.000000 0.000000
0.000000 0.000000 0.000000
0.000000 0.000000 0.000000
0.000000 0.000000 0.000000
0.000000 0.000000 0.000000
0.000000 0.000000 0.000000
0.000000 0.000000 0.000000
0.000000 0.000000 0.000000
0.000000 0.000000 0.000000
0.000000 0.000000 0.000000
0.000000 0.000000 0.000000
0.000000 0.000000 0.000000
0.000000 0.000000 0.000000
0.000000 0.000000 0.000000
0.000000 0.000000 0.000000
0.000000 0.000000 0.000000
0.000000 0.000000 0.000000
0.000000 0.000000 0.000000
0.000000 0.000000 0.000000
0.000000 0.000000 0.000000
0.000000 0.000000 0.000000
0.000000 0.000000 0.000000
0.000000 0.000000 0.000000
0.000000 0.000000 0.000000
0.000000 0.000000 0.000000
0.000000 0.000000 0.000000
0.000000 0.000000 0.000000
0.000000 0.000000 0.000000
0.000000 0.000000 0.000000
0.000000 0.000000 0.000000
0.000000 0.000000 0.000000
0.000000 0.000000 0.000000
0.000000 0.000000 0.000000
0.000000 0.000000 0.000000
0.000000 0.000000 0.000000
0.000000 0.000000 0.000000
0.000000 0.000000 0.000000
0.000000 0.000000 0.000000
0.000000 0.000000 0.000000
0.000000 0.000000 0.000000
0.000000 0.000000 0.000000
0.000000 0.000000 0.000000
0.000000 0.000000 0.000000
0.000000 0.000000 0.000000
0.000000 0.000000 0.000000
0.000000 0.000000 0.000000
0.000000 0.000000 0.000000
0.000000 0.000000 0.000000
0.000000 0.000000 0.000000
0.000000 0.000000 0.000000
0.000000 0.000000 0.000000
0.000000 0.000000 0.000000
0.000000 0.000000 0.000000
0.000000 0.000000 0.000000
0.000000 0.000000 0.000000
0.000000 0.000000 0.000000
0.000000 0.000000 0.000000
0.000000 0.000000 0.000000
0.000000 0.000000 0.000000
