Zr1 Ti66
1.0
6.309760 0.000000 0.000000
0.000000 9.464640 0.000000
0.000000 0.000000 18.918326
Ti Zr
66 1
Selective dynamics
direct
0.630106 0.040631 0.499814 F F F Ti
0.124303 0.041249 0.659159 F F F Ti
0.625035 0.041486 0.658721 F F F Ti
0.124978 0.041658 0.817247 F F F Ti
0.624938 0.041665 0.817219 F F F Ti
0.123451 0.377967 0.499790 F F F Ti
0.625129 0.375293 0.499917 F F F Ti
0.124865 0.375070 0.658637 F F F Ti
0.624599 0.375126 0.658680 F F F Ti
0.125011 0.374994 0.817195 F F F Ti
0.624940 0.375005 0.817205 F F F Ti
0.125023 0.708486 0.500045 F F F Ti
0.625286 0.708079 0.499960 F F F Ti
0.124921 0.708138 0.658719 F F F Ti
0.625222 0.708069 0.658765 F F F Ti
0.124990 0.708285 0.817227 F F F Ti
0.624976 0.708276 0.817240 F F F Ti
0.872210 0.209275 0.579822 F F F Ti
0.374963 0.208314 0.737891 F F F Ti
0.874802 0.208403 0.738000 F F F Ti
0.375007 0.208345 0.896462 F F F Ti
0.874972 0.208350 0.896476 F F F Ti
0.375106 0.541688 0.579355 F F F Ti
0.874593 0.541954 0.579427 F F F Ti
0.374967 0.541614 0.737936 F F F Ti
0.874986 0.541618 0.737965 F F F Ti
0.375000 0.541642 0.896473 F F F Ti
0.874988 0.541643 0.896479 F F F Ti
0.376543 0.873319 0.579781 F F F Ti
0.874973 0.874567 0.579529 F F F Ti
0.375083 0.874876 0.738004 F F F Ti
0.874807 0.874851 0.738013 F F F Ti
0.375010 0.874988 0.896483 F F F Ti
0.874969 0.874987 0.896487 F F F Ti
0.125023 0.625476 0.356853 F F F Ti
0.624861 0.625275 0.356797 F F F Ti
0.125011 0.625039 0.118944 F F F Ti
0.624992 0.625032 0.118941 F F F Ti
0.124931 0.125170 0.356458 F F F Ti
0.625644 0.125043 0.356615 F F F Ti
0.125012 0.125015 0.118913 F F F Ti
0.625004 0.125013 0.118905 F F F Ti
0.125003 0.375017 0.039646 F F F Ti
0.624994 0.375018 0.039645 F F F Ti
0.125000 0.875004 0.039648 F F F Ti
0.624995 0.875001 0.039647 F F F Ti
0.124976 0.375169 0.277440 F F F Ti
0.625063 0.375115 0.277415 F F F Ti
0.125033 0.875058 0.277469 F F F Ti
0.625139 0.875013 0.277442 F F F Ti
0.375016 0.875013 0.158554 F F F Ti
0.875009 0.875006 0.158552 F F F Ti
0.375007 0.375048 0.158551 F F F Ti
0.875005 0.375053 0.158545 F F F Ti
0.375230 0.375630 0.396228 F F F Ti
0.874572 0.375327 0.396262 F F F Ti
0.375517 0.874733 0.396299 F F F Ti
0.875407 0.874971 0.396389 F F F Ti
0.374978 0.625116 0.237881 F F F Ti
0.875057 0.625102 0.237885 F F F Ti
0.374994 0.625020 0.000006 F F F Ti
0.875007 0.625018 0.000010 F F F Ti
0.375098 0.125038 0.237802 F F F Ti
0.874996 0.125037 0.237777 F F F Ti
0.375003 0.125004 -0.000000 F F F Ti
0.875004 0.125001 0.000006 F F F Ti
0.233391 0.116624 0.515659 T T T Zr

0.000000 0.000000 0.000000
0.000000 0.000000 0.000000
0.000000 0.000000 0.000000
0.000000 0.000000 0.000000
0.000000 0.000000 0.000000
0.000000 0.000000 0.000000
0.000000 0.000000 0.000000
0.000000 0.000000 0.000000
0.000000 0.000000 0.000000
0.000000 0.000000 0.000000
0.000000 0.000000 0.000000
0.000000 0.000000 0.000000
0.000000 0.000000 0.000000
0.000000 0.000000 0.000000
0.000000 0.000000 0.000000
0.000000 0.000000 0.000000
0.000000 0.000000 0.000000
0.000000 0.000000 0.000000
0.000000 0.000000 0.000000
0.000000 0.000000 0.000000
0.000000 0.000000 0.000000
0.000000 0.000000 0.000000
0.000000 0.000000 0.000000
0.000000 0.000000 0.000000
0.000000 0.000000 0.000000
0.000000 0.000000 0.000000
0.000000 0.000000 0.000000
0.000000 0.000000 0.000000
0.000000 0.000000 0.000000
0.000000 0.000000 0.000000
0.000000 0.000000 0.000000
0.000000 0.000000 0.000000
0.000000 0.000000 0.000000
0.000000 0.000000 0.000000
0.000000 0.000000 0.000000
0.000000 0.000000 0.000000
0.000000 0.000000 0.000000
0.000000 0.000000 0.000000
0.000000 0.000000 0.000000
0.000000 0.000000 0.000000
0.000000 0.000000 0.000000
0.000000 0.000000 0.000000
0.000000 0.000000 0.000000
0.000000 0.000000 0.000000
0.000000 0.000000 0.000000
0.000000 0.000000 0.000000
0.000000 0.000000 0.000000
0.000000 0.000000 0.000000
0.000000 0.000000 0.000000
0.000000 0.000000 0.000000
0.000000 0.000000 0.000000
0.000000 0.000000 0.000000
0.000000 0.000000 0.000000
0.000000 0.000000 0.000000
0.000000 0.000000 0.000000
0.000000 0.000000 0.000000
0.000000 0.000000 0.000000
0.000000 0.000000 0.000000
0.000000 0.000000 0.000000
0.000000 0.000000 0.000000
0.000000 0.000000 0.000000
0.000000 0.000000 0.000000
0.000000 0.000000 0.000000
0.000000 0.000000 0.000000
0.000000 0.000000 0.000000
0.000000 0.000000 0.000000
0.000000 0.000000 0.000000
