beta_Ti
1.0
8.805261 0.000000 0.000000
-4.402631 7.625580 0.000000
0.000000 0.000000 34.883422
Ti
36
direct
0.055556 0.055556 0.558619 Ti
0.055556 0.555555 0.558619 Ti
0.555556 0.055556 0.558619 Ti
0.555556 0.555555 0.558619 Ti
0.222222 0.388889 0.744159 Ti
0.222222 0.888889 0.744159 Ti
0.722222 0.388889 0.744159 Ti
0.722222 0.888889 0.744159 Ti
0.388889 0.222222 0.770664 Ti
0.388889 0.722222 0.770664 Ti
0.888889 0.222222 0.770664 Ti
0.888889 0.722222 0.770664 Ti
0.222222 0.388889 0.585125 Ti
0.222222 0.888889 0.585125 Ti
0.722222 0.388889 0.585125 Ti
0.722222 0.888889 0.585125 Ti
0.388889 0.222222 0.611630 Ti
0.388889 0.722222 0.611630 Ti
0.888889 0.222222 0.611630 Ti
0.888889 0.722222 0.611630 Ti
0.055556 0.055556 0.638136 Ti
0.055556 0.555555 0.638136 Ti
0.555556 0.055556 0.638136 Ti
0.555556 0.555555 0.638136 Ti
0.222222 0.388889 0.664642 Ti
0.222222 0.888889 0.664642 Ti
0.722222 0.388889 0.664642 Ti
0.722222 0.888889 0.664642 Ti
0.388889 0.222222 0.691147 Ti
0.388889 0.722222 0.691147 Ti
0.888889 0.222222 0.691147 Ti
0.888889 0.722222 0.691147 Ti
0.055556 0.055556 0.717653 Ti
0.055556 0.555555 0.717653 Ti
0.555556 0.055556 0.717653 Ti
0.555556 0.555555 0.717653 Ti
