beta_Ti
1.0
9.445957 0.000000 0.000000
0.000000 9.093951 0.000000
0.000000 0.000000 17.831864
Ti
48
direct
0.375000 0.375000 0.836726 Ti
0.875000 0.375000 0.836726 Ti
0.375000 0.875000 0.836726 Ti
0.875000 0.875000 0.836726 Ti
0.125000 0.125000 0.836726 Ti
0.625000 0.125000 0.836726 Ti
0.125000 0.625000 0.836726 Ti
0.625000 0.625000 0.836726 Ti
0.125000 0.375000 0.926535 Ti
0.625000 0.375000 0.926535 Ti
0.125000 0.875000 0.926535 Ti
0.625000 0.875000 0.926535 Ti
0.375000 0.125000 0.926535 Ti
0.875000 0.125000 0.926535 Ti
0.375000 0.625000 0.926535 Ti
0.875000 0.625000 0.926535 Ti
0.375000 0.375000 0.657110 Ti
0.875000 0.375000 0.657110 Ti
0.375000 0.875000 0.657110 Ti
0.875000 0.875000 0.657110 Ti
0.125000 0.125000 0.657110 Ti
0.625000 0.125000 0.657110 Ti
0.125000 0.625000 0.657110 Ti
0.625000 0.625000 0.657110 Ti
0.125000 0.375000 0.567302 Ti
0.625000 0.375000 0.567302 Ti
0.125000 0.875000 0.567302 Ti
0.625000 0.875000 0.567302 Ti
0.375000 0.125000 0.567302 Ti
0.875000 0.125000 0.567302 Ti
0.375000 0.625000 0.567302 Ti
0.875000 0.625000 0.567302 Ti
0.375000 0.375000 0.477493 Ti
0.875000 0.375000 0.477493 Ti
0.375000 0.875000 0.477493 Ti
0.875000 0.875000 0.477493 Ti
0.125000 0.125000 0.477493 Ti
0.625000 0.125000 0.477493 Ti
0.125000 0.625000 0.477493 Ti
0.625000 0.625000 0.477493 Ti
0.125000 0.875000 0.746918 Ti
0.625000 0.875000 0.746918 Ti
0.375000 0.625000 0.746918 Ti
0.875000 0.625000 0.746918 Ti
0.125000 0.375000 0.746918 Ti
0.625000 0.375000 0.746918 Ti
0.375000 0.125000 0.746918 Ti
0.875000 0.125000 0.746918 Ti
