total_Ti
1.0
9.588310 0.000000 0.000000
0.000000 9.588310 0.000000
0.000000 0.000000 23.000006
Ti
102
direct
0.083333 0.083333 0.500000 Ti
0.083333 0.083333 0.630435 Ti
0.083333 0.083333 0.760869 Ti
0.083333 0.416667 0.500000 Ti
0.083333 0.416667 0.630435 Ti
0.083333 0.416667 0.760869 Ti
0.083333 0.750000 0.500000 Ti
0.083333 0.750000 0.630435 Ti
0.083333 0.750000 0.760869 Ti
0.416667 0.083333 0.500000 Ti
0.416667 0.083333 0.630435 Ti
0.416667 0.083333 0.760869 Ti
0.416667 0.416667 0.500000 Ti
0.416667 0.416667 0.630435 Ti
0.416667 0.416667 0.760869 Ti
0.416667 0.750000 0.500000 Ti
0.416667 0.750000 0.630435 Ti
0.416667 0.750000 0.760869 Ti
0.750000 0.083333 0.500000 Ti
0.750000 0.083333 0.630435 Ti
0.750000 0.083333 0.760869 Ti
0.750000 0.416667 0.500000 Ti
0.750000 0.416667 0.630435 Ti
0.750000 0.416667 0.760869 Ti
0.750000 0.750000 0.500000 Ti
0.750000 0.750000 0.630435 Ti
0.750000 0.750000 0.760869 Ti
0.250000 0.250000 0.565217 Ti
0.250000 0.250000 0.695652 Ti
0.250000 0.250000 0.826087 Ti
0.250000 0.583333 0.565217 Ti
0.250000 0.583333 0.695652 Ti
0.250000 0.583333 0.826087 Ti
0.250000 0.916667 0.565217 Ti
0.250000 0.916667 0.695652 Ti
0.250000 0.916667 0.826087 Ti
0.583333 0.250000 0.565217 Ti
0.583333 0.250000 0.695652 Ti
0.583333 0.250000 0.826087 Ti
0.583333 0.583333 0.565217 Ti
0.583333 0.583333 0.695652 Ti
0.583333 0.583333 0.826087 Ti
0.583333 0.916667 0.565217 Ti
0.583333 0.916667 0.695652 Ti
0.583333 0.916667 0.826087 Ti
0.916667 0.250000 0.565217 Ti
0.916667 0.250000 0.695652 Ti
0.916667 0.250000 0.826087 Ti
0.916667 0.583333 0.565217 Ti
0.916667 0.583333 0.695652 Ti
0.916667 0.583333 0.826087 Ti
0.916667 0.916667 0.565217 Ti
0.916667 0.916667 0.695652 Ti
0.916667 0.916667 0.826087 Ti
0.125000 0.833333 -0.000000 Ti
0.125000 0.333333 -0.000000 Ti
0.625000 0.833333 -0.000000 Ti
0.625000 0.333333 -0.000000 Ti
0.375000 0.666667 -0.000000 Ti
0.375000 0.166667 -0.000000 Ti
0.875000 0.666667 -0.000000 Ti
0.875000 0.166667 -0.000000 Ti
0.875000 0.416667 0.065217 Ti
0.375000 0.416667 0.065217 Ti
0.875000 0.916667 0.065217 Ti
0.375000 0.916667 0.065217 Ti
0.625000 0.083333 0.065217 Ti
0.125000 0.083333 0.065217 Ti
0.625000 0.583333 0.065217 Ti
0.125000 0.583333 0.065217 Ti
0.125000 0.333333 0.130435 Ti
0.625000 0.333333 0.130435 Ti
0.625000 0.833333 0.130435 Ti
0.125000 0.833333 0.130435 Ti
0.875000 0.666667 0.130435 Ti
0.375000 0.166667 0.130435 Ti
0.875000 0.166667 0.130435 Ti
0.375000 0.666667 0.130435 Ti
0.875000 0.416667 0.195652 Ti
0.375000 0.416667 0.195652 Ti
0.875000 0.916667 0.195652 Ti
0.375000 0.916667 0.195652 Ti
0.125000 0.583333 0.195652 Ti
0.625000 0.083333 0.195652 Ti
0.125000 0.083333 0.195652 Ti
0.625000 0.583333 0.195652 Ti
0.625000 0.833333 0.260869 Ti
0.625000 0.333333 0.260869 Ti
0.125000 0.833333 0.260869 Ti
0.125000 0.333333 0.260869 Ti
0.375000 0.166667 0.260869 Ti
0.875000 0.166667 0.260869 Ti
0.375000 0.666667 0.260869 Ti
0.875000 0.666667 0.260869 Ti
0.875000 0.416667 0.326087 Ti
0.375000 0.416667 0.326087 Ti
0.375000 0.916667 0.326087 Ti
0.875000 0.916667 0.326087 Ti
0.625000 0.583333 0.326087 Ti
0.625000 0.083333 0.326087 Ti
0.125000 0.583333 0.326087 Ti
0.125000 0.083333 0.326087 Ti
