Ti96 Nb1
1.0
9.513020 0.000000 0.000000
0.000000 9.350860 0.000000
0.000000 0.000000 18.547230
Ti Nb
96 1
Selective dynamics
direct
0.142584 0.368276 0.402421 T T T Ti
0.661346 0.357420 0.391679 T T T Ti
0.155093 0.865795 0.399837 T T T Ti
0.665077 0.877431 0.409280 T T T Ti
0.161555 0.372793 0.237008 T T T Ti
0.659648 0.370998 0.232780 T T T Ti
0.160423 0.873651 0.234731 T T T Ti
0.661002 0.869628 0.237274 T T T Ti
0.166675 0.375045 0.077593 F F F Ti
0.666658 0.374957 0.077578 F F F Ti
0.166689 0.875042 0.077600 F F F Ti
0.666649 0.874963 0.077632 F F F Ti
0.406642 0.383163 0.316722 T T T Ti
0.909871 0.379638 0.316515 T T T Ti
0.402375 0.882712 0.315229 T T T Ti
0.907084 0.876901 0.318259 T T T Ti
0.416672 0.375076 0.155199 F F F Ti
0.916649 0.374887 0.155186 F F F Ti
0.416660 0.875067 0.155244 F F F Ti
0.916686 0.874997 0.155174 F F F Ti
0.416681 0.375074 -0.000067 F F F Ti
0.916611 0.375023 -0.000051 F F F Ti
0.416667 0.874986 -0.000104 F F F Ti
0.916611 0.874983 -0.000077 F F F Ti
0.090129 0.120363 0.316513 T T T Ti
0.593358 0.116839 0.316721 T T T Ti
0.092916 0.623100 0.318258 T T T Ti
0.597625 0.617289 0.315228 T T T Ti
0.083350 0.125128 0.155184 F F F Ti
0.583328 0.124939 0.155199 F F F Ti
0.083314 0.625021 0.155174 F F F Ti
0.583342 0.624948 0.155245 F F F Ti
0.083390 0.124987 -0.000052 F F F Ti
0.583321 0.124942 -0.000068 F F F Ti
0.083391 0.625035 -0.000075 F F F Ti
0.583335 0.625033 -0.000103 F F F Ti
0.338653 0.142580 0.391679 T T T Ti
0.857415 0.131724 0.402421 T T T Ti
0.334922 0.622570 0.409280 T T T Ti
0.844906 0.634205 0.399837 T T T Ti
0.340351 0.129006 0.232779 T T T Ti
0.838444 0.127210 0.237008 T T T Ti
0.338997 0.630376 0.237274 T T T Ti
0.839577 0.626353 0.234731 T T T Ti
0.333341 0.125059 0.077576 F F F Ti
0.833324 0.124970 0.077592 F F F Ti
0.333351 0.625053 0.077632 F F F Ti
0.833311 0.624975 0.077601 F F F Ti
0.375076 0.374992 0.823891 F F F Ti
0.874961 0.374880 0.823950 F F F Ti
0.375070 0.875152 0.823776 F F F Ti
0.874899 0.874983 0.823924 F F F Ti
0.125045 0.125096 0.823947 F F F Ti
0.624936 0.125009 0.823891 F F F Ti
0.125103 0.625010 0.823925 F F F Ti
0.624935 0.624836 0.823781 F F F Ti
0.125036 0.375021 0.910168 F F F Ti
0.625000 0.374964 0.910136 F F F Ti
0.125078 0.875028 0.910123 F F F Ti
0.624953 0.874983 0.910091 F F F Ti
0.375004 0.125031 0.910134 F F F Ti
0.874971 0.124975 0.910166 F F F Ti
0.375052 0.625013 0.910090 F F F Ti
0.874932 0.624970 0.910125 F F F Ti
0.381740 0.374174 0.667585 T T T Ti
0.884659 0.391050 0.648931 T T T Ti
0.375879 0.885584 0.663506 T T T Ti
0.903597 0.880066 0.652487 T T T Ti
0.115338 0.108945 0.648931 T T T Ti
0.618257 0.125818 0.667585 T T T Ti
0.096398 0.619925 0.652488 T T T Ti
0.624120 0.614408 0.663507 T T T Ti
0.136371 0.359366 0.571550 T T T Ti
0.634830 0.362604 0.581593 T T T Ti
0.159933 0.852534 0.564774 T T T Ti
0.674872 0.918175 0.570412 T T T Ti
0.365169 0.137394 0.581592 T T T Ti
0.863628 0.140633 0.571550 T T T Ti
0.325127 0.581822 0.570412 T T T Ti
0.840066 0.647463 0.564774 T T T Ti
0.397310 0.359109 0.483086 T T T Ti
0.883663 0.384030 0.490802 T T T Ti
0.384254 0.933934 0.476776 T T T Ti
0.917775 0.885669 0.484259 T T T Ti
0.116337 0.115969 0.490802 T T T Ti
0.602689 0.140890 0.483086 T T T Ti
0.082224 0.614331 0.484259 T T T Ti
0.615746 0.566065 0.476776 T T T Ti
0.125543 0.875334 0.737748 F F F Ti
0.624898 0.874931 0.737639 F F F Ti
0.375093 0.625043 0.737637 F F F Ti
0.874446 0.624636 0.737761 F F F Ti
0.125057 0.374895 0.737808 F F F Ti
0.625231 0.374733 0.737672 F F F Ti
0.374760 0.125243 0.737669 F F F Ti
0.874929 0.125072 0.737805 F F F Ti
0.500000 0.749999 0.530232 T T T Nb

0.000000 0.000000 0.000000
0.000000 0.000000 0.000000
0.000000 0.000000 0.000000
0.000000 0.000000 0.000000
0.000000 0.000000 0.000000
0.000000 0.000000 0.000000
0.000000 0.000000 0.000000
0.000000 0.000000 0.000000
0.000000 0.000000 0.000000
0.000000 0.000000 0.000000
0.000000 0.000000 0.000000
0.000000 0.000000 0.000000
0.000000 0.000000 0.000000
0.000000 0.000000 0.000000
0.000000 0.000000 0.000000
0.000000 0.000000 0.000000
0.000000 0.000000 0.000000
0.000000 0.000000 0.000000
0.000000 0.000000 0.000000
0.000000 0.000000 0.000000
0.000000 0.000000 0.000000
0.000000 0.000000 0.000000
0.000000 0.000000 0.000000
0.000000 0.000000 0.000000
0.000000 0.000000 0.000000
0.000000 0.000000 0.000000
0.000000 0.000000 0.000000
0.000000 0.000000 0.000000
0.000000 0.000000 0.000000
0.000000 0.000000 0.000000
0.000000 0.000000 0.000000
0.000000 0.000000 0.000000
0.000000 0.000000 0.000000
0.000000 0.000000 0.000000
0.000000 0.000000 0.000000
0.000000 0.000000 0.000000
0.000000 0.000000 0.000000
0.000000 0.000000 0.000000
0.000000 0.000000 0.000000
0.000000 0.000000 0.000000
0.000000 0.000000 0.000000
0.000000 0.000000 0.000000
0.000000 0.000000 0.000000
0.000000 0.000000 0.000000
0.000000 0.000000 0.000000
0.000000 0.000000 0.000000
0.000000 0.000000 0.000000
0.000000 0.000000 0.000000
0.000000 0.000000 0.000000
0.000000 0.000000 0.000000
0.000000 0.000000 0.000000
0.000000 0.000000 0.000000
0.000000 0.000000 0.000000
0.000000 0.000000 0.000000
0.000000 0.000000 0.000000
0.000000 0.000000 0.000000
0.000000 0.000000 0.000000
0.000000 0.000000 0.000000
0.000000 0.000000 0.000000
0.000000 0.000000 0.000000
0.000000 0.000000 0.000000
0.000000 0.000000 0.000000
0.000000 0.000000 0.000000
0.000000 0.000000 0.000000
0.000000 0.000000 0.000000
0.000000 0.000000 0.000000
0.000000 0.000000 0.000000
0.000000 0.000000 0.000000
0.000000 0.000000 0.000000
0.000000 0.000000 0.000000
0.000000 0.000000 0.000000
0.000000 0.000000 0.000000
0.000000 0.000000 0.000000
0.000000 0.000000 0.000000
0.000000 0.000000 0.000000
0.000000 0.000000 0.000000
0.000000 0.000000 0.000000
0.000000 0.000000 0.000000
0.000000 0.000000 0.000000
0.000000 0.000000 0.000000
0.000000 0.000000 0.000000
0.000000 0.000000 0.000000
0.000000 0.000000 0.000000
0.000000 0.000000 0.000000
0.000000 0.000000 0.000000
0.000000 0.000000 0.000000
0.000000 0.000000 0.000000
0.000000 0.000000 0.000000
0.000000 0.000000 0.000000
0.000000 0.000000 0.000000
0.000000 0.000000 0.000000
0.000000 0.000000 0.000000
0.000000 0.000000 0.000000
0.000000 0.000000 0.000000
0.000000 0.000000 0.000000
0.000000 0.000000 0.000000
0.000000 0.000000 0.000000
