Ti96 Nb1
1.0
9.513020 0.000000 0.000000
0.000000 9.350860 0.000000
0.000000 0.000000 18.547230
Ti Nb
96 1
Selective dynamics
direct
0.146485 0.374039 0.403165 T T T Ti
0.643669 0.335970 0.408795 T T T Ti
0.135320 0.851803 0.416631 T T T Ti
0.665858 0.885340 0.411803 T T T Ti
0.154173 0.372681 0.240371 T T T Ti
0.660138 0.360287 0.232737 T T T Ti
0.153401 0.868076 0.230488 T T T Ti
0.669871 0.878047 0.234403 T T T Ti
0.166711 0.375042 0.077593 F F F Ti
0.666689 0.374919 0.077562 F F F Ti
0.166698 0.875016 0.077626 F F F Ti
0.666622 0.874975 0.077635 F F F Ti
0.414412 0.392154 0.319907 T T T Ti
0.900823 0.373665 0.321689 T T T Ti
0.335067 0.933045 0.327409 T T T Ti
0.911700 0.877513 0.320102 T T T Ti
0.416746 0.375031 0.155209 F F F Ti
0.916694 0.374839 0.155157 F F F Ti
0.416569 0.875046 0.155377 F F F Ti
0.916683 0.875110 0.155153 F F F Ti
0.416687 0.375008 -0.000044 F F F Ti
0.916659 0.374973 -0.000060 F F F Ti
0.416666 0.874989 0.000001 F F F Ti
0.916671 0.874997 -0.000049 F F F Ti
0.099177 0.126335 0.321688 T T T Ti
0.585588 0.107846 0.319905 T T T Ti
0.088300 0.622488 0.320101 T T T Ti
0.664933 0.566956 0.327409 T T T Ti
0.083305 0.125171 0.155155 F F F Ti
0.583255 0.124977 0.155209 F F F Ti
0.083317 0.624900 0.155154 F F F Ti
0.583432 0.624956 0.155377 F F F Ti
0.083342 0.125026 -0.000061 F F F Ti
0.583313 0.124993 -0.000045 F F F Ti
0.083328 0.625002 -0.000048 F F F Ti
0.583336 0.625008 0.000002 F F F Ti
0.356330 0.164030 0.408795 T T T Ti
0.853514 0.125961 0.403165 T T T Ti
0.334141 0.614661 0.411803 T T T Ti
0.864679 0.648197 0.416631 T T T Ti
0.339861 0.139714 0.232737 T T T Ti
0.845826 0.127320 0.240371 T T T Ti
0.330128 0.621955 0.234403 T T T Ti
0.846598 0.631926 0.230488 T T T Ti
0.333310 0.125086 0.077561 F F F Ti
0.833288 0.124962 0.077593 F F F Ti
0.333377 0.625028 0.077635 F F F Ti
0.833302 0.624987 0.077627 F F F Ti
0.375013 0.375021 0.823741 F F F Ti
0.874976 0.374993 0.823743 F F F Ti
0.375007 0.874999 0.823723 F F F Ti
0.874989 0.874989 0.823740 F F F Ti
0.125025 0.125005 0.823742 F F F Ti
0.624990 0.124979 0.823741 F F F Ti
0.125012 0.625009 0.823740 F F F Ti
0.624995 0.624999 0.823724 F F F Ti
0.124993 0.375018 0.910053 F F F Ti
0.625000 0.375003 0.910059 F F F Ti
0.125006 0.874996 0.910059 F F F Ti
0.624981 0.874981 0.910071 F F F Ti
0.375002 0.124996 0.910059 F F F Ti
0.875009 0.124981 0.910053 F F F Ti
0.375020 0.625015 0.910071 F F F Ti
0.874996 0.625001 0.910059 F F F Ti
0.394231 0.386783 0.654157 T T T Ti
0.901053 0.385159 0.653127 T T T Ti
0.396157 0.882440 0.654903 T T T Ti
0.888256 0.886843 0.656806 T T T Ti
0.098946 0.114840 0.653127 T T T Ti
0.605768 0.113215 0.654157 T T T Ti
0.111743 0.613156 0.656806 T T T Ti
0.603843 0.617558 0.654903 T T T Ti
0.149257 0.361014 0.573693 T T T Ti
0.652299 0.365990 0.579501 T T T Ti
0.145502 0.863519 0.577756 T T T Ti
0.643488 0.858327 0.569229 T T T Ti
0.347700 0.134010 0.579501 T T T Ti
0.850743 0.138986 0.573693 T T T Ti
0.356511 0.641673 0.569229 T T T Ti
0.854498 0.636480 0.577756 T T T Ti
0.402114 0.382312 0.499110 T T T Ti
0.892705 0.377945 0.485485 T T T Ti
0.390599 0.902435 0.485558 T T T Ti
0.904039 0.893896 0.498547 T T T Ti
0.107295 0.122055 0.485485 T T T Ti
0.597886 0.117688 0.499110 T T T Ti
0.095961 0.606104 0.498547 T T T Ti
0.609401 0.597565 0.485558 T T T Ti
0.125012 0.875081 0.737472 F F F Ti
0.624969 0.874973 0.737470 F F F Ti
0.375027 0.625019 0.737469 F F F Ti
0.874985 0.624912 0.737473 F F F Ti
0.124966 0.374991 0.737479 F F F Ti
0.624990 0.374964 0.737476 F F F Ti
0.375007 0.125029 0.737476 F F F Ti
0.875031 0.125002 0.737478 F F F Ti
0.500000 0.750000 0.336233 T T T Nb

0.000000 0.000000 0.000000
0.000000 0.000000 0.000000
0.000000 0.000000 0.000000
0.000000 0.000000 0.000000
0.000000 0.000000 0.000000
0.000000 0.000000 0.000000
0.000000 0.000000 0.000000
0.000000 0.000000 0.000000
0.000000 0.000000 0.000000
0.000000 0.000000 0.000000
0.000000 0.000000 0.000000
0.000000 0.000000 0.000000
0.000000 0.000000 0.000000
0.000000 0.000000 0.000000
0.000000 0.000000 0.000000
0.000000 0.000000 0.000000
0.000000 0.000000 0.000000
0.000000 0.000000 0.000000
0.000000 0.000000 0.000000
0.000000 0.000000 0.000000
0.000000 0.000000 0.000000
0.000000 0.000000 0.000000
0.000000 0.000000 0.000000
0.000000 0.000000 0.000000
0.000000 0.000000 0.000000
0.000000 0.000000 0.000000
0.000000 0.000000 0.000000
0.000000 0.000000 0.000000
0.000000 0.000000 0.000000
0.000000 0.000000 0.000000
0.000000 0.000000 0.000000
0.000000 0.000000 0.000000
0.000000 0.000000 0.000000
0.000000 0.000000 0.000000
0.000000 0.000000 0.000000
0.000000 0.000000 0.000000
0.000000 0.000000 0.000000
0.000000 0.000000 0.000000
0.000000 0.000000 0.000000
0.000000 0.000000 0.000000
0.000000 0.000000 0.000000
0.000000 0.000000 0.000000
0.000000 0.000000 0.000000
0.000000 0.000000 0.000000
0.000000 0.000000 0.000000
0.000000 0.000000 0.000000
0.000000 0.000000 0.000000
0.000000 0.000000 0.000000
0.000000 0.000000 0.000000
0.000000 0.000000 0.000000
0.000000 0.000000 0.000000
0.000000 0.000000 0.000000
0.000000 0.000000 0.000000
0.000000 0.000000 0.000000
0.000000 0.000000 0.000000
0.000000 0.000000 0.000000
0.000000 0.000000 0.000000
0.000000 0.000000 0.000000
0.000000 0.000000 0.000000
0.000000 0.000000 0.000000
0.000000 0.000000 0.000000
0.000000 0.000000 0.000000
0.000000 0.000000 0.000000
0.000000 0.000000 0.000000
0.000000 0.000000 0.000000
0.000000 0.000000 0.000000
0.000000 0.000000 0.000000
0.000000 0.000000 0.000000
0.000000 0.000000 0.000000
0.000000 0.000000 0.000000
0.000000 0.000000 0.000000
0.000000 0.000000 0.000000
0.000000 0.000000 0.000000
0.000000 0.000000 0.000000
0.000000 0.000000 0.000000
0.000000 0.000000 0.000000
0.000000 0.000000 0.000000
0.000000 0.000000 0.000000
0.000000 0.000000 0.000000
0.000000 0.000000 0.000000
0.000000 0.000000 0.000000
0.000000 0.000000 0.000000
0.000000 0.000000 0.000000
0.000000 0.000000 0.000000
0.000000 0.000000 0.000000
0.000000 0.000000 0.000000
0.000000 0.000000 0.000000
0.000000 0.000000 0.000000
0.000000 0.000000 0.000000
0.000000 0.000000 0.000000
0.000000 0.000000 0.000000
0.000000 0.000000 0.000000
0.000000 0.000000 0.000000
0.000000 0.000000 0.000000
0.000000 0.000000 0.000000
0.000000 0.000000 0.000000
0.000000 0.000000 0.000000
