Ti66 Nb1
1.0
6.309760 0.000000 0.000000
0.000000 9.464640 0.000000
0.000000 0.000000 18.918326
Ti Nb
66 1
Selective dynamics
direct
0.125118 0.042080 0.499985 F F F Ti
0.625354 0.041763 0.500040 F F F Ti
0.125085 0.041579 0.658631 F F F Ti
0.625056 0.041544 0.658650 F F F Ti
0.125044 0.041612 0.817063 F F F Ti
0.624948 0.041598 0.817078 F F F Ti
0.125335 0.375974 0.500826 F F F Ti
0.625227 0.375187 0.502130 F F F Ti
0.124960 0.375079 0.658840 F F F Ti
0.625048 0.375030 0.658995 F F F Ti
0.124987 0.375012 0.817119 F F F Ti
0.624918 0.375014 0.817154 F F F Ti
0.125137 0.707997 0.499836 F F F Ti
0.624368 0.708935 0.500135 F F F Ti
0.124996 0.708537 0.658628 F F F Ti
0.624887 0.708650 0.658705 F F F Ti
0.124993 0.708279 0.817090 F F F Ti
0.624910 0.708301 0.817115 F F F Ti
0.374898 0.208156 0.579580 F F F Ti
0.875313 0.208162 0.579656 F F F Ti
0.375005 0.208254 0.737931 F F F Ti
0.875011 0.208246 0.737950 F F F Ti
0.374992 0.208338 0.896279 F F F Ti
0.875026 0.208343 0.896251 F F F Ti
0.375082 0.542269 0.579792 F F F Ti
0.874977 0.542402 0.579833 F F F Ti
0.374996 0.541780 0.737984 F F F Ti
0.874965 0.541803 0.737997 F F F Ti
0.374961 0.541634 0.896392 F F F Ti
0.875008 0.541646 0.896374 F F F Ti
0.374838 0.875195 0.579270 F F F Ti
0.875190 0.875096 0.579287 F F F Ti
0.374965 0.875010 0.737876 F F F Ti
0.875000 0.875003 0.737881 F F F Ti
0.374990 0.874853 0.896304 F F F Ti
0.875049 0.874845 0.896282 F F F Ti
0.125510 0.625240 0.356885 F F F Ti
0.625209 0.626945 0.356554 F F F Ti
0.125274 0.624219 0.118914 F F F Ti
0.624916 0.624468 0.118860 F F F Ti
0.630165 0.125286 0.356781 F F F Ti
0.125348 0.124258 0.118415 F F F Ti
0.625036 0.124495 0.117353 F F F Ti
0.125174 0.374773 0.039522 F F F Ti
0.624901 0.375064 0.039330 F F F Ti
0.125089 0.874457 0.039315 F F F Ti
0.625015 0.874305 0.039154 F F F Ti
0.628930 0.374928 0.277461 F F F Ti
0.125318 0.874203 0.277019 F F F Ti
0.625451 0.873453 0.277412 F F F Ti
0.375471 0.873487 0.158054 F F F Ti
0.874828 0.873142 0.157892 F F F Ti
0.375624 0.374294 0.158540 F F F Ti
0.874558 0.374766 0.157992 F F F Ti
0.387076 0.381253 0.399228 F F F Ti
0.862030 0.383437 0.400057 F F F Ti
0.374856 0.875985 0.396268 F F F Ti
0.875709 0.875160 0.396388 F F F Ti
0.374785 0.623795 0.237942 F F F Ti
0.875749 0.624254 0.237834 F F F Ti
0.374912 0.624720 -0.000061 F F F Ti
0.875123 0.624736 -0.000078 F F F Ti
0.385714 0.120727 0.235465 F F F Ti
0.863278 0.119700 0.234316 F F F Ti
0.374839 0.124777 -0.000357 F F F Ti
0.875328 0.124776 -0.000388 F F F Ti
0.113144 0.245478 0.322739 T T T Nb

0.000000 0.000000 0.000000
0.000000 0.000000 0.000000
0.000000 0.000000 0.000000
0.000000 0.000000 0.000000
0.000000 0.000000 0.000000
0.000000 0.000000 0.000000
0.000000 0.000000 0.000000
0.000000 0.000000 0.000000
0.000000 0.000000 0.000000
0.000000 0.000000 0.000000
0.000000 0.000000 0.000000
0.000000 0.000000 0.000000
0.000000 0.000000 0.000000
0.000000 0.000000 0.000000
0.000000 0.000000 0.000000
0.000000 0.000000 0.000000
0.000000 0.000000 0.000000
0.000000 0.000000 0.000000
0.000000 0.000000 0.000000
0.000000 0.000000 0.000000
0.000000 0.000000 0.000000
0.000000 0.000000 0.000000
0.000000 0.000000 0.000000
0.000000 0.000000 0.000000
0.000000 0.000000 0.000000
0.000000 0.000000 0.000000
0.000000 0.000000 0.000000
0.000000 0.000000 0.000000
0.000000 0.000000 0.000000
0.000000 0.000000 0.000000
0.000000 0.000000 0.000000
0.000000 0.000000 0.000000
0.000000 0.000000 0.000000
0.000000 0.000000 0.000000
0.000000 0.000000 0.000000
0.000000 0.000000 0.000000
0.000000 0.000000 0.000000
0.000000 0.000000 0.000000
0.000000 0.000000 0.000000
0.000000 0.000000 0.000000
0.000000 0.000000 0.000000
0.000000 0.000000 0.000000
0.000000 0.000000 0.000000
0.000000 0.000000 0.000000
0.000000 0.000000 0.000000
0.000000 0.000000 0.000000
0.000000 0.000000 0.000000
0.000000 0.000000 0.000000
0.000000 0.000000 0.000000
0.000000 0.000000 0.000000
0.000000 0.000000 0.000000
0.000000 0.000000 0.000000
0.000000 0.000000 0.000000
0.000000 0.000000 0.000000
0.000000 0.000000 0.000000
0.000000 0.000000 0.000000
0.000000 0.000000 0.000000
0.000000 0.000000 0.000000
0.000000 0.000000 0.000000
0.000000 0.000000 0.000000
0.000000 0.000000 0.000000
0.000000 0.000000 0.000000
0.000000 0.000000 0.000000
0.000000 0.000000 0.000000
0.000000 0.000000 0.000000
0.000000 0.000000 0.000000
0.000000 0.000000 0.000000
