Zr1 Ti66
1.0
6.309760 0.000000 0.000000
0.000000 9.464640 0.000000
0.000000 0.000000 18.918326
Ti Zr
66 1
Selective dynamics
direct
0.126439 0.032202 0.506166 F F F Ti
0.628455 0.041916 0.500669 F F F Ti
0.125390 0.040990 0.659840 F F F Ti
0.625073 0.041469 0.659388 F F F Ti
0.125058 0.041588 0.817602 F F F Ti
0.624958 0.041648 0.817581 F F F Ti
0.626659 0.375331 0.501141 F F F Ti
0.125185 0.374792 0.658830 F F F Ti
0.625211 0.375070 0.659054 F F F Ti
0.125077 0.374941 0.817408 F F F Ti
0.625058 0.374985 0.817456 F F F Ti
0.125206 0.709461 0.500189 F F F Ti
0.623367 0.709417 0.500380 F F F Ti
0.125223 0.707761 0.659076 F F F Ti
0.624565 0.707361 0.659299 F F F Ti
0.125020 0.708124 0.817498 F F F Ti
0.624920 0.708056 0.817554 F F F Ti
0.376343 0.207960 0.580044 F F F Ti
0.874769 0.208039 0.580495 F F F Ti
0.375244 0.208333 0.738320 F F F Ti
0.875007 0.208300 0.738387 F F F Ti
0.375027 0.208397 0.896611 F F F Ti
0.875048 0.208387 0.896620 F F F Ti
0.374741 0.541264 0.579486 F F F Ti
0.875269 0.541817 0.579643 F F F Ti
0.374934 0.541254 0.738229 F F F Ti
0.875221 0.541321 0.738255 F F F Ti
0.374982 0.541527 0.896589 F F F Ti
0.875061 0.541539 0.896586 F F F Ti
0.378299 0.873316 0.580761 F F F Ti
0.872429 0.872817 0.580913 F F F Ti
0.375396 0.874533 0.738561 F F F Ti
0.874696 0.874489 0.738565 F F F Ti
0.375052 0.875045 0.896667 F F F Ti
0.874956 0.875046 0.896663 F F F Ti
0.126282 0.628369 0.356445 F F F Ti
0.624115 0.630369 0.355953 F F F Ti
0.125312 0.626027 0.118723 F F F Ti
0.625124 0.626000 0.118670 F F F Ti
0.632176 0.127585 0.357137 F F F Ti
0.125637 0.125856 0.119112 F F F Ti
0.624977 0.125780 0.119045 F F F Ti
0.125280 0.375379 0.039590 F F F Ti
0.625065 0.375352 0.039575 F F F Ti
0.125141 0.875606 0.039692 F F F Ti
0.624983 0.875610 0.039690 F F F Ti
0.125500 0.379686 0.276983 F F F Ti
0.625953 0.377138 0.276492 F F F Ti
0.125300 0.877298 0.277761 F F F Ti
0.625587 0.877873 0.277409 F F F Ti
0.375095 0.876456 0.158661 F F F Ti
0.875405 0.876268 0.158514 F F F Ti
0.375171 0.376018 0.158414 F F F Ti
0.875474 0.376213 0.158184 F F F Ti
0.386533 0.384619 0.396122 F F F Ti
0.859974 0.390410 0.395860 F F F Ti
0.376572 0.876630 0.396890 F F F Ti
0.874026 0.874012 0.396978 F F F Ti
0.375647 0.627272 0.237413 F F F Ti
0.875124 0.627417 0.237375 F F F Ti
0.375061 0.625384 0.000007 F F F Ti
0.875072 0.625399 0.000002 F F F Ti
0.375316 0.127037 0.238492 F F F Ti
0.875615 0.126908 0.237589 F F F Ti
0.375108 0.125274 0.000158 F F F Ti
0.875162 0.125277 0.000175 F F F Ti
0.104873 0.179592 0.400012 T T T Zr

0.000000 0.000000 0.000000
0.000000 0.000000 0.000000
0.000000 0.000000 0.000000
0.000000 0.000000 0.000000
0.000000 0.000000 0.000000
0.000000 0.000000 0.000000
0.000000 0.000000 0.000000
0.000000 0.000000 0.000000
0.000000 0.000000 0.000000
0.000000 0.000000 0.000000
0.000000 0.000000 0.000000
0.000000 0.000000 0.000000
0.000000 0.000000 0.000000
0.000000 0.000000 0.000000
0.000000 0.000000 0.000000
0.000000 0.000000 0.000000
0.000000 0.000000 0.000000
0.000000 0.000000 0.000000
0.000000 0.000000 0.000000
0.000000 0.000000 0.000000
0.000000 0.000000 0.000000
0.000000 0.000000 0.000000
0.000000 0.000000 0.000000
0.000000 0.000000 0.000000
0.000000 0.000000 0.000000
0.000000 0.000000 0.000000
0.000000 0.000000 0.000000
0.000000 0.000000 0.000000
0.000000 0.000000 0.000000
0.000000 0.000000 0.000000
0.000000 0.000000 0.000000
0.000000 0.000000 0.000000
0.000000 0.000000 0.000000
0.000000 0.000000 0.000000
0.000000 0.000000 0.000000
0.000000 0.000000 0.000000
0.000000 0.000000 0.000000
0.000000 0.000000 0.000000
0.000000 0.000000 0.000000
0.000000 0.000000 0.000000
0.000000 0.000000 0.000000
0.000000 0.000000 0.000000
0.000000 0.000000 0.000000
0.000000 0.000000 0.000000
0.000000 0.000000 0.000000
0.000000 0.000000 0.000000
0.000000 0.000000 0.000000
0.000000 0.000000 0.000000
0.000000 0.000000 0.000000
0.000000 0.000000 0.000000
0.000000 0.000000 0.000000
0.000000 0.000000 0.000000
0.000000 0.000000 0.000000
0.000000 0.000000 0.000000
0.000000 0.000000 0.000000
0.000000 0.000000 0.000000
0.000000 0.000000 0.000000
0.000000 0.000000 0.000000
0.000000 0.000000 0.000000
0.000000 0.000000 0.000000
0.000000 0.000000 0.000000
0.000000 0.000000 0.000000
0.000000 0.000000 0.000000
0.000000 0.000000 0.000000
0.000000 0.000000 0.000000
0.000000 0.000000 0.000000
0.000000 0.000000 0.000000
