Optimistic_Structure                    
   1.00000000000000     
     8.8052609999999998    0.0000000000000000    0.0000000000000000
    -4.4026310000000004    7.6255800000000002    0.0000000000000000
     0.0000000000000000    0.0000000000000000   22.7783969999999982
   Ti
    90
Selective dynamics
Direct
  0.0555560000000028  0.0555560000000028  0.5881616466363598   T   T   T
  0.0990640017932393  0.5773090008966164  0.5876665554606926   T   T   T
  0.5338019991033847  0.0120479982067663  0.5876665554606926   T   T   T
  0.5338019991033847  0.5773090008966164  0.5876665554606926   T   T   T
  0.2222220000000021  0.3888889999999989  0.8739109999999997   F   F   F
  0.2222220000000021  0.8888889999999989  0.8739109999999997   F   F   F
  0.7222220000000021  0.3888889999999989  0.8739109999999997   F   F   F
  0.7222220000000021  0.8888889999999989  0.8739109999999997   F   F   F
  0.3888889999999989  0.2222220000000021  0.9145019999999988   F   F   F
  0.3888889999999989  0.7222220000000021  0.9145019999999988   F   F   F
  0.8888889999999989  0.2222220000000021  0.9145019999999988   F   F   F
  0.8888889999999989  0.7222220000000021  0.9145019999999988   F   F   F
  0.2136868004694829  0.3718186009389604  0.6323369716479229   T   T   T
  0.2136868004694829  0.8974241995305180  0.6323369716479229   T   T   T
  0.7222220000000021  0.3888889999999989  0.6010340937692862   T   T   T
  0.7392923990610408  0.8974241995305180  0.6323369716479229   T   T   T
  0.3997180874341048  0.2276365437170551  0.6456474021889278   T   T   T
  0.3888889999999989  0.7222220000000021  0.6573898066086071   T   T   T
  0.8834744562829461  0.2276365437170551  0.6456474021889278   T   T   T
  0.8834744562829461  0.7113929125658961  0.6456474021889278   T   T   T
  0.0555560000000028  0.0555560000000028  0.7037043822262006   T   T   T
  0.0498459240372770  0.5526999620186352  0.7024922162793322   T   T   T
  0.5584110379813658  0.0612660759627286  0.7024922162793322   T   T   T
  0.5584110379813658  0.5526999620186352  0.7024922162793322   T   T   T
  0.2222220000000021  0.3888889999999989  0.7521360000000001   F   F   F
  0.2222220000000021  0.8888889999999989  0.7521360000000001   F   F   F
  0.7222220000000021  0.3888889999999989  0.7521360000000001   F   F   F
  0.7222220000000021  0.8888889999999989  0.7521360000000001   F   F   F
  0.3888889999999989  0.2222220000000021  0.7927279999999968   F   F   F
  0.3888889999999989  0.7222220000000021  0.7927279999999968   F   F   F
  0.8888889999999989  0.2222220000000021  0.7927279999999968   F   F   F
  0.8888889999999989  0.7222220000000021  0.7927279999999968   F   F   F
  0.0555560000000028  0.0555560000000028  0.8333190000000030   F   F   F
  0.0555560000000028  0.5555549999999982  0.8333190000000030   F   F   F
  0.5555560000000028  0.0555560000000028  0.8333190000000030   F   F   F
  0.5555560000000028  0.5555549999999982  0.8333190000000030   F   F   F
  0.1666659999999993  0.9444439999999972  0.0000000000000000   F   F   F
  0.1654826547986341  0.9456273452013622  0.4060440614150485   T   T   T
  0.1666659999999993  0.6111110000000011  0.0000000000000000   F   F   F
  0.2777779999999979  0.8333330000000032  0.1008550000000028   F   F   F
  0.1705685921262732  0.6130622960631382  0.4005301632478321   T   T   T
  0.5000000000000000  0.9444439999999972  0.0000000000000000   F   F   F
  0.1666659999999993  0.2777779999999979  0.0000000000000000   F   F   F
  0.2761306405143673  0.8349803594856339  0.5017051072455935   T   T   T
  0.2777779999999979  0.5000000000000000  0.1008550000000028   F   F   F
  0.4980487039368631  0.9405414078737234  0.4005301632478321   T   T   T
  0.1654826547986341  0.2754113095972675  0.4060440614150485   T   T   T
  0.5000000000000000  0.6111110000000011  0.0000000000000000   F   F   F
  0.2761306405143673  0.4967052810287393  0.5017051072455935   T   T   T
  0.6111110000000011  0.8333330000000032  0.1008550000000028   F   F   F
  0.2777779999999979  0.1666669999999968  0.1008550000000028   F   F   F
  0.4980487039368631  0.6130622960631382  0.4005301632478321   T   T   T
  0.8333330000000032  0.9444439999999972  0.0000000000000000   F   F   F
  0.5000000000000000  0.2777779999999979  0.0000000000000000   F   F   F
  0.6144057189712622  0.8349803594856339  0.5017051072455935   T   T   T
  0.3142821301799933  0.1849190650899945  0.5155972052551621   T   T   T
  0.6111110000000011  0.5000000000000000  0.1008550000000028   F   F   F
  0.8356996904027333  0.9456273452013622  0.4060440614150485   T   T   T
  0.4934871118434388  0.2745215559217173  0.4010631936563229   T   T   T
  0.8333330000000032  0.6111110000000011  0.0000000000000000   F   F   F
  0.6140838951827043  0.4970271048172966  0.4950649408221648   T   T   T
  0.9444439999999972  0.8333330000000032  0.1008550000000028   F   F   F
  0.6111110000000011  0.1666669999999968  0.1008550000000028   F   F   F
  0.8365894440782837  0.6176238881565621  0.4010631936563229   T   T   T
  0.8333330000000032  0.2777779999999979  0.0000000000000000   F   F   F
  0.9261919349099995  0.7968288698200077  0.5155972052551621   T   T   T
  0.6140838951827043  0.1726127903654034  0.4950649408221648   T   T   T
  0.9444439999999972  0.5000000000000000  0.1008550000000028   F   F   F
  0.8365894440782837  0.2745215559217173  0.4010631936563228   T   T   T
  0.9384982096345904  0.4970271048172966  0.4950649408221648   T   T   T
  0.9444439999999972  0.1666669999999968  0.1008550000000028   F   F   F
  0.9261919349099995  0.1849190650899945  0.5155972052551621   T   T   T
  0.1666659999999993  0.9444439999999972  0.2017099999999985   F   F   F
  0.1666659999999993  0.6111110000000011  0.2017099999999985   F   F   F
  0.2767217391628862  0.8343892608371148  0.3021665187040317   T   T   T
  0.5000000000000000  0.9444439999999972  0.2017099999999985   F   F   F
  0.1666659999999993  0.2777779999999979  0.2017099999999985   F   F   F
  0.2767217391628862  0.4978874783257764  0.3021665187040317   T   T   T
  0.5000000000000000  0.6111110000000011  0.2017099999999985   F   F   F
  0.6132235216742244  0.8343892608371148  0.3021665187040317   T   T   T
  0.2745469078271807  0.1650514539135882  0.3041575846164374   T   T   T
  0.8333330000000032  0.9444439999999972  0.2017099999999985   F   F   F
  0.5000000000000000  0.2777779999999979  0.2017099999999985   F   F   F
  0.6108245296680312  0.5002864703319698  0.3016415565549458   T   T   T
  0.8333330000000032  0.6111110000000011  0.2017099999999985   F   F   F
  0.9460595460864056  0.8365640921728205  0.3041575846164374   T   T   T
  0.6108245296680312  0.1660940593360569  0.3016415565549458   T   T   T
  0.8333330000000032  0.2777779999999979  0.2017099999999985   F   F   F
  0.9450169406639370  0.5002864703319698  0.3016415565549458   T   T   T
  0.9460595460864056  0.1650514539135882  0.3041575846164374   T   T   T
 
  0.00000000E+00  0.00000000E+00  0.00000000E+00
  0.00000000E+00  0.00000000E+00  0.00000000E+00
  0.00000000E+00  0.00000000E+00  0.00000000E+00
  0.00000000E+00  0.00000000E+00  0.00000000E+00
  0.00000000E+00  0.00000000E+00  0.00000000E+00
  0.00000000E+00  0.00000000E+00  0.00000000E+00
  0.00000000E+00  0.00000000E+00  0.00000000E+00
  0.00000000E+00  0.00000000E+00  0.00000000E+00
  0.00000000E+00  0.00000000E+00  0.00000000E+00
  0.00000000E+00  0.00000000E+00  0.00000000E+00
  0.00000000E+00  0.00000000E+00  0.00000000E+00
  0.00000000E+00  0.00000000E+00  0.00000000E+00
  0.00000000E+00  0.00000000E+00  0.00000000E+00
  0.00000000E+00  0.00000000E+00  0.00000000E+00
  0.00000000E+00  0.00000000E+00  0.00000000E+00
  0.00000000E+00  0.00000000E+00  0.00000000E+00
  0.00000000E+00  0.00000000E+00  0.00000000E+00
  0.00000000E+00  0.00000000E+00  0.00000000E+00
  0.00000000E+00  0.00000000E+00  0.00000000E+00
  0.00000000E+00  0.00000000E+00  0.00000000E+00
  0.00000000E+00  0.00000000E+00  0.00000000E+00
  0.00000000E+00  0.00000000E+00  0.00000000E+00
  0.00000000E+00  0.00000000E+00  0.00000000E+00
  0.00000000E+00  0.00000000E+00  0.00000000E+00
  0.00000000E+00  0.00000000E+00  0.00000000E+00
  0.00000000E+00  0.00000000E+00  0.00000000E+00
  0.00000000E+00  0.00000000E+00  0.00000000E+00
  0.00000000E+00  0.00000000E+00  0.00000000E+00
  0.00000000E+00  0.00000000E+00  0.00000000E+00
  0.00000000E+00  0.00000000E+00  0.00000000E+00
  0.00000000E+00  0.00000000E+00  0.00000000E+00
  0.00000000E+00  0.00000000E+00  0.00000000E+00
  0.00000000E+00  0.00000000E+00  0.00000000E+00
  0.00000000E+00  0.00000000E+00  0.00000000E+00
  0.00000000E+00  0.00000000E+00  0.00000000E+00
  0.00000000E+00  0.00000000E+00  0.00000000E+00
  0.00000000E+00  0.00000000E+00  0.00000000E+00
  0.00000000E+00  0.00000000E+00  0.00000000E+00
  0.00000000E+00  0.00000000E+00  0.00000000E+00
  0.00000000E+00  0.00000000E+00  0.00000000E+00
  0.00000000E+00  0.00000000E+00  0.00000000E+00
  0.00000000E+00  0.00000000E+00  0.00000000E+00
  0.00000000E+00  0.00000000E+00  0.00000000E+00
  0.00000000E+00  0.00000000E+00  0.00000000E+00
  0.00000000E+00  0.00000000E+00  0.00000000E+00
  0.00000000E+00  0.00000000E+00  0.00000000E+00
  0.00000000E+00  0.00000000E+00  0.00000000E+00
  0.00000000E+00  0.00000000E+00  0.00000000E+00
  0.00000000E+00  0.00000000E+00  0.00000000E+00
  0.00000000E+00  0.00000000E+00  0.00000000E+00
  0.00000000E+00  0.00000000E+00  0.00000000E+00
  0.00000000E+00  0.00000000E+00  0.00000000E+00
  0.00000000E+00  0.00000000E+00  0.00000000E+00
  0.00000000E+00  0.00000000E+00  0.00000000E+00
  0.00000000E+00  0.00000000E+00  0.00000000E+00
  0.00000000E+00  0.00000000E+00  0.00000000E+00
  0.00000000E+00  0.00000000E+00  0.00000000E+00
  0.00000000E+00  0.00000000E+00  0.00000000E+00
  0.00000000E+00  0.00000000E+00  0.00000000E+00
  0.00000000E+00  0.00000000E+00  0.00000000E+00
  0.00000000E+00  0.00000000E+00  0.00000000E+00
  0.00000000E+00  0.00000000E+00  0.00000000E+00
  0.00000000E+00  0.00000000E+00  0.00000000E+00
  0.00000000E+00  0.00000000E+00  0.00000000E+00
  0.00000000E+00  0.00000000E+00  0.00000000E+00
  0.00000000E+00  0.00000000E+00  0.00000000E+00
  0.00000000E+00  0.00000000E+00  0.00000000E+00
  0.00000000E+00  0.00000000E+00  0.00000000E+00
  0.00000000E+00  0.00000000E+00  0.00000000E+00
  0.00000000E+00  0.00000000E+00  0.00000000E+00
  0.00000000E+00  0.00000000E+00  0.00000000E+00
  0.00000000E+00  0.00000000E+00  0.00000000E+00
  0.00000000E+00  0.00000000E+00  0.00000000E+00
  0.00000000E+00  0.00000000E+00  0.00000000E+00
  0.00000000E+00  0.00000000E+00  0.00000000E+00
  0.00000000E+00  0.00000000E+00  0.00000000E+00
  0.00000000E+00  0.00000000E+00  0.00000000E+00
  0.00000000E+00  0.00000000E+00  0.00000000E+00
  0.00000000E+00  0.00000000E+00  0.00000000E+00
  0.00000000E+00  0.00000000E+00  0.00000000E+00
  0.00000000E+00  0.00000000E+00  0.00000000E+00
  0.00000000E+00  0.00000000E+00  0.00000000E+00
  0.00000000E+00  0.00000000E+00  0.00000000E+00
  0.00000000E+00  0.00000000E+00  0.00000000E+00
  0.00000000E+00  0.00000000E+00  0.00000000E+00
  0.00000000E+00  0.00000000E+00  0.00000000E+00
  0.00000000E+00  0.00000000E+00  0.00000000E+00
  0.00000000E+00  0.00000000E+00  0.00000000E+00
  0.00000000E+00  0.00000000E+00  0.00000000E+00
  0.00000000E+00  0.00000000E+00  0.00000000E+00
