Optimistic_Structure                    
   1.00000000000000     
     6.3097599999999998    0.0000000000000000    0.0000000000000000
     0.0000000000000000    9.4646399999999993    0.0000000000000000
     0.0000000000000000    0.0000000000000000   18.9183260000000004
   Ti
    68
Selective dynamics
Direct
  0.1250000000000000  0.9702696000026080  0.4971628610871130   T   T   T
  0.6250000000000000  0.9702696000026080  0.4971628610871130   T   T   T
  0.1250000000000000  0.9376099427573571  0.6493081859914254   T   T   T
  0.6250000000000000  0.9376099427573571  0.6493081859914254   T   T   T
  0.1250000000000000  0.9583330000000032  0.8171529999999976   F   F   F
  0.6250000000000000  0.9583330000000032  0.8171529999999976   F   F   F
  0.1250000000000000  0.2797303999973922  0.4971628610871130   T   T   T
  0.6250000000000000  0.2797303999973922  0.4971628610871130   T   T   T
  0.1250000000000000  0.3123900572426429  0.6493081859914254   T   T   T
  0.6250000000000000  0.3123900572426429  0.6493081859914254   T   T   T
  0.1250000000000000  0.2916669999999968  0.8171529999999976   F   F   F
  0.6250000000000000  0.2916669999999968  0.8171529999999976   F   F   F
  0.1250000000000000  0.6250000000000000  0.4693763638829652   T   T   T
  0.6250000000000000  0.6250000000000000  0.4693763638829652   T   T   T
  0.1250000000000000  0.6250000000000000  0.6509904449007444   T   T   T
  0.6250000000000000  0.6250000000000000  0.6509904449007444   T   T   T
  0.1250000000000000  0.6250000000000000  0.8171529999999976   F   F   F
  0.6250000000000000  0.6250000000000000  0.8171529999999976   F   F   F
  0.3750000000000000  0.1250000000000000  0.5897850534713739   T   T   T
  0.8750000000000000  0.1250000000000000  0.5897850534713739   T   T   T
  0.3750000000000000  0.1250000000000000  0.7378649999999993   F   F   F
  0.8750000000000000  0.1250000000000000  0.7378649999999993   F   F   F
  0.3750000000000000  0.1250000000000000  0.8964410000000029   F   F   F
  0.8750000000000000  0.1250000000000000  0.8964410000000029   F   F   F
  0.3750000000000000  0.4753585590900356  0.5572298609927618   T   T   T
  0.8750000000000000  0.4753585590900356  0.5572298609927618   T   T   T
  0.3750000000000000  0.4583330000000032  0.7378649999999993   F   F   F
  0.8750000000000000  0.4583330000000032  0.7378649999999993   F   F   F
  0.3750000000000000  0.4583330000000032  0.8964410000000029   F   F   F
  0.8750000000000000  0.4583330000000032  0.8964410000000029   F   F   F
  0.3750000000000000  0.7746414409099640  0.5572298609927618   T   T   T
  0.8750000000000000  0.7746414409099640  0.5572298609927618   T   T   T
  0.3750000000000000  0.7916669999999968  0.7378649999999993   F   F   F
  0.8750000000000000  0.7916669999999968  0.7378649999999993   F   F   F
  0.3750000000000000  0.7916669999999968  0.8964410000000029   F   F   F
  0.8750000000000000  0.7916669999999968  0.8964410000000029   F   F   F
  0.1250000000000000  0.6250000000000000  0.3496320384299467   T   T   T
  0.6250000000000000  0.6250000000000000  0.3496320384299467   T   T   T
  0.1250000000000000  0.6250000000000000  0.1189320000000009   F   F   F
  0.6250000000000000  0.6250000000000000  0.1189320000000009   F   F   F
  0.1250000000000000  0.1250000000000000  0.3699217224648141   T   T   T
  0.6250000000000000  0.1250000000000000  0.3699217224648141   T   T   T
  0.1250000000000000  0.1250000000000000  0.1189320000000009   F   F   F
  0.6250000000000000  0.1250000000000000  0.1189320000000009   F   F   F
  0.1250000000000000  0.3750000000000000  0.0396440000000027   F   F   F
  0.6250000000000000  0.3750000000000000  0.0396440000000027   F   F   F
  0.1250000000000000  0.8750000000000000  0.0396440000000027   F   F   F
  0.6250000000000000  0.8750000000000000  0.0396440000000027   F   F   F
  0.1250000000000000  0.3696094210572120  0.2775736566526374   T   T   T
  0.6250000000000000  0.3696094210572120  0.2775736566526374   T   T   T
  0.1250000000000000  0.8803905789427877  0.2775736566526374   T   T   T
  0.6250000000000000  0.8803905789427877  0.2775736566526375   T   T   T
  0.3750000000000000  0.8750000000000000  0.1585759999999965   F   F   F
  0.8750000000000000  0.8750000000000000  0.1585759999999965   F   F   F
  0.3749990000000025  0.3750000000000000  0.1585759999999965   F   F   F
  0.8749990000000025  0.3750000000000000  0.1585759999999965   F   F   F
  0.3750000000000000  0.3985044870679201  0.3972254178271434   T   T   T
  0.8750000000000000  0.3985044870679201  0.3972254178271434   T   T   T
  0.3750000000000000  0.8514955129320799  0.3972254178271434   T   T   T
  0.8750000000000000  0.8514955129320799  0.3972254178271434   T   T   T
  0.3750000000000000  0.6250000000000000  0.2400862684776985   T   T   T
  0.8750000000000000  0.6250000000000000  0.2400862684776985   T   T   T
  0.3750000000000000  0.6250000000000000  0.0000000000000000   F   F   F
  0.8750000000000000  0.6250000000000000  0.0000000000000000   F   F   F
  0.3750000000000000  0.1250000000000000  0.2480584474262016   T   T   T
  0.8750000000000000  0.1250000000000000  0.2480584474262016   T   T   T
  0.3750000000000000  0.1250000000000000  0.0000000000000000   F   F   F
  0.8750000000000000  0.1250000000000000  0.0000000000000000   F   F   F
 
  0.00000000E+00  0.00000000E+00  0.00000000E+00
  0.00000000E+00  0.00000000E+00  0.00000000E+00
  0.00000000E+00  0.00000000E+00  0.00000000E+00
  0.00000000E+00  0.00000000E+00  0.00000000E+00
  0.00000000E+00  0.00000000E+00  0.00000000E+00
  0.00000000E+00  0.00000000E+00  0.00000000E+00
  0.00000000E+00  0.00000000E+00  0.00000000E+00
  0.00000000E+00  0.00000000E+00  0.00000000E+00
  0.00000000E+00  0.00000000E+00  0.00000000E+00
  0.00000000E+00  0.00000000E+00  0.00000000E+00
  0.00000000E+00  0.00000000E+00  0.00000000E+00
  0.00000000E+00  0.00000000E+00  0.00000000E+00
  0.00000000E+00  0.00000000E+00  0.00000000E+00
  0.00000000E+00  0.00000000E+00  0.00000000E+00
  0.00000000E+00  0.00000000E+00  0.00000000E+00
  0.00000000E+00  0.00000000E+00  0.00000000E+00
  0.00000000E+00  0.00000000E+00  0.00000000E+00
  0.00000000E+00  0.00000000E+00  0.00000000E+00
  0.00000000E+00  0.00000000E+00  0.00000000E+00
  0.00000000E+00  0.00000000E+00  0.00000000E+00
  0.00000000E+00  0.00000000E+00  0.00000000E+00
  0.00000000E+00  0.00000000E+00  0.00000000E+00
  0.00000000E+00  0.00000000E+00  0.00000000E+00
  0.00000000E+00  0.00000000E+00  0.00000000E+00
  0.00000000E+00  0.00000000E+00  0.00000000E+00
  0.00000000E+00  0.00000000E+00  0.00000000E+00
  0.00000000E+00  0.00000000E+00  0.00000000E+00
  0.00000000E+00  0.00000000E+00  0.00000000E+00
  0.00000000E+00  0.00000000E+00  0.00000000E+00
  0.00000000E+00  0.00000000E+00  0.00000000E+00
  0.00000000E+00  0.00000000E+00  0.00000000E+00
  0.00000000E+00  0.00000000E+00  0.00000000E+00
  0.00000000E+00  0.00000000E+00  0.00000000E+00
  0.00000000E+00  0.00000000E+00  0.00000000E+00
  0.00000000E+00  0.00000000E+00  0.00000000E+00
  0.00000000E+00  0.00000000E+00  0.00000000E+00
  0.00000000E+00  0.00000000E+00  0.00000000E+00
  0.00000000E+00  0.00000000E+00  0.00000000E+00
  0.00000000E+00  0.00000000E+00  0.00000000E+00
  0.00000000E+00  0.00000000E+00  0.00000000E+00
  0.00000000E+00  0.00000000E+00  0.00000000E+00
  0.00000000E+00  0.00000000E+00  0.00000000E+00
  0.00000000E+00  0.00000000E+00  0.00000000E+00
  0.00000000E+00  0.00000000E+00  0.00000000E+00
  0.00000000E+00  0.00000000E+00  0.00000000E+00
  0.00000000E+00  0.00000000E+00  0.00000000E+00
  0.00000000E+00  0.00000000E+00  0.00000000E+00
  0.00000000E+00  0.00000000E+00  0.00000000E+00
  0.00000000E+00  0.00000000E+00  0.00000000E+00
  0.00000000E+00  0.00000000E+00  0.00000000E+00
  0.00000000E+00  0.00000000E+00  0.00000000E+00
  0.00000000E+00  0.00000000E+00  0.00000000E+00
  0.00000000E+00  0.00000000E+00  0.00000000E+00
  0.00000000E+00  0.00000000E+00  0.00000000E+00
  0.00000000E+00  0.00000000E+00  0.00000000E+00
  0.00000000E+00  0.00000000E+00  0.00000000E+00
  0.00000000E+00  0.00000000E+00  0.00000000E+00
  0.00000000E+00  0.00000000E+00  0.00000000E+00
  0.00000000E+00  0.00000000E+00  0.00000000E+00
  0.00000000E+00  0.00000000E+00  0.00000000E+00
  0.00000000E+00  0.00000000E+00  0.00000000E+00
  0.00000000E+00  0.00000000E+00  0.00000000E+00
  0.00000000E+00  0.00000000E+00  0.00000000E+00
  0.00000000E+00  0.00000000E+00  0.00000000E+00
  0.00000000E+00  0.00000000E+00  0.00000000E+00
  0.00000000E+00  0.00000000E+00  0.00000000E+00
  0.00000000E+00  0.00000000E+00  0.00000000E+00
  0.00000000E+00  0.00000000E+00  0.00000000E+00
