Optimistic_Structure                    
   1.00000000000000     
     8.8052609999999998    0.0000000000000000    0.0000000000000000
    -4.4026310000000004    7.6255800000000002    0.0000000000000000
     0.0000000000000000    0.0000000000000000   22.7783969999999982
   Ti
    90
Selective dynamics
Direct
  0.0555560000000028  0.0555560000000028  0.5881616466675810   T   T   T
  0.0990640018134893  0.5773090009067416  0.5876665554490251   T   T   T
  0.5338019990932594  0.0120479981865164  0.5876665554490251   T   T   T
  0.5338019990932594  0.5773090009067416  0.5876665554490251   T   T   T
  0.2222220000000021  0.3888889999999989  0.8739109999999997   F   F   F
  0.2222220000000021  0.8888889999999989  0.8739109999999997   F   F   F
  0.7222220000000021  0.3888889999999989  0.8739109999999997   F   F   F
  0.7222220000000021  0.8888889999999989  0.8739109999999997   F   F   F
  0.3888889999999989  0.2222220000000021  0.9145019999999988   F   F   F
  0.3888889999999989  0.7222220000000021  0.9145019999999988   F   F   F
  0.8888889999999989  0.2222220000000021  0.9145019999999988   F   F   F
  0.8888889999999989  0.7222220000000021  0.9145019999999988   F   F   F
  0.2136868005012553  0.3718186010025053  0.6323369716444056   T   T   T
  0.2136868005012553  0.8974241994987456  0.6323369716444056   T   T   T
  0.7222220000000021  0.3888889999999989  0.6010340937779665   T   T   T
  0.7392923989974958  0.8974241994987456  0.6323369716444056   T   T   T
  0.3997180874139765  0.2276365437069909  0.6456474022048032   T   T   T
  0.3888889999999989  0.7222220000000021  0.6573898065991653   T   T   T
  0.8834744562930100  0.2276365437069909  0.6456474022048032   T   T   T
  0.8834744562930100  0.7113929125860247  0.6456474022048032   T   T   T
  0.0555560000000028  0.0555560000000028  0.7037043822121429   T   T   T
  0.0498459240258340  0.5526999620129138  0.7024922162652051   T   T   T
  0.5584110379870872  0.0612660759741716  0.7024922162652051   T   T   T
  0.5584110379870872  0.5526999620129138  0.7024922162652051   T   T   T
  0.2222220000000021  0.3888889999999989  0.7521360000000001   F   F   F
  0.2222220000000021  0.8888889999999989  0.7521360000000001   F   F   F
  0.7222220000000021  0.3888889999999989  0.7521360000000001   F   F   F
  0.7222220000000021  0.8888889999999989  0.7521360000000001   F   F   F
  0.3888889999999989  0.2222220000000021  0.7927279999999968   F   F   F
  0.3888889999999989  0.7222220000000021  0.7927279999999968   F   F   F
  0.8888889999999989  0.2222220000000021  0.7927279999999968   F   F   F
  0.8888889999999989  0.7222220000000021  0.7927279999999968   F   F   F
  0.0555560000000028  0.0555560000000028  0.8333190000000030   F   F   F
  0.0555560000000028  0.5555549999999982  0.8333190000000030   F   F   F
  0.5555560000000028  0.0555560000000028  0.8333190000000030   F   F   F
  0.5555560000000028  0.5555549999999982  0.8333190000000030   F   F   F
  0.1666659999999993  0.9444439999999972  0.0000000000000000   F   F   F
  0.1654826547699817  0.9456273452300151  0.4060440614479848   T   T   T
  0.1666659999999993  0.6111110000000011  0.0000000000000000   F   F   F
  0.2777779999999979  0.8333330000000032  0.1008550000000028   F   F   F
  0.1705685921283781  0.6130622960641904  0.4005301632267029   T   T   T
  0.5000000000000000  0.9444439999999972  0.0000000000000000   F   F   F
  0.1666659999999993  0.2777779999999979  0.0000000000000000   F   F   F
  0.2761306405217206  0.8349803594782805  0.5017051072299292   T   T   T
  0.2777779999999979  0.5000000000000000  0.1008550000000028   F   F   F
  0.4980487039358106  0.9405414078716184  0.4005301632267029   T   T   T
  0.1654826547699817  0.2754113095399626  0.4060440614479848   T   T   T
  0.5000000000000000  0.6111110000000011  0.0000000000000000   F   F   F
  0.2761306405217206  0.4967052810434454  0.5017051072299292   T   T   T
  0.6111110000000011  0.8333330000000032  0.1008550000000028   F   F   F
  0.2777779999999979  0.1666669999999968  0.1008550000000028   F   F   F
  0.4980487039358106  0.6130622960641904  0.4005301632267029   T   T   T
  0.8333330000000032  0.9444439999999972  0.0000000000000000   F   F   F
  0.5000000000000000  0.2777779999999979  0.0000000000000000   F   F   F
  0.6144057189565556  0.8349803594782805  0.5017051072299292   T   T   T
  0.3142821300434525  0.1849190650217241  0.5155972051927251   T   T   T
  0.6111110000000011  0.5000000000000000  0.1008550000000028   F   F   F
  0.8356996904600388  0.9456273452300151  0.4060440614479848   T   T   T
  0.4934871118175797  0.2745215559087878  0.4010631936396648   T   T   T
  0.8333330000000032  0.6111110000000011  0.0000000000000000   F   F   F
  0.6140838951831220  0.4970271048168791  0.4950649407914337   T   T   T
  0.9444439999999972  0.8333330000000032  0.1008550000000028   F   F   F
  0.6111110000000011  0.1666669999999968  0.1008550000000028   F   F   F
  0.8365894440912135  0.6176238881824212  0.4010631936396648   T   T   T
  0.8333330000000032  0.2777779999999979  0.0000000000000000   F   F   F
  0.9261919349782698  0.7968288699565481  0.5155972051927251   T   T   T
  0.6140838951831220  0.1726127903662386  0.4950649407914337   T   T   T
  0.9444439999999972  0.5000000000000000  0.1008550000000028   F   F   F
  0.8365894440912135  0.2745215559087878  0.4010631936396648   T   T   T
  0.9384982096337553  0.4970271048168791  0.4950649407914337   T   T   T
  0.9444439999999972  0.1666669999999968  0.1008550000000028   F   F   F
  0.9261919349782698  0.1849190650217241  0.5155972051927251   T   T   T
  0.1666659999999993  0.9444439999999972  0.2017099999999985   F   F   F
  0.1666659999999993  0.6111110000000011  0.2017099999999985   F   F   F
  0.2767217391496789  0.8343892608503223  0.3021665187066535   T   T   T
  0.5000000000000000  0.9444439999999972  0.2017099999999985   F   F   F
  0.1666659999999993  0.2777779999999979  0.2017099999999985   F   F   F
  0.2767217391496789  0.4978874782993621  0.3021665187066535   T   T   T
  0.5000000000000000  0.6111110000000011  0.2017099999999985   F   F   F
  0.6132235217006390  0.8343892608503223  0.3021665187066535   T   T   T
  0.2745469078394925  0.1650514539197441  0.3041575846139569   T   T   T
  0.8333330000000032  0.9444439999999972  0.2017099999999985   F   F   F
  0.5000000000000000  0.2777779999999979  0.2017099999999985   F   F   F
  0.6108245296760318  0.5002864703239692  0.3016415565412445   T   T   T
  0.8333330000000032  0.6111110000000011  0.2017099999999985   F   F   F
  0.9460595460802497  0.8365640921605084  0.3041575846139569   T   T   T
  0.6108245296760318  0.1660940593520588  0.3016415565412445   T   T   T
  0.8333330000000032  0.2777779999999979  0.2017099999999985   F   F   F
  0.9450169406479352  0.5002864703239692  0.3016415565412445   T   T   T
  0.9460595460802497  0.1650514539197441  0.3041575846139569   T   T   T
 
  0.00000000E+00  0.00000000E+00  0.00000000E+00
  0.00000000E+00  0.00000000E+00  0.00000000E+00
  0.00000000E+00  0.00000000E+00  0.00000000E+00
  0.00000000E+00  0.00000000E+00  0.00000000E+00
  0.00000000E+00  0.00000000E+00  0.00000000E+00
  0.00000000E+00  0.00000000E+00  0.00000000E+00
  0.00000000E+00  0.00000000E+00  0.00000000E+00
  0.00000000E+00  0.00000000E+00  0.00000000E+00
  0.00000000E+00  0.00000000E+00  0.00000000E+00
  0.00000000E+00  0.00000000E+00  0.00000000E+00
  0.00000000E+00  0.00000000E+00  0.00000000E+00
  0.00000000E+00  0.00000000E+00  0.00000000E+00
  0.00000000E+00  0.00000000E+00  0.00000000E+00
  0.00000000E+00  0.00000000E+00  0.00000000E+00
  0.00000000E+00  0.00000000E+00  0.00000000E+00
  0.00000000E+00  0.00000000E+00  0.00000000E+00
  0.00000000E+00  0.00000000E+00  0.00000000E+00
  0.00000000E+00  0.00000000E+00  0.00000000E+00
  0.00000000E+00  0.00000000E+00  0.00000000E+00
  0.00000000E+00  0.00000000E+00  0.00000000E+00
  0.00000000E+00  0.00000000E+00  0.00000000E+00
  0.00000000E+00  0.00000000E+00  0.00000000E+00
  0.00000000E+00  0.00000000E+00  0.00000000E+00
  0.00000000E+00  0.00000000E+00  0.00000000E+00
  0.00000000E+00  0.00000000E+00  0.00000000E+00
  0.00000000E+00  0.00000000E+00  0.00000000E+00
  0.00000000E+00  0.00000000E+00  0.00000000E+00
  0.00000000E+00  0.00000000E+00  0.00000000E+00
  0.00000000E+00  0.00000000E+00  0.00000000E+00
  0.00000000E+00  0.00000000E+00  0.00000000E+00
  0.00000000E+00  0.00000000E+00  0.00000000E+00
  0.00000000E+00  0.00000000E+00  0.00000000E+00
  0.00000000E+00  0.00000000E+00  0.00000000E+00
  0.00000000E+00  0.00000000E+00  0.00000000E+00
  0.00000000E+00  0.00000000E+00  0.00000000E+00
  0.00000000E+00  0.00000000E+00  0.00000000E+00
  0.00000000E+00  0.00000000E+00  0.00000000E+00
  0.00000000E+00  0.00000000E+00  0.00000000E+00
  0.00000000E+00  0.00000000E+00  0.00000000E+00
  0.00000000E+00  0.00000000E+00  0.00000000E+00
  0.00000000E+00  0.00000000E+00  0.00000000E+00
  0.00000000E+00  0.00000000E+00  0.00000000E+00
  0.00000000E+00  0.00000000E+00  0.00000000E+00
  0.00000000E+00  0.00000000E+00  0.00000000E+00
  0.00000000E+00  0.00000000E+00  0.00000000E+00
  0.00000000E+00  0.00000000E+00  0.00000000E+00
  0.00000000E+00  0.00000000E+00  0.00000000E+00
  0.00000000E+00  0.00000000E+00  0.00000000E+00
  0.00000000E+00  0.00000000E+00  0.00000000E+00
  0.00000000E+00  0.00000000E+00  0.00000000E+00
  0.00000000E+00  0.00000000E+00  0.00000000E+00
  0.00000000E+00  0.00000000E+00  0.00000000E+00
  0.00000000E+00  0.00000000E+00  0.00000000E+00
  0.00000000E+00  0.00000000E+00  0.00000000E+00
  0.00000000E+00  0.00000000E+00  0.00000000E+00
  0.00000000E+00  0.00000000E+00  0.00000000E+00
  0.00000000E+00  0.00000000E+00  0.00000000E+00
  0.00000000E+00  0.00000000E+00  0.00000000E+00
  0.00000000E+00  0.00000000E+00  0.00000000E+00
  0.00000000E+00  0.00000000E+00  0.00000000E+00
  0.00000000E+00  0.00000000E+00  0.00000000E+00
  0.00000000E+00  0.00000000E+00  0.00000000E+00
  0.00000000E+00  0.00000000E+00  0.00000000E+00
  0.00000000E+00  0.00000000E+00  0.00000000E+00
  0.00000000E+00  0.00000000E+00  0.00000000E+00
  0.00000000E+00  0.00000000E+00  0.00000000E+00
  0.00000000E+00  0.00000000E+00  0.00000000E+00
  0.00000000E+00  0.00000000E+00  0.00000000E+00
  0.00000000E+00  0.00000000E+00  0.00000000E+00
  0.00000000E+00  0.00000000E+00  0.00000000E+00
  0.00000000E+00  0.00000000E+00  0.00000000E+00
  0.00000000E+00  0.00000000E+00  0.00000000E+00
  0.00000000E+00  0.00000000E+00  0.00000000E+00
  0.00000000E+00  0.00000000E+00  0.00000000E+00
  0.00000000E+00  0.00000000E+00  0.00000000E+00
  0.00000000E+00  0.00000000E+00  0.00000000E+00
  0.00000000E+00  0.00000000E+00  0.00000000E+00
  0.00000000E+00  0.00000000E+00  0.00000000E+00
  0.00000000E+00  0.00000000E+00  0.00000000E+00
  0.00000000E+00  0.00000000E+00  0.00000000E+00
  0.00000000E+00  0.00000000E+00  0.00000000E+00
  0.00000000E+00  0.00000000E+00  0.00000000E+00
  0.00000000E+00  0.00000000E+00  0.00000000E+00
  0.00000000E+00  0.00000000E+00  0.00000000E+00
  0.00000000E+00  0.00000000E+00  0.00000000E+00
  0.00000000E+00  0.00000000E+00  0.00000000E+00
  0.00000000E+00  0.00000000E+00  0.00000000E+00
  0.00000000E+00  0.00000000E+00  0.00000000E+00
  0.00000000E+00  0.00000000E+00  0.00000000E+00
  0.00000000E+00  0.00000000E+00  0.00000000E+00
