Ti66 Al1
1.0
6.309760 0.000000 0.000000
0.000000 9.464640 0.000000
0.000000 0.000000 18.918326
Ti Al
66 1
Selective dynamics
direct
0.125083 0.041875 0.500003 F F F Ti
0.625131 0.041566 0.500131 F F F Ti
0.125058 0.041579 0.658676 F F F Ti
0.625033 0.041552 0.658699 F F F Ti
0.125036 0.041618 0.817192 F F F Ti
0.624977 0.041609 0.817184 F F F Ti
0.125265 0.375245 0.500599 F F F Ti
0.624925 0.375047 0.501618 F F F Ti
0.124964 0.375018 0.658801 F F F Ti
0.625012 0.375001 0.658918 F F F Ti
0.125000 0.375001 0.817234 F F F Ti
0.624950 0.375002 0.817234 F F F Ti
0.125090 0.708295 0.500050 F F F Ti
0.624783 0.708692 0.500165 F F F Ti
0.124997 0.708481 0.658686 F F F Ti
0.624958 0.708528 0.658720 F F F Ti
0.125006 0.708302 0.817214 F F F Ti
0.624951 0.708313 0.817209 F F F Ti
0.374898 0.208096 0.579564 F F F Ti
0.875206 0.208095 0.579603 F F F Ti
0.374992 0.208268 0.737964 F F F Ti
0.875018 0.208263 0.737974 F F F Ti
0.374996 0.208302 0.896370 F F F Ti
0.875004 0.208308 0.896349 F F F Ti
0.374973 0.542034 0.579664 F F F Ti
0.875072 0.542086 0.579694 F F F Ti
0.374986 0.541733 0.737990 F F F Ti
0.874996 0.541744 0.738000 F F F Ti
0.374977 0.541635 0.896437 F F F Ti
0.874994 0.541640 0.896424 F F F Ti
0.374919 0.875100 0.579346 F F F Ti
0.875120 0.875069 0.579354 F F F Ti
0.374982 0.874997 0.737927 F F F Ti
0.875008 0.874996 0.737931 F F F Ti
0.375015 0.874892 0.896390 F F F Ti
0.875014 0.874885 0.896376 F F F Ti
0.125236 0.625804 0.357212 F F F Ti
0.625608 0.625787 0.356795 F F F Ti
0.125213 0.624383 0.118949 F F F Ti
0.624979 0.624655 0.118879 F F F Ti
0.627185 0.124761 0.356914 F F F Ti
0.125227 0.124172 0.118581 F F F Ti
0.625171 0.124406 0.118020 F F F Ti
0.125180 0.374756 0.039549 F F F Ti
0.624913 0.374937 0.039341 F F F Ti
0.125056 0.874542 0.039448 F F F Ti
0.625005 0.874512 0.039353 F F F Ti
0.629181 0.374555 0.277599 F F F Ti
0.125258 0.874374 0.277343 F F F Ti
0.625134 0.873567 0.277564 F F F Ti
0.375314 0.873793 0.158272 F F F Ti
0.874897 0.873577 0.158165 F F F Ti
0.376333 0.374352 0.158365 F F F Ti
0.873523 0.374631 0.157785 F F F Ti
0.382971 0.377389 0.398695 F F F Ti
0.866357 0.378189 0.399473 F F F Ti
0.375004 0.875471 0.396440 F F F Ti
0.875364 0.875184 0.396492 F F F Ti
0.375140 0.624171 0.237996 F F F Ti
0.875272 0.624763 0.237843 F F F Ti
0.374936 0.624814 -0.000025 F F F Ti
0.875084 0.624823 -0.000040 F F F Ti
0.381902 0.121098 0.236663 F F F Ti
0.867654 0.120054 0.236087 F F F Ti
0.374942 0.124759 -0.000207 F F F Ti
0.875171 0.124756 -0.000234 F F F Ti
0.116401 0.313177 0.298106 T T T Al

0.000000 0.000000 0.000000
0.000000 0.000000 0.000000
0.000000 0.000000 0.000000
0.000000 0.000000 0.000000
0.000000 0.000000 0.000000
0.000000 0.000000 0.000000
0.000000 0.000000 0.000000
0.000000 0.000000 0.000000
0.000000 0.000000 0.000000
0.000000 0.000000 0.000000
0.000000 0.000000 0.000000
0.000000 0.000000 0.000000
0.000000 0.000000 0.000000
0.000000 0.000000 0.000000
0.000000 0.000000 0.000000
0.000000 0.000000 0.000000
0.000000 0.000000 0.000000
0.000000 0.000000 0.000000
0.000000 0.000000 0.000000
0.000000 0.000000 0.000000
0.000000 0.000000 0.000000
0.000000 0.000000 0.000000
0.000000 0.000000 0.000000
0.000000 0.000000 0.000000
0.000000 0.000000 0.000000
0.000000 0.000000 0.000000
0.000000 0.000000 0.000000
0.000000 0.000000 0.000000
0.000000 0.000000 0.000000
0.000000 0.000000 0.000000
0.000000 0.000000 0.000000
0.000000 0.000000 0.000000
0.000000 0.000000 0.000000
0.000000 0.000000 0.000000
0.000000 0.000000 0.000000
0.000000 0.000000 0.000000
0.000000 0.000000 0.000000
0.000000 0.000000 0.000000
0.000000 0.000000 0.000000
0.000000 0.000000 0.000000
0.000000 0.000000 0.000000
0.000000 0.000000 0.000000
0.000000 0.000000 0.000000
0.000000 0.000000 0.000000
0.000000 0.000000 0.000000
0.000000 0.000000 0.000000
0.000000 0.000000 0.000000
0.000000 0.000000 0.000000
0.000000 0.000000 0.000000
0.000000 0.000000 0.000000
0.000000 0.000000 0.000000
0.000000 0.000000 0.000000
0.000000 0.000000 0.000000
0.000000 0.000000 0.000000
0.000000 0.000000 0.000000
0.000000 0.000000 0.000000
0.000000 0.000000 0.000000
0.000000 0.000000 0.000000
0.000000 0.000000 0.000000
0.000000 0.000000 0.000000
0.000000 0.000000 0.000000
0.000000 0.000000 0.000000
0.000000 0.000000 0.000000
0.000000 0.000000 0.000000
0.000000 0.000000 0.000000
0.000000 0.000000 0.000000
0.000000 0.000000 0.000000
