beta_Ti
1.0
5.745590 0.000000 0.000000
0.000000 9.072750 0.000000
0.000000 0.000000 27.667173
Ti
28
direct
0.458333 0.625000 0.596699 Ti
0.458333 0.125000 0.596699 Ti
0.958333 0.625000 0.596699 Ti
0.958333 0.125000 0.596699 Ti
0.125000 0.625000 0.692655 Ti
0.125000 0.125000 0.692655 Ti
0.625000 0.625000 0.692655 Ti
0.625000 0.125000 0.692655 Ti
0.291667 0.625000 0.788611 Ti
0.291667 0.125000 0.788611 Ti
0.791667 0.625000 0.788611 Ti
0.791667 0.125000 0.788611 Ti
0.125000 0.875000 0.548721 Ti
0.125000 0.375000 0.548721 Ti
0.625000 0.875000 0.548721 Ti
0.625000 0.375000 0.548721 Ti
0.291667 0.875000 0.644677 Ti
0.291667 0.375000 0.644677 Ti
0.791667 0.875000 0.644677 Ti
0.791667 0.375000 0.644677 Ti
0.458333 0.875000 0.740633 Ti
0.458333 0.375000 0.740634 Ti
0.958333 0.875000 0.740633 Ti
0.958333 0.375000 0.740634 Ti
0.125000 0.875000 0.836589 Ti
0.125000 0.375000 0.836589 Ti
0.625000 0.875000 0.836589 Ti
0.625000 0.375000 0.836589 Ti
