Ti96 Sn1
1.0
9.513020 0.000000 0.000000
0.000000 9.350860 0.000000
0.000000 0.000000 18.547230
Ti Sn
96 1
Selective dynamics
direct
0.138815 0.377637 0.401133 T T T Ti
0.647802 0.376756 0.399247 T T T Ti
0.166773 0.896063 0.388576 T T T Ti
0.648813 0.910638 0.410167 T T T Ti
0.163056 0.379590 0.236782 T T T Ti
0.660858 0.378956 0.234273 T T T Ti
0.157632 0.876121 0.234791 T T T Ti
0.662279 0.877476 0.233355 T T T Ti
0.166654 0.374994 0.077671 F F F Ti
0.666666 0.374993 0.077669 F F F Ti
0.166678 0.875001 0.077674 F F F Ti
0.666672 0.874995 0.077679 F F F Ti
0.409859 0.369074 0.315417 T T T Ti
0.905550 0.371384 0.313252 T T T Ti
0.415995 0.870631 0.317497 T T T Ti
0.897896 0.867589 0.320485 T T T Ti
0.416649 0.375000 0.155325 F F F Ti
0.916651 0.374990 0.155338 F F F Ti
0.416687 0.875003 0.155328 F F F Ti
0.916713 0.874991 0.155330 F F F Ti
0.416663 0.375009 -0.000009 F F F Ti
0.916657 0.375007 -0.000004 F F F Ti
0.416673 0.874994 -0.000009 F F F Ti
0.916661 0.874995 -0.000004 F F F Ti
0.090141 0.130926 0.315416 T T T Ti
0.594450 0.128617 0.313251 T T T Ti
0.084005 0.629369 0.317495 T T T Ti
0.602104 0.632411 0.320484 T T T Ti
0.083352 0.125004 0.155325 F F F Ti
0.583349 0.125013 0.155338 F F F Ti
0.083313 0.625001 0.155328 F F F Ti
0.583287 0.625012 0.155330 F F F Ti
0.083338 0.124996 -0.000009 F F F Ti
0.583343 0.124997 -0.000003 F F F Ti
0.083327 0.625010 -0.000009 F F F Ti
0.583340 0.625009 -0.000004 F F F Ti
0.361184 0.122363 0.401133 T T T Ti
0.852197 0.123244 0.399247 T T T Ti
0.333226 0.603937 0.388576 T T T Ti
0.851186 0.589362 0.410167 T T T Ti
0.336943 0.120411 0.236782 T T T Ti
0.839141 0.121044 0.234273 T T T Ti
0.342367 0.623879 0.234791 T T T Ti
0.837720 0.622525 0.233355 T T T Ti
0.333345 0.125010 0.077671 F F F Ti
0.833333 0.125010 0.077670 F F F Ti
0.333321 0.625002 0.077674 F F F Ti
0.833327 0.625008 0.077679 F F F Ti
0.374983 0.375006 0.823837 F F F Ti
0.874998 0.374981 0.823792 F F F Ti
0.375014 0.874995 0.823847 F F F Ti
0.875006 0.874959 0.823784 F F F Ti
0.125018 0.124993 0.823837 F F F Ti
0.625005 0.125019 0.823792 F F F Ti
0.124988 0.625003 0.823846 F F F Ti
0.624998 0.625040 0.823784 F F F Ti
0.124978 0.374988 0.910110 F F F Ti
0.625014 0.375007 0.910086 F F F Ti
0.124987 0.874991 0.910115 F F F Ti
0.625012 0.874985 0.910081 F F F Ti
0.375025 0.125013 0.910110 F F F Ti
0.874988 0.124995 0.910086 F F F Ti
0.375016 0.625010 0.910115 F F F Ti
0.874991 0.625018 0.910080 F F F Ti
0.402601 0.379566 0.645995 T T T Ti
0.881090 0.346022 0.654643 T T T Ti
0.370272 0.869462 0.672076 T T T Ti
0.888004 0.869092 0.659485 T T T Ti
0.097399 0.120432 0.645995 T T T Ti
0.618910 0.153976 0.654643 T T T Ti
0.129727 0.630536 0.672076 T T T Ti
0.611995 0.630906 0.659485 T T T Ti
0.148663 0.379023 0.575490 T T T Ti
0.659398 0.414446 0.564089 T T T Ti
0.148147 0.870636 0.576252 T T T Ti
0.565446 0.927710 0.579557 T T T Ti
0.351337 0.120977 0.575490 T T T Ti
0.840602 0.085554 0.564089 T T T Ti
0.351853 0.629363 0.576252 T T T Ti
0.934554 0.572290 0.579557 T T T Ti
0.384625 0.371939 0.489252 T T T Ti
0.900802 0.338470 0.491750 T T T Ti
0.375684 0.860802 0.478827 T T T Ti
0.947762 0.887344 0.470760 T T T Ti
0.115375 0.128061 0.489252 T T T Ti
0.599198 0.161530 0.491750 T T T Ti
0.124316 0.639197 0.478827 T T T Ti
0.552238 0.612656 0.470760 T T T Ti
0.125095 0.874990 0.737607 F F F Ti
0.624982 0.875041 0.737558 F F F Ti
0.374900 0.624999 0.737608 F F F Ti
0.875014 0.624949 0.737558 F F F Ti
0.125069 0.374896 0.737572 F F F Ti
0.624915 0.375268 0.737568 F F F Ti
0.374926 0.125095 0.737571 F F F Ti
0.875081 0.124722 0.737571 F F F Ti
0.750000 0.750000 0.532600 T T T Sn

0.000000 0.000000 0.000000
0.000000 0.000000 0.000000
0.000000 0.000000 0.000000
0.000000 0.000000 0.000000
0.000000 0.000000 0.000000
0.000000 0.000000 0.000000
0.000000 0.000000 0.000000
0.000000 0.000000 0.000000
0.000000 0.000000 0.000000
0.000000 0.000000 0.000000
0.000000 0.000000 0.000000
0.000000 0.000000 0.000000
0.000000 0.000000 0.000000
0.000000 0.000000 0.000000
0.000000 0.000000 0.000000
0.000000 0.000000 0.000000
0.000000 0.000000 0.000000
0.000000 0.000000 0.000000
0.000000 0.000000 0.000000
0.000000 0.000000 0.000000
0.000000 0.000000 0.000000
0.000000 0.000000 0.000000
0.000000 0.000000 0.000000
0.000000 0.000000 0.000000
0.000000 0.000000 0.000000
0.000000 0.000000 0.000000
0.000000 0.000000 0.000000
0.000000 0.000000 0.000000
0.000000 0.000000 0.000000
0.000000 0.000000 0.000000
0.000000 0.000000 0.000000
0.000000 0.000000 0.000000
0.000000 0.000000 0.000000
0.000000 0.000000 0.000000
0.000000 0.000000 0.000000
0.000000 0.000000 0.000000
0.000000 0.000000 0.000000
0.000000 0.000000 0.000000
0.000000 0.000000 0.000000
0.000000 0.000000 0.000000
0.000000 0.000000 0.000000
0.000000 0.000000 0.000000
0.000000 0.000000 0.000000
0.000000 0.000000 0.000000
0.000000 0.000000 0.000000
0.000000 0.000000 0.000000
0.000000 0.000000 0.000000
0.000000 0.000000 0.000000
0.000000 0.000000 0.000000
0.000000 0.000000 0.000000
0.000000 0.000000 0.000000
0.000000 0.000000 0.000000
0.000000 0.000000 0.000000
0.000000 0.000000 0.000000
0.000000 0.000000 0.000000
0.000000 0.000000 0.000000
0.000000 0.000000 0.000000
0.000000 0.000000 0.000000
0.000000 0.000000 0.000000
0.000000 0.000000 0.000000
0.000000 0.000000 0.000000
0.000000 0.000000 0.000000
0.000000 0.000000 0.000000
0.000000 0.000000 0.000000
0.000000 0.000000 0.000000
0.000000 0.000000 0.000000
0.000000 0.000000 0.000000
0.000000 0.000000 0.000000
0.000000 0.000000 0.000000
0.000000 0.000000 0.000000
0.000000 0.000000 0.000000
0.000000 0.000000 0.000000
0.000000 0.000000 0.000000
0.000000 0.000000 0.000000
0.000000 0.000000 0.000000
0.000000 0.000000 0.000000
0.000000 0.000000 0.000000
0.000000 0.000000 0.000000
0.000000 0.000000 0.000000
0.000000 0.000000 0.000000
0.000000 0.000000 0.000000
0.000000 0.000000 0.000000
0.000000 0.000000 0.000000
0.000000 0.000000 0.000000
0.000000 0.000000 0.000000
0.000000 0.000000 0.000000
0.000000 0.000000 0.000000
0.000000 0.000000 0.000000
0.000000 0.000000 0.000000
0.000000 0.000000 0.000000
0.000000 0.000000 0.000000
0.000000 0.000000 0.000000
0.000000 0.000000 0.000000
0.000000 0.000000 0.000000
0.000000 0.000000 0.000000
0.000000 0.000000 0.000000
0.000000 0.000000 0.000000
