total_Ti
1.0
5.745590 0.000000 0.000000
0.000000 9.072750 0.000000
0.000000 0.000000 31.667173
Ti
64
direct
0.041667 0.875000 0.294724 Ti
0.041667 0.375000 0.294724 Ti
0.541667 0.875000 0.294724 Ti
0.541667 0.375000 0.294724 Ti
0.291667 0.625000 0.321517 Ti
0.291667 0.125000 0.321517 Ti
0.791667 0.625000 0.321517 Ti
0.791667 0.125000 0.321517 Ti
0.291667 0.875000 0.214344 Ti
0.291667 0.375000 0.214344 Ti
0.791667 0.875000 0.214344 Ti
0.791667 0.375000 0.214344 Ti
0.041667 0.625000 0.241138 Ti
0.041667 0.125000 0.241138 Ti
0.541667 0.625000 0.241138 Ti
0.541667 0.125000 0.241138 Ti
0.041667 0.875000 0.133965 Ti
0.041667 0.375000 0.133965 Ti
0.541667 0.875000 0.133965 Ti
0.541667 0.375000 0.133965 Ti
0.291667 0.625000 0.160758 Ti
0.291667 0.125000 0.160758 Ti
0.791667 0.625000 0.160758 Ti
0.791667 0.125000 0.160758 Ti
0.291667 0.875000 0.053586 Ti
0.291667 0.375000 0.053586 Ti
0.791667 0.875000 0.053586 Ti
0.791667 0.375000 0.053586 Ti
0.041667 0.625000 0.080379 Ti
0.041667 0.125000 0.080379 Ti
0.541667 0.625000 0.080379 Ti
0.541667 0.125000 0.080379 Ti
0.458333 0.625000 0.584485 Ti
0.458333 0.125000 0.584485 Ti
0.958333 0.625000 0.584485 Ti
0.958333 0.125000 0.584485 Ti
0.125000 0.625000 0.668320 Ti
0.125000 0.125000 0.668320 Ti
0.625000 0.625000 0.668320 Ti
0.625000 0.125000 0.668320 Ti
0.291667 0.625000 0.752156 Ti
0.291667 0.125000 0.752156 Ti
0.791667 0.625000 0.752156 Ti
0.791667 0.125000 0.752156 Ti
0.125000 0.875000 0.542566 Ti
0.125000 0.375000 0.542566 Ti
0.625000 0.875000 0.542566 Ti
0.625000 0.375000 0.542566 Ti
0.291667 0.875000 0.626402 Ti
0.291667 0.375000 0.626402 Ti
0.791667 0.875000 0.626402 Ti
0.791667 0.375000 0.626402 Ti
0.458333 0.875000 0.710238 Ti
0.458333 0.375000 0.710238 Ti
0.958333 0.875000 0.710238 Ti
0.958333 0.375000 0.710238 Ti
0.125000 0.875000 0.794073 Ti
0.125000 0.375000 0.794073 Ti
0.625000 0.875000 0.794073 Ti
0.625000 0.375000 0.794073 Ti
0.791667 0.125000 0.000000 Ti
0.291667 0.125000 0.000000 Ti
0.791667 0.625000 -0.000000 Ti
0.291667 0.625000 -0.000000 Ti
