beta_Ti
1.0
6.391540 0.000000 0.000000
0.000000 9.587310 0.000000
0.000000 0.000000 24.350000
Ti
36
direct
0.125000 0.083333 0.577002 Ti
0.625000 0.083333 0.577002 Ti
0.125000 0.083333 0.700205 Ti
0.625000 0.083333 0.700205 Ti
0.125000 0.083333 0.823409 Ti
0.625000 0.083333 0.823409 Ti
0.125000 0.416667 0.577002 Ti
0.625000 0.416667 0.577002 Ti
0.125000 0.416667 0.700205 Ti
0.625000 0.416667 0.700205 Ti
0.125000 0.416667 0.823409 Ti
0.625000 0.416667 0.823409 Ti
0.125000 0.750000 0.577002 Ti
0.625000 0.750000 0.577002 Ti
0.125000 0.750000 0.700205 Ti
0.625000 0.750000 0.700205 Ti
0.125000 0.750000 0.823409 Ti
0.625000 0.750000 0.823409 Ti
0.375000 0.250000 0.638604 Ti
0.875000 0.250000 0.638604 Ti
0.375000 0.250000 0.761807 Ti
0.875000 0.250000 0.761807 Ti
0.375000 0.250000 0.885010 Ti
0.875000 0.250000 0.885010 Ti
0.375000 0.583333 0.638604 Ti
0.875000 0.583333 0.638604 Ti
0.375000 0.583333 0.761807 Ti
0.875000 0.583333 0.761807 Ti
0.375000 0.583333 0.885010 Ti
0.875000 0.583333 0.885010 Ti
0.375000 0.916667 0.638604 Ti
0.875000 0.916667 0.638604 Ti
0.375000 0.916667 0.761807 Ti
0.875000 0.916667 0.761807 Ti
0.375000 0.916667 0.885010 Ti
0.875000 0.916667 0.885010 Ti
