Ti82 Sn1
1.0
6.391540 0.000000 0.000000
0.000000 9.587310 0.000000
0.000000 0.000000 23.271695
Ti Sn
82 1
Selective dynamics
direct
0.124578 0.083421 0.580721 F F F Ti
0.623611 0.083433 0.580886 F F F Ti
0.124965 0.083343 0.709564 F F F Ti
0.624892 0.083341 0.709578 F F F Ti
0.125003 0.083337 0.838428 F F F Ti
0.624990 0.083337 0.838431 F F F Ti
0.124927 0.417486 0.581276 F F F Ti
0.625144 0.416839 0.580717 F F F Ti
0.125000 0.416728 0.709638 F F F Ti
0.624939 0.416700 0.709585 F F F Ti
0.125003 0.416670 0.838441 F F F Ti
0.624985 0.416667 0.838437 F F F Ti
0.124962 0.750107 0.580765 F F F Ti
0.624912 0.750007 0.580762 F F F Ti
0.124994 0.750067 0.709592 F F F Ti
0.624929 0.750076 0.709595 F F F Ti
0.124998 0.750016 0.838439 F F F Ti
0.624982 0.750018 0.838440 F F F Ti
0.374913 0.250081 0.645131 F F F Ti
0.874729 0.250022 0.645214 F F F Ti
0.374998 0.249997 0.773995 F F F Ti
0.874966 0.249996 0.774011 F F F Ti
0.374996 0.249988 0.902854 F F F Ti
0.875014 0.249989 0.902857 F F F Ti
0.375249 0.583532 0.645206 F F F Ti
0.874753 0.583544 0.645247 F F F Ti
0.375017 0.583365 0.774017 F F F Ti
0.874962 0.583363 0.774024 F F F Ti
0.374992 0.583320 0.902860 F F F Ti
0.875002 0.583320 0.902861 F F F Ti
0.374824 0.916688 0.645097 F F F Ti
0.874835 0.916673 0.645164 F F F Ti
0.374971 0.916684 0.773989 F F F Ti
0.874978 0.916678 0.774002 F F F Ti
0.374985 0.916675 0.902850 F F F Ti
0.875009 0.916674 0.902852 F F F Ti
0.632323 0.166897 0.386316 F F F Ti
0.124786 0.666081 0.386706 F F F Ti
0.626366 0.665697 0.386648 F F F Ti
0.125019 0.166665 -0.000010 F F F Ti
0.625011 0.166662 -0.000016 F F F Ti
0.125016 0.666655 -0.000023 F F F Ti
0.625013 0.666650 -0.000026 F F F Ti
0.125029 0.833306 0.096624 F F F Ti
0.625084 0.833303 0.096609 F F F Ti
0.124548 0.832466 0.483554 F F F Ti
0.624771 0.832702 0.483619 F F F Ti
0.125068 0.333299 0.096665 F F F Ti
0.625056 0.333331 0.096641 F F F Ti
0.121399 0.338462 0.484941 F F F Ti
0.625749 0.333992 0.483522 F F F Ti
0.375655 0.583955 0.483600 F F F Ti
0.874250 0.584195 0.483638 F F F Ti
0.375021 0.583286 0.096626 F F F Ti
0.875099 0.583280 0.096620 F F F Ti
0.375036 0.083334 0.096645 F F F Ti
0.875120 0.083332 0.096639 F F F Ti
0.867037 0.082176 0.484849 F F F Ti
0.377610 0.418837 0.386661 F F F Ti
0.874922 0.417508 0.386761 F F F Ti
0.381301 0.911008 0.385872 F F F Ti
0.872890 0.914587 0.386752 F F F Ti
0.374996 0.416650 -0.000013 F F F Ti
0.875021 0.416648 -0.000014 F F F Ti
0.375004 0.916664 -0.000018 F F F Ti
0.875020 0.916665 -0.000018 F F F Ti
0.377288 0.082770 0.289621 F F F Ti
0.876001 0.082920 0.289967 F F F Ti
0.125232 0.166618 0.193370 F F F Ti
0.625443 0.166656 0.193250 F F F Ti
0.125657 0.333204 0.290126 F F F Ti
0.625929 0.333434 0.289880 F F F Ti
0.375111 0.416579 0.193317 F F F Ti
0.875296 0.416557 0.193316 F F F Ti
0.375267 0.583296 0.289856 F F F Ti
0.875595 0.583144 0.289877 F F F Ti
0.125097 0.666532 0.193253 F F F Ti
0.625220 0.666452 0.193198 F F F Ti
0.125128 0.832943 0.289906 F F F Ti
0.626355 0.832663 0.289624 F F F Ti
0.375147 0.916494 0.193219 F F F Ti
0.875211 0.916627 0.193267 F F F Ti
0.190183 0.142080 0.412000 T T T Sn

0.000000 0.000000 0.000000
0.000000 0.000000 0.000000
0.000000 0.000000 0.000000
0.000000 0.000000 0.000000
0.000000 0.000000 0.000000
0.000000 0.000000 0.000000
0.000000 0.000000 0.000000
0.000000 0.000000 0.000000
0.000000 0.000000 0.000000
0.000000 0.000000 0.000000
0.000000 0.000000 0.000000
0.000000 0.000000 0.000000
0.000000 0.000000 0.000000
0.000000 0.000000 0.000000
0.000000 0.000000 0.000000
0.000000 0.000000 0.000000
0.000000 0.000000 0.000000
0.000000 0.000000 0.000000
0.000000 0.000000 0.000000
0.000000 0.000000 0.000000
0.000000 0.000000 0.000000
0.000000 0.000000 0.000000
0.000000 0.000000 0.000000
0.000000 0.000000 0.000000
0.000000 0.000000 0.000000
0.000000 0.000000 0.000000
0.000000 0.000000 0.000000
0.000000 0.000000 0.000000
0.000000 0.000000 0.000000
0.000000 0.000000 0.000000
0.000000 0.000000 0.000000
0.000000 0.000000 0.000000
0.000000 0.000000 0.000000
0.000000 0.000000 0.000000
0.000000 0.000000 0.000000
0.000000 0.000000 0.000000
0.000000 0.000000 0.000000
0.000000 0.000000 0.000000
0.000000 0.000000 0.000000
0.000000 0.000000 0.000000
0.000000 0.000000 0.000000
0.000000 0.000000 0.000000
0.000000 0.000000 0.000000
0.000000 0.000000 0.000000
0.000000 0.000000 0.000000
0.000000 0.000000 0.000000
0.000000 0.000000 0.000000
0.000000 0.000000 0.000000
0.000000 0.000000 0.000000
0.000000 0.000000 0.000000
0.000000 0.000000 0.000000
0.000000 0.000000 0.000000
0.000000 0.000000 0.000000
0.000000 0.000000 0.000000
0.000000 0.000000 0.000000
0.000000 0.000000 0.000000
0.000000 0.000000 0.000000
0.000000 0.000000 0.000000
0.000000 0.000000 0.000000
0.000000 0.000000 0.000000
0.000000 0.000000 0.000000
0.000000 0.000000 0.000000
0.000000 0.000000 0.000000
0.000000 0.000000 0.000000
0.000000 0.000000 0.000000
0.000000 0.000000 0.000000
0.000000 0.000000 0.000000
0.000000 0.000000 0.000000
0.000000 0.000000 0.000000
0.000000 0.000000 0.000000
0.000000 0.000000 0.000000
0.000000 0.000000 0.000000
0.000000 0.000000 0.000000
0.000000 0.000000 0.000000
0.000000 0.000000 0.000000
0.000000 0.000000 0.000000
0.000000 0.000000 0.000000
0.000000 0.000000 0.000000
0.000000 0.000000 0.000000
0.000000 0.000000 0.000000
0.000000 0.000000 0.000000
0.000000 0.000000 0.000000
0.000000 0.000000 0.000000
