Ti66 Sn1
1.0
6.309760 0.000000 0.000000
0.000000 9.464640 0.000000
0.000000 0.000000 18.918326
Ti Sn
66 1
Selective dynamics
direct
0.124798 0.041017 0.500090 F F F Ti
0.625395 0.041415 0.500056 F F F Ti
0.125031 0.041590 0.658654 F F F Ti
0.625172 0.041572 0.658675 F F F Ti
0.125009 0.041663 0.817182 F F F Ti
0.625017 0.041663 0.817187 F F F Ti
0.629860 0.375107 0.500769 F F F Ti
0.125110 0.374997 0.658573 F F F Ti
0.625271 0.375011 0.658725 F F F Ti
0.125000 0.375001 0.817166 F F F Ti
0.625026 0.375003 0.817187 F F F Ti
0.124828 0.708873 0.500084 F F F Ti
0.625311 0.708596 0.500051 F F F Ti
0.125023 0.708394 0.658635 F F F Ti
0.625138 0.708438 0.658667 F F F Ti
0.125000 0.708337 0.817176 F F F Ti
0.625011 0.708341 0.817185 F F F Ti
0.375704 0.207908 0.579618 F F F Ti
0.875397 0.208073 0.579416 F F F Ti
0.375020 0.208322 0.737920 F F F Ti
0.875059 0.208321 0.737905 F F F Ti
0.375001 0.208335 0.896451 F F F Ti
0.875004 0.208334 0.896448 F F F Ti
0.375674 0.542079 0.579603 F F F Ti
0.875420 0.541928 0.579414 F F F Ti
0.375017 0.541681 0.737918 F F F Ti
0.875059 0.541679 0.737905 F F F Ti
0.375000 0.541666 0.896452 F F F Ti
0.875004 0.541665 0.896449 F F F Ti
0.375127 0.875058 0.579349 F F F Ti
0.874943 0.874999 0.579377 F F F Ti
0.375014 0.875003 0.737910 F F F Ti
0.875019 0.874994 0.737916 F F F Ti
0.375004 0.875001 0.896454 F F F Ti
0.874999 0.874999 0.896454 F F F Ti
0.124110 0.626014 0.356458 F F F Ti
0.624979 0.625346 0.356724 F F F Ti
0.124998 0.625012 0.118905 F F F Ti
0.624953 0.625012 0.118899 F F F Ti
0.124083 0.123986 0.356443 F F F Ti
0.625053 0.124686 0.356719 F F F Ti
0.125000 0.124996 0.118901 F F F Ti
0.624955 0.124996 0.118895 F F F Ti
0.125000 0.375002 0.039628 F F F Ti
0.624978 0.375002 0.039625 F F F Ti
0.124998 0.875004 0.039629 F F F Ti
0.624984 0.875005 0.039627 F F F Ti
0.124537 0.375006 0.277317 F F F Ti
0.624492 0.375009 0.277353 F F F Ti
0.124955 0.875047 0.277402 F F F Ti
0.624893 0.875041 0.277456 F F F Ti
0.375016 0.875008 0.158540 F F F Ti
0.874949 0.875011 0.158523 F F F Ti
0.374960 0.375003 0.158546 F F F Ti
0.874891 0.375002 0.158505 F F F Ti
0.869935 0.375000 0.395693 F F F Ti
0.375068 0.875184 0.396435 F F F Ti
0.874782 0.875081 0.396423 F F F Ti
0.374988 0.625027 0.237825 F F F Ti
0.874760 0.625075 0.237744 F F F Ti
0.374998 0.625004 -0.000004 F F F Ti
0.874989 0.625006 -0.000008 F F F Ti
0.374991 0.124990 0.237822 F F F Ti
0.874757 0.124936 0.237740 F F F Ti
0.374996 0.124995 -0.000005 F F F Ti
0.874989 0.124995 -0.000008 F F F Ti
0.251695 0.374454 0.445356 T T T Sn

0.000000 0.000000 0.000000
0.000000 0.000000 0.000000
0.000000 0.000000 0.000000
0.000000 0.000000 0.000000
0.000000 0.000000 0.000000
0.000000 0.000000 0.000000
0.000000 0.000000 0.000000
0.000000 0.000000 0.000000
0.000000 0.000000 0.000000
0.000000 0.000000 0.000000
0.000000 0.000000 0.000000
0.000000 0.000000 0.000000
0.000000 0.000000 0.000000
0.000000 0.000000 0.000000
0.000000 0.000000 0.000000
0.000000 0.000000 0.000000
0.000000 0.000000 0.000000
0.000000 0.000000 0.000000
0.000000 0.000000 0.000000
0.000000 0.000000 0.000000
0.000000 0.000000 0.000000
0.000000 0.000000 0.000000
0.000000 0.000000 0.000000
0.000000 0.000000 0.000000
0.000000 0.000000 0.000000
0.000000 0.000000 0.000000
0.000000 0.000000 0.000000
0.000000 0.000000 0.000000
0.000000 0.000000 0.000000
0.000000 0.000000 0.000000
0.000000 0.000000 0.000000
0.000000 0.000000 0.000000
0.000000 0.000000 0.000000
0.000000 0.000000 0.000000
0.000000 0.000000 0.000000
0.000000 0.000000 0.000000
0.000000 0.000000 0.000000
0.000000 0.000000 0.000000
0.000000 0.000000 0.000000
0.000000 0.000000 0.000000
0.000000 0.000000 0.000000
0.000000 0.000000 0.000000
0.000000 0.000000 0.000000
0.000000 0.000000 0.000000
0.000000 0.000000 0.000000
0.000000 0.000000 0.000000
0.000000 0.000000 0.000000
0.000000 0.000000 0.000000
0.000000 0.000000 0.000000
0.000000 0.000000 0.000000
0.000000 0.000000 0.000000
0.000000 0.000000 0.000000
0.000000 0.000000 0.000000
0.000000 0.000000 0.000000
0.000000 0.000000 0.000000
0.000000 0.000000 0.000000
0.000000 0.000000 0.000000
0.000000 0.000000 0.000000
0.000000 0.000000 0.000000
0.000000 0.000000 0.000000
0.000000 0.000000 0.000000
0.000000 0.000000 0.000000
0.000000 0.000000 0.000000
0.000000 0.000000 0.000000
0.000000 0.000000 0.000000
0.000000 0.000000 0.000000
0.000000 0.000000 0.000000
