Ti96 Sn1
1.0
9.513020 0.000000 0.000000
0.000000 9.350860 0.000000
0.000000 0.000000 18.547230
Ti Sn
96 1
Selective dynamics
direct
0.134242 0.387850 0.404055 T T T Ti
0.650709 0.360829 0.397088 T T T Ti
0.168313 0.883084 0.402436 T T T Ti
0.624752 0.944993 0.399620 T T T Ti
0.163448 0.377786 0.233085 T T T Ti
0.658839 0.382476 0.233676 T T T Ti
0.159736 0.876456 0.235549 T T T Ti
0.659590 0.876741 0.235197 T T T Ti
0.166628 0.374943 0.077616 F F F Ti
0.666704 0.374977 0.077599 F F F Ti
0.166712 0.875019 0.077572 F F F Ti
0.666667 0.875012 0.077620 F F F Ti
0.391815 0.370401 0.322255 T T T Ti
0.913013 0.358876 0.307098 T T T Ti
0.408565 0.867493 0.315241 T T T Ti
0.912189 0.878344 0.326594 T T T Ti
0.416611 0.374985 0.155234 F F F Ti
0.916726 0.374732 0.155259 F F F Ti
0.416774 0.875036 0.155235 F F F Ti
0.916745 0.874890 0.155157 F F F Ti
0.416680 0.374992 -0.000009 F F F Ti
0.916652 0.374971 -0.000000 F F F Ti
0.416705 0.875017 -0.000011 F F F Ti
0.916640 0.874999 -0.000022 F F F Ti
0.108185 0.129600 0.322254 T T T Ti
0.586986 0.141125 0.307097 T T T Ti
0.091435 0.632508 0.315240 T T T Ti
0.587811 0.621656 0.326593 T T T Ti
0.083392 0.125028 0.155233 F F F Ti
0.583272 0.125279 0.155256 F F F Ti
0.083227 0.624977 0.155236 F F F Ti
0.583251 0.625128 0.155156 F F F Ti
0.083323 0.125014 -0.000009 F F F Ti
0.583346 0.125033 -0.000000 F F F Ti
0.083300 0.624990 -0.000009 F F F Ti
0.583359 0.625010 -0.000021 F F F Ti
0.365757 0.112150 0.404055 T T T Ti
0.849289 0.139171 0.397088 T T T Ti
0.331686 0.616916 0.402436 T T T Ti
0.875246 0.555007 0.399620 T T T Ti
0.336552 0.122217 0.233085 T T T Ti
0.841160 0.117527 0.233676 T T T Ti
0.340263 0.623547 0.235549 T T T Ti
0.840408 0.623262 0.235197 T T T Ti
0.333371 0.125068 0.077615 F F F Ti
0.833296 0.125035 0.077598 F F F Ti
0.333287 0.624995 0.077573 F F F Ti
0.833333 0.624999 0.077620 F F F Ti
0.374987 0.374986 0.823919 F F F Ti
0.875034 0.374953 0.823816 F F F Ti
0.375050 0.875013 0.823888 F F F Ti
0.874955 0.874971 0.823844 F F F Ti
0.125018 0.125005 0.823918 F F F Ti
0.624973 0.125042 0.823816 F F F Ti
0.124953 0.624980 0.823889 F F F Ti
0.625049 0.625024 0.823846 F F F Ti
0.124942 0.375002 0.910155 F F F Ti
0.625048 0.375008 0.910124 F F F Ti
0.124944 0.874977 0.910137 F F F Ti
0.625027 0.874992 0.910091 F F F Ti
0.375063 0.124995 0.910155 F F F Ti
0.874956 0.124986 0.910123 F F F Ti
0.375062 0.625019 0.910138 F F F Ti
0.874978 0.625010 0.910092 F F F Ti
0.388381 0.367174 0.646181 T T T Ti
0.887186 0.364199 0.669037 T T T Ti
0.383314 0.861396 0.664771 T T T Ti
0.891235 0.864583 0.648751 T T T Ti
0.111618 0.132822 0.646180 T T T Ti
0.612812 0.135797 0.669036 T T T Ti
0.116684 0.638597 0.664770 T T T Ti
0.608763 0.635413 0.648751 T T T Ti
0.134419 0.395467 0.575964 T T T Ti
0.651285 0.377158 0.581863 T T T Ti
0.156127 0.880537 0.572772 T T T Ti
0.626243 0.909592 0.582949 T T T Ti
0.365580 0.104532 0.575964 T T T Ti
0.848714 0.122841 0.581863 T T T Ti
0.343872 0.619462 0.572772 T T T Ti
0.873756 0.590406 0.582950 T T T Ti
0.371593 0.362587 0.488878 T T T Ti
0.904410 0.342386 0.495717 T T T Ti
0.412123 0.850813 0.487382 T T T Ti
0.932206 0.929330 0.486015 T T T Ti
0.128407 0.137413 0.488878 T T T Ti
0.595590 0.157613 0.495717 T T T Ti
0.087877 0.649186 0.487382 T T T Ti
0.567794 0.570670 0.486015 T T T Ti
0.125135 0.874914 0.737750 F F F Ti
0.624871 0.875166 0.737598 F F F Ti
0.374853 0.625060 0.737752 F F F Ti
0.875124 0.624819 0.737600 F F F Ti
0.125001 0.374914 0.737673 F F F Ti
0.625071 0.374871 0.737684 F F F Ti
0.374990 0.125068 0.737671 F F F Ti
0.874921 0.125107 0.737682 F F F Ti
0.750000 0.750000 0.454946 T T T Sn

0.000000 0.000000 0.000000
0.000000 0.000000 0.000000
0.000000 0.000000 0.000000
0.000000 0.000000 0.000000
0.000000 0.000000 0.000000
0.000000 0.000000 0.000000
0.000000 0.000000 0.000000
0.000000 0.000000 0.000000
0.000000 0.000000 0.000000
0.000000 0.000000 0.000000
0.000000 0.000000 0.000000
0.000000 0.000000 0.000000
0.000000 0.000000 0.000000
0.000000 0.000000 0.000000
0.000000 0.000000 0.000000
0.000000 0.000000 0.000000
0.000000 0.000000 0.000000
0.000000 0.000000 0.000000
0.000000 0.000000 0.000000
0.000000 0.000000 0.000000
0.000000 0.000000 0.000000
0.000000 0.000000 0.000000
0.000000 0.000000 0.000000
0.000000 0.000000 0.000000
0.000000 0.000000 0.000000
0.000000 0.000000 0.000000
0.000000 0.000000 0.000000
0.000000 0.000000 0.000000
0.000000 0.000000 0.000000
0.000000 0.000000 0.000000
0.000000 0.000000 0.000000
0.000000 0.000000 0.000000
0.000000 0.000000 0.000000
0.000000 0.000000 0.000000
0.000000 0.000000 0.000000
0.000000 0.000000 0.000000
0.000000 0.000000 0.000000
0.000000 0.000000 0.000000
0.000000 0.000000 0.000000
0.000000 0.000000 0.000000
0.000000 0.000000 0.000000
0.000000 0.000000 0.000000
0.000000 0.000000 0.000000
0.000000 0.000000 0.000000
0.000000 0.000000 0.000000
0.000000 0.000000 0.000000
0.000000 0.000000 0.000000
0.000000 0.000000 0.000000
0.000000 0.000000 0.000000
0.000000 0.000000 0.000000
0.000000 0.000000 0.000000
0.000000 0.000000 0.000000
0.000000 0.000000 0.000000
0.000000 0.000000 0.000000
0.000000 0.000000 0.000000
0.000000 0.000000 0.000000
0.000000 0.000000 0.000000
0.000000 0.000000 0.000000
0.000000 0.000000 0.000000
0.000000 0.000000 0.000000
0.000000 0.000000 0.000000
0.000000 0.000000 0.000000
0.000000 0.000000 0.000000
0.000000 0.000000 0.000000
0.000000 0.000000 0.000000
0.000000 0.000000 0.000000
0.000000 0.000000 0.000000
0.000000 0.000000 0.000000
0.000000 0.000000 0.000000
0.000000 0.000000 0.000000
0.000000 0.000000 0.000000
0.000000 0.000000 0.000000
0.000000 0.000000 0.000000
0.000000 0.000000 0.000000
0.000000 0.000000 0.000000
0.000000 0.000000 0.000000
0.000000 0.000000 0.000000
0.000000 0.000000 0.000000
0.000000 0.000000 0.000000
0.000000 0.000000 0.000000
0.000000 0.000000 0.000000
0.000000 0.000000 0.000000
0.000000 0.000000 0.000000
0.000000 0.000000 0.000000
0.000000 0.000000 0.000000
0.000000 0.000000 0.000000
0.000000 0.000000 0.000000
0.000000 0.000000 0.000000
0.000000 0.000000 0.000000
0.000000 0.000000 0.000000
0.000000 0.000000 0.000000
0.000000 0.000000 0.000000
0.000000 0.000000 0.000000
0.000000 0.000000 0.000000
0.000000 0.000000 0.000000
0.000000 0.000000 0.000000
0.000000 0.000000 0.000000
