beta_Ti
1.0
8.805261 0.000000 0.000000
-4.402631 7.625580 0.000000
0.000000 0.000000 38.883422
Ti
36
direct
0.055556 0.055556 0.552589 Ti
0.055556 0.555555 0.552589 Ti
0.555556 0.055556 0.552589 Ti
0.555556 0.555555 0.552589 Ti
0.222222 0.388889 0.719042 Ti
0.222222 0.888889 0.719042 Ti
0.722222 0.388889 0.719042 Ti
0.722222 0.888889 0.719042 Ti
0.388889 0.222222 0.742821 Ti
0.388889 0.722222 0.742821 Ti
0.888889 0.222222 0.742821 Ti
0.888889 0.722222 0.742821 Ti
0.222222 0.388889 0.576368 Ti
0.222222 0.888889 0.576368 Ti
0.722222 0.388889 0.576368 Ti
0.722222 0.888889 0.576368 Ti
0.388889 0.222222 0.600147 Ti
0.388889 0.722222 0.600147 Ti
0.888889 0.222222 0.600147 Ti
0.888889 0.722222 0.600147 Ti
0.055556 0.055556 0.623926 Ti
0.055556 0.555555 0.623926 Ti
0.555556 0.055556 0.623926 Ti
0.555556 0.555555 0.623926 Ti
0.222222 0.388889 0.647705 Ti
0.222222 0.888889 0.647705 Ti
0.722222 0.388889 0.647705 Ti
0.722222 0.888889 0.647705 Ti
0.388889 0.222222 0.671484 Ti
0.388889 0.722222 0.671484 Ti
0.888889 0.222222 0.671484 Ti
0.888889 0.722222 0.671484 Ti
0.055556 0.055556 0.695263 Ti
0.055556 0.555555 0.695263 Ti
0.555556 0.055556 0.695263 Ti
0.555556 0.555555 0.695263 Ti
