alpha_Ti
1.0
9.588310 0.000000 0.000000
0.000000 9.588310 0.000000
0.000000 0.000000 18.200006
Ti
48
direct
0.125000 0.833333 -0.000000 Ti
0.125000 0.333333 -0.000000 Ti
0.625000 0.833333 -0.000000 Ti
0.625000 0.333333 -0.000000 Ti
0.375000 0.666667 -0.000000 Ti
0.375000 0.166667 -0.000000 Ti
0.875000 0.666667 -0.000000 Ti
0.875000 0.166667 -0.000000 Ti
0.875000 0.416667 0.082417 Ti
0.375000 0.416667 0.082417 Ti
0.875000 0.916667 0.082417 Ti
0.375000 0.916667 0.082417 Ti
0.625000 0.083333 0.082417 Ti
0.125000 0.083333 0.082417 Ti
0.625000 0.583333 0.082417 Ti
0.125000 0.583333 0.082417 Ti
0.125000 0.333333 0.164835 Ti
0.625000 0.333333 0.164835 Ti
0.625000 0.833333 0.164835 Ti
0.125000 0.833333 0.164835 Ti
0.875000 0.666667 0.164835 Ti
0.375000 0.166667 0.164835 Ti
0.875000 0.166667 0.164835 Ti
0.375000 0.666667 0.164835 Ti
0.875000 0.416667 0.247253 Ti
0.375000 0.416667 0.247253 Ti
0.875000 0.916667 0.247253 Ti
0.375000 0.916667 0.247253 Ti
0.125000 0.583333 0.247253 Ti
0.625000 0.083333 0.247253 Ti
0.125000 0.083333 0.247253 Ti
0.625000 0.583333 0.247253 Ti
0.625000 0.833333 0.329670 Ti
0.625000 0.333333 0.329670 Ti
0.125000 0.833333 0.329670 Ti
0.125000 0.333333 0.329670 Ti
0.375000 0.166667 0.329670 Ti
0.875000 0.166667 0.329670 Ti
0.375000 0.666667 0.329670 Ti
0.875000 0.666667 0.329670 Ti
0.875000 0.416667 0.412088 Ti
0.375000 0.416667 0.412088 Ti
0.375000 0.916667 0.412088 Ti
0.875000 0.916667 0.412088 Ti
0.625000 0.583333 0.412088 Ti
0.625000 0.083333 0.412088 Ti
0.125000 0.583333 0.412088 Ti
0.125000 0.083333 0.412088 Ti
