Zr1 Ti66
1.0
6.309760 0.000000 0.000000
0.000000 9.464640 0.000000
0.000000 0.000000 18.918326
Ti Zr
66 1
Selective dynamics
direct
0.631480 0.041653 0.500560 F F F Ti
0.626478 0.041642 0.659544 F F F Ti
0.125088 0.041729 0.817278 F F F Ti
0.625068 0.041717 0.817573 F F F Ti
0.125485 0.377164 0.500469 F F F Ti
0.625776 0.377489 0.499477 F F F Ti
0.125779 0.375846 0.659199 F F F Ti
0.625136 0.377964 0.660247 F F F Ti
0.125207 0.374904 0.817639 F F F Ti
0.625048 0.375055 0.817835 F F F Ti
0.125330 0.706025 0.500245 F F F Ti
0.625618 0.706310 0.499356 F F F Ti
0.125604 0.707615 0.659299 F F F Ti
0.624903 0.706150 0.660234 F F F Ti
0.125129 0.708546 0.817720 F F F Ti
0.625039 0.708479 0.817889 F F F Ti
0.387273 0.214347 0.581015 F F F Ti
0.860937 0.217032 0.581894 F F F Ti
0.375133 0.208378 0.738222 F F F Ti
0.875318 0.208642 0.738462 F F F Ti
0.374943 0.208226 0.896702 F F F Ti
0.875175 0.208256 0.896743 F F F Ti
0.375922 0.542129 0.579753 F F F Ti
0.874940 0.542196 0.579843 F F F Ti
0.374580 0.541837 0.738795 F F F Ti
0.876038 0.541781 0.738858 F F F Ti
0.374968 0.541648 0.896886 F F F Ti
0.875156 0.541641 0.896898 F F F Ti
0.386173 0.869372 0.580840 F F F Ti
0.862506 0.866852 0.581619 F F F Ti
0.375043 0.875116 0.738241 F F F Ti
0.875305 0.874848 0.738464 F F F Ti
0.374928 0.875175 0.896744 F F F Ti
0.875159 0.875163 0.896788 F F F Ti
0.125293 0.624817 0.356721 F F F Ti
0.625110 0.624758 0.356477 F F F Ti
0.124978 0.625043 0.119099 F F F Ti
0.624909 0.625028 0.119070 F F F Ti
0.125130 0.124761 0.357461 F F F Ti
0.625635 0.124916 0.357154 F F F Ti
0.125036 0.124954 0.119235 F F F Ti
0.624912 0.124967 0.119192 F F F Ti
0.124962 0.374861 0.039931 F F F Ti
0.624842 0.374880 0.039912 F F F Ti
0.124957 0.875133 0.039959 F F F Ti
0.624810 0.875113 0.039932 F F F Ti
0.125085 0.374790 0.277617 F F F Ti
0.625076 0.374806 0.277534 F F F Ti
0.125227 0.875057 0.277779 F F F Ti
0.625021 0.875065 0.277599 F F F Ti
0.374966 0.875068 0.158776 F F F Ti
0.875054 0.875058 0.158760 F F F Ti
0.374963 0.374894 0.158722 F F F Ti
0.875032 0.374903 0.158689 F F F Ti
0.374980 0.374965 0.396486 F F F Ti
0.875544 0.375371 0.396375 F F F Ti
0.376031 0.874619 0.396761 F F F Ti
0.874338 0.873717 0.396302 F F F Ti
0.374981 0.624982 0.237866 F F F Ti
0.875138 0.624941 0.237842 F F F Ti
0.374892 0.625121 0.000283 F F F Ti
0.874999 0.625124 0.000293 F F F Ti
0.374933 0.124924 0.238211 F F F Ti
0.875244 0.124929 0.238140 F F F Ti
0.374907 0.124952 0.000197 F F F Ti
0.875035 0.124944 0.000220 F F F Ti
0.111314 0.048289 0.526466 T T T Zr

0.000000 0.000000 0.000000
0.000000 0.000000 0.000000
0.000000 0.000000 0.000000
0.000000 0.000000 0.000000
0.000000 0.000000 0.000000
0.000000 0.000000 0.000000
0.000000 0.000000 0.000000
0.000000 0.000000 0.000000
0.000000 0.000000 0.000000
0.000000 0.000000 0.000000
0.000000 0.000000 0.000000
0.000000 0.000000 0.000000
0.000000 0.000000 0.000000
0.000000 0.000000 0.000000
0.000000 0.000000 0.000000
0.000000 0.000000 0.000000
0.000000 0.000000 0.000000
0.000000 0.000000 0.000000
0.000000 0.000000 0.000000
0.000000 0.000000 0.000000
0.000000 0.000000 0.000000
0.000000 0.000000 0.000000
0.000000 0.000000 0.000000
0.000000 0.000000 0.000000
0.000000 0.000000 0.000000
0.000000 0.000000 0.000000
0.000000 0.000000 0.000000
0.000000 0.000000 0.000000
0.000000 0.000000 0.000000
0.000000 0.000000 0.000000
0.000000 0.000000 0.000000
0.000000 0.000000 0.000000
0.000000 0.000000 0.000000
0.000000 0.000000 0.000000
0.000000 0.000000 0.000000
0.000000 0.000000 0.000000
0.000000 0.000000 0.000000
0.000000 0.000000 0.000000
0.000000 0.000000 0.000000
0.000000 0.000000 0.000000
0.000000 0.000000 0.000000
0.000000 0.000000 0.000000
0.000000 0.000000 0.000000
0.000000 0.000000 0.000000
0.000000 0.000000 0.000000
0.000000 0.000000 0.000000
0.000000 0.000000 0.000000
0.000000 0.000000 0.000000
0.000000 0.000000 0.000000
0.000000 0.000000 0.000000
0.000000 0.000000 0.000000
0.000000 0.000000 0.000000
0.000000 0.000000 0.000000
0.000000 0.000000 0.000000
0.000000 0.000000 0.000000
0.000000 0.000000 0.000000
0.000000 0.000000 0.000000
0.000000 0.000000 0.000000
0.000000 0.000000 0.000000
0.000000 0.000000 0.000000
0.000000 0.000000 0.000000
0.000000 0.000000 0.000000
0.000000 0.000000 0.000000
0.000000 0.000000 0.000000
0.000000 0.000000 0.000000
0.000000 0.000000 0.000000
0.000000 0.000000 0.000000
