Zr1 Ti82
1.0
6.391540 0.000000 0.000000
0.000000 9.587310 0.000000
0.000000 0.000000 23.271695
Ti Zr
82 1
Selective dynamics
direct
0.124647 0.083412 0.580689 F F F Ti
0.623782 0.083418 0.580850 F F F Ti
0.124973 0.083340 0.709549 F F F Ti
0.624910 0.083338 0.709563 F F F Ti
0.125003 0.083336 0.838422 F F F Ti
0.624992 0.083336 0.838424 F F F Ti
0.124938 0.417394 0.581197 F F F Ti
0.625129 0.416818 0.580696 F F F Ti
0.125002 0.416718 0.709615 F F F Ti
0.624949 0.416694 0.709568 F F F Ti
0.125003 0.416670 0.838433 F F F Ti
0.624987 0.416667 0.838429 F F F Ti
0.124970 0.750095 0.580737 F F F Ti
0.624927 0.750002 0.580733 F F F Ti
0.124997 0.750058 0.709574 F F F Ti
0.624941 0.750064 0.709576 F F F Ti
0.124999 0.750013 0.838431 F F F Ti
0.624985 0.750015 0.838432 F F F Ti
0.374929 0.250066 0.645114 F F F Ti
0.874770 0.250017 0.645187 F F F Ti
0.374999 0.249996 0.773985 F F F Ti
0.874972 0.249996 0.773999 F F F Ti
0.374996 0.249990 0.902854 F F F Ti
0.875011 0.249991 0.902856 F F F Ti
0.375218 0.583506 0.645179 F F F Ti
0.874785 0.583516 0.645215 F F F Ti
0.375016 0.583360 0.774004 F F F Ti
0.874968 0.583359 0.774010 F F F Ti
0.374994 0.583323 0.902858 F F F Ti
0.875001 0.583323 0.902859 F F F Ti
0.374850 0.916684 0.645083 F F F Ti
0.874866 0.916670 0.645142 F F F Ti
0.374976 0.916680 0.773979 F F F Ti
0.874983 0.916675 0.773991 F F F Ti
0.374988 0.916674 0.902850 F F F Ti
0.875007 0.916672 0.902852 F F F Ti
0.631367 0.166876 0.386358 F F F Ti
0.124793 0.666156 0.386706 F F F Ti
0.626158 0.665821 0.386658 F F F Ti
0.125014 0.166666 -0.000008 F F F Ti
0.625009 0.166663 -0.000013 F F F Ti
0.125012 0.666657 -0.000019 F F F Ti
0.625010 0.666653 -0.000022 F F F Ti
0.125020 0.833312 0.096634 F F F Ti
0.625067 0.833308 0.096621 F F F Ti
0.124583 0.832554 0.483536 F F F Ti
0.624798 0.832768 0.483589 F F F Ti
0.125052 0.333307 0.096669 F F F Ti
0.625044 0.333333 0.096648 F F F Ti
0.121767 0.338048 0.484800 F F F Ti
0.625661 0.333927 0.483508 F F F Ti
0.375583 0.583894 0.483573 F F F Ti
0.874322 0.584098 0.483603 F F F Ti
0.375015 0.583296 0.096636 F F F Ti
0.875079 0.583290 0.096631 F F F Ti
0.375025 0.083335 0.096652 F F F Ti
0.875095 0.083333 0.096647 F F F Ti
0.867718 0.082283 0.484712 F F F Ti
0.377230 0.418565 0.386662 F F F Ti
0.874924 0.417379 0.386757 F F F Ti
0.380522 0.911655 0.385954 F F F Ti
0.873099 0.914845 0.386740 F F F Ti
0.374996 0.416654 -0.000011 F F F Ti
0.875016 0.416652 -0.000011 F F F Ti
0.375002 0.916665 -0.000015 F F F Ti
0.875016 0.916666 -0.000015 F F F Ti
0.376895 0.082865 0.289680 F F F Ti
0.875819 0.082987 0.289979 F F F Ti
0.125176 0.166630 0.193369 F F F Ti
0.625361 0.166661 0.193268 F F F Ti
0.125528 0.333224 0.290117 F F F Ti
0.625773 0.333427 0.289902 F F F Ti
0.375083 0.416597 0.193325 F F F Ti
0.875237 0.416579 0.193325 F F F Ti
0.375210 0.583304 0.289882 F F F Ti
0.875485 0.583175 0.289904 F F F Ti
0.125071 0.666553 0.193270 F F F Ti
0.625178 0.666487 0.193224 F F F Ti
0.125075 0.832996 0.289921 F F F Ti
0.626139 0.832762 0.289680 F F F Ti
0.375113 0.916524 0.193240 F F F Ti
0.875163 0.916636 0.193282 F F F Ti
0.189210 0.141900 0.413397 T T T Zr

0.000000 0.000000 0.000000
0.000000 0.000000 0.000000
0.000000 0.000000 0.000000
0.000000 0.000000 0.000000
0.000000 0.000000 0.000000
0.000000 0.000000 0.000000
0.000000 0.000000 0.000000
0.000000 0.000000 0.000000
0.000000 0.000000 0.000000
0.000000 0.000000 0.000000
0.000000 0.000000 0.000000
0.000000 0.000000 0.000000
0.000000 0.000000 0.000000
0.000000 0.000000 0.000000
0.000000 0.000000 0.000000
0.000000 0.000000 0.000000
0.000000 0.000000 0.000000
0.000000 0.000000 0.000000
0.000000 0.000000 0.000000
0.000000 0.000000 0.000000
0.000000 0.000000 0.000000
0.000000 0.000000 0.000000
0.000000 0.000000 0.000000
0.000000 0.000000 0.000000
0.000000 0.000000 0.000000
0.000000 0.000000 0.000000
0.000000 0.000000 0.000000
0.000000 0.000000 0.000000
0.000000 0.000000 0.000000
0.000000 0.000000 0.000000
0.000000 0.000000 0.000000
0.000000 0.000000 0.000000
0.000000 0.000000 0.000000
0.000000 0.000000 0.000000
0.000000 0.000000 0.000000
0.000000 0.000000 0.000000
0.000000 0.000000 0.000000
0.000000 0.000000 0.000000
0.000000 0.000000 0.000000
0.000000 0.000000 0.000000
0.000000 0.000000 0.000000
0.000000 0.000000 0.000000
0.000000 0.000000 0.000000
0.000000 0.000000 0.000000
0.000000 0.000000 0.000000
0.000000 0.000000 0.000000
0.000000 0.000000 0.000000
0.000000 0.000000 0.000000
0.000000 0.000000 0.000000
0.000000 0.000000 0.000000
0.000000 0.000000 0.000000
0.000000 0.000000 0.000000
0.000000 0.000000 0.000000
0.000000 0.000000 0.000000
0.000000 0.000000 0.000000
0.000000 0.000000 0.000000
0.000000 0.000000 0.000000
0.000000 0.000000 0.000000
0.000000 0.000000 0.000000
0.000000 0.000000 0.000000
0.000000 0.000000 0.000000
0.000000 0.000000 0.000000
0.000000 0.000000 0.000000
0.000000 0.000000 0.000000
0.000000 0.000000 0.000000
0.000000 0.000000 0.000000
0.000000 0.000000 0.000000
0.000000 0.000000 0.000000
0.000000 0.000000 0.000000
0.000000 0.000000 0.000000
0.000000 0.000000 0.000000
0.000000 0.000000 0.000000
0.000000 0.000000 0.000000
0.000000 0.000000 0.000000
0.000000 0.000000 0.000000
0.000000 0.000000 0.000000
0.000000 0.000000 0.000000
0.000000 0.000000 0.000000
0.000000 0.000000 0.000000
0.000000 0.000000 0.000000
0.000000 0.000000 0.000000
0.000000 0.000000 0.000000
0.000000 0.000000 0.000000
