alpha_Ti
1.0
4.756512 0.000000 0.000000
0.000000 4.675432 0.000000
0.000000 0.000000 20.611800
Ti
12
direct
0.333333 0.750000 0.349538 Ti
0.333333 0.750000 0.209723 Ti
0.333333 0.750000 0.069908 Ti
0.833334 0.750000 0.279630 Ti
0.833334 0.750000 0.139815 Ti
0.833334 0.750000 -0.000000 Ti
0.166666 0.250000 0.279630 Ti
0.166666 0.250000 0.139815 Ti
0.166666 0.250000 -0.000000 Ti
0.666667 0.250000 0.349538 Ti
0.666667 0.250000 0.209723 Ti
0.666667 0.250000 0.069908 Ti
