substance_top
1.0
   3.5062000000000002    0.0000000000000000    0.0000000000000002
   0.0000000000000019   12.0001999999999995    0.0000000000000007
   0.0000000000000000    0.0000000000000000   33.8249410619999935
Cr Fe N
4 36 4
Selective dynamics
direct
   0.6320800000000000    0.3796100000000000    0.9994344399901559 F F F Cr
   0.6320800000000000    0.1296100000000000    0.9994344399901559 F F F Cr
   0.6320800000000000    0.8796100000000000    0.9994344399901559 F F F Cr
   0.6320800000000000    0.6296100000000000    0.9994344399901559 F F F Cr
   0.1418600000000000    0.7213999999999999    0.8142135367662214 F F F Fe
   0.6418599999999999    0.5572600000000000    0.8031422711189706 F F F Fe
   0.6418599999999999    0.7421100000000000    0.7692857923478502 F F F Fe
   0.1418600000000000    0.5779800000000000    0.7582145267005996 F F F Fe
   0.1418600000000000    0.3931299999999999    0.7920710054717199 F F F Fe
   0.6418600000000000    0.2289900000000000    0.7810083089155274 F F F Fe
   0.6418600000000000    0.4138399999999999    0.7471518301444071 F F F Fe
   0.1418600000000000    0.2497100000000000    0.7360805644971564 F F F Fe
   0.1418600000000000    0.0648600000000000    0.7699370432682767 F F F Fe
   0.6418600000000000    0.9007199999999999    0.7588743467120843 F F F Fe
   0.6418600000000000    0.0855700000000000    0.7250178679409640 F F F Fe
   0.1418600000000000    0.9214400000000000    0.7139466022937132 F F F Fe
   0.1418600000000000    0.7628300000000000    0.7243580479294792 F F F Fe
   0.6418600000000000    0.5986900000000001    0.7132867822822284 F F F Fe
   0.6418599999999999    0.7835399999999999    0.6794303035111082 F F F Fe
   0.1418600000000000    0.6194100000000000    0.6683676069549157 F F F Fe
   0.1418600000000000    0.4345600000000000    0.7022240857260360 F F F Fe
   0.6418600000000000    0.2704200000000000    0.6911528200787854 F F F Fe
   0.6418600000000000    0.4552700000000000    0.6572963413076650 F F F Fe
   0.1418600000000000    0.2911400000000000    0.6462336447514726 F F F Fe
   0.1418600000000000    0.1062900000000000    0.6800901235225929 F F F Fe
   0.6418599999999999    0.9421499999999999    0.6690188578753422 F F F Fe
   0.6418600000000000    0.1270000000000000    0.6351623791042218 T T T Fe
   0.1418600000000000    0.9628699999999999    0.6240996825480294 T T T Fe
   0.1418600000000000    0.8042500000000000    0.6345025590927371 T T T Fe
   0.6418600000000000    0.6401200000000000    0.6234398625365447 T T T Fe
   0.6418600000000000    0.8249700000000000    0.5895833837654243 T T T Fe
   0.1418600000000000    0.6608299999999999    0.5785121181181736 T T T Fe
   0.1418600000000000    0.4759800000000000    0.6123685968892940 T T T Fe
   0.6418599999999999    0.3118500000000000    0.6013059003331015 T T T Fe
   0.6418600000000000    0.4966999999999999    0.5674494215619811 T T T Fe
   0.1418600000000000    0.3325600000000000    0.5563781559147304 T T T Fe
   0.1418600000000000    0.1477100000000000    0.5902346346858508 T T T Fe
   0.6418599999999999    0.9835800000000000    0.5791719381296584 T T T Fe
   0.6418600000000000    0.1684300000000000    0.5453154593585380 T T T Fe
   0.1418600000000000    0.0042900000000000    0.5342441937112873 T T T Fe
   0.1320800000000000    0.0046100000000000    0.9994344399901559 F F F N
   0.1320800000000000    0.2546100000000000    0.9994344399901559 F F F N
   0.1320800000000000    0.5046100000000000    0.9994344399901559 F F F N
   0.1320800000000000    0.7546100000000000    0.9994344399901559 F F F N
