substance_top
1.0
   3.0750000000000002    0.0000000000000000    0.0000000000000002
   0.0000000000000026   16.0000000000000000    0.0000000000000010
   0.0000000000000000    0.0000000000000000   57.5109925000000004
Fe W
54 6
Selective dynamics
direct
   0.3530400000000000    0.0286600000000000    0.4137727496182578 T T T Fe
   0.3478800000000001    0.1409000000000000    0.4564087726359444 T T T Fe
   0.3467900000000000    0.0900100000000000    0.5283299623111183 F F F Fe
   0.3427100000000000    0.2531300000000000    0.4990538287093550 T T T Fe
   0.3457200000000000    0.0391300000000000    0.6002421189305679 F F F Fe
   0.3416299999999999    0.2022400000000000    0.5709750183845288 F F F Fe
   0.3375500000000000    0.3653700000000000    0.5416988847827657 F F F Fe
   0.3489500000000000    0.1917800000000000    0.3844966160164946 T T T Fe
   0.3437799999999999    0.3040200000000000    0.4271416720899053 T T T Fe
   0.3396900000000000    0.4671400000000000    0.3978745715438661 T T T Fe
   0.3386200000000000    0.4162500000000000    0.4697776951075919 T T T Fe
   0.3345300000000000    0.5793800000000000    0.4405105945615528 T T T Fe
   0.3304300000000000    0.7425000000000000    0.4112434940155137 T T T Fe
   0.3334500000000000    0.5284799999999999    0.5124317842367265 F F F Fe
   0.3293600000000000    0.6916099999999999    0.4831556506349635 T T T Fe
   0.3252700000000000    0.8547400000000001    0.4538795170332002 T T T Fe
   0.3405600000000000    0.1513600000000000    0.6428871750039786 F F F Fe
   0.3364600000000000    0.3144800000000000    0.6136110414022155 F F F Fe
   0.3323800000000000    0.4776000000000000    0.5843439408561764 F F F Fe
   0.3272200000000001    0.5898400000000000    0.6269889969295870 F F F Fe
   0.3282900000000000    0.6407200000000000    0.5550678072544132 F F F Fe
   0.3242000000000000    0.8038500000000000    0.5258007067083741 F F F Fe
   0.3200999999999999    0.9669700000000000    0.4965245731066109 T T T Fe
   0.3231200000000000    0.7529500000000000    0.5977128633278238 F F F Fe
   0.3190300000000000    0.9160800000000000    0.5684457627817847 F F F Fe
   0.3179600000000000    0.8652000000000000    0.6403579194012344 F F F Fe
   0.8304500000000001    0.1161200000000000    0.4924235658078758 T T T Fe
   0.8293800000000001    0.0652400000000000    0.5643357224273257 F F F Fe
   0.8252899999999999    0.2283500000000000    0.5350686218812865 F F F Fe
   0.8366900000000000    0.0547800000000000    0.3778663531150154 T T T Fe
   0.8315300000000000    0.1670100000000000    0.4205023761327020 T T T Fe
   0.8274300000000000    0.3301300000000000    0.3912352755866629 T T T Fe
   0.8263600000000000    0.2792400000000000    0.4631474322061125 T T T Fe
   0.8222699999999999    0.4423600000000000    0.4338803316600736 T T T Fe
   0.8181899999999999    0.6054900000000000    0.4046041980583104 T T T Fe
   0.8212000000000000    0.3914800000000000    0.5057924882795234 F F F Fe
   0.8171000000000000    0.5546000000000000    0.4765163546777601 T T T Fe
   0.8130200000000001    0.7177200000000000    0.4472492541317210 T T T Fe
   0.8089300000000000    0.8808500000000000    0.4179731205299578 T T T Fe
   0.8283100000000001    0.0143500000000000    0.6362569121024994 F F F Fe
   0.8242200000000000    0.1774700000000000    0.6069898115564603 F F F Fe
   0.8201200000000000    0.3405900000000000    0.5777046448989729 F F F Fe
   0.8149600000000001    0.4528200000000000    0.6203587340281077 F F F Fe
   0.8160300000000000    0.5037100000000000    0.5484375443529340 F F F Fe
   0.8119400000000000    0.6668300000000000    0.5191704438068949 F F F Fe
   0.8078600000000001    0.8299600000000000    0.4898852771494077 T T T Fe
   0.8030800000000000    0.0063900000000000    0.4491913611123996 T T T Fe
   0.8108699999999999    0.6159500000000000    0.5910735673706204 F F F Fe
   0.8067699999999999    0.7790700000000000    0.5618064668245814 F F F Fe
   0.8026899999999999    0.9421900000000000    0.5325393662785424 F F F Fe
   0.8057000000000000    0.7281800000000000    0.6337276564997553 F F F Fe
   0.8016100000000000    0.8913000000000000    0.6044515228979920 F F F Fe
   0.3238700000000000    0.9110900000000000    0.3822925504198176 T T T Fe
   0.8118499999999998    0.7695300000000000    0.3753009652893748 T T T Fe
   0.3310199999999999    0.7398700000000000    0.3438026999794865 T T T W
   0.8235800000000000    0.9073300000000000    0.3444259808244485 T T T W
   0.3457900000000000    0.4065500000000000    0.3438026999794865 T T T W
   0.8383500000000002    0.5740100000000000    0.3444259808244485 T T T W
   0.3605600000000000    0.0732200000000000    0.3438026999794865 T T T W
   0.8531199999999999    0.2406800000000000    0.3444259808244485 T T T W
