substance_top
1.0
   3.5062000000000002    0.0000000000000000    0.0000000000000002
   0.0000000000000019   12.0001999999999995    0.0000000000000007
   0.0000000000000000    0.0000000000000000   33.8249410619999935
Fe
36
Selective dynamics
direct
   0.1373800000000000    0.7201700000000000    0.8289780806595750 F F F Fe
   0.6373799999999998    0.5560300000000000    0.8179068150123243 F F F Fe
   0.6373799999999998    0.7408799999999999    0.7840503362412040 F F F Fe
   0.1373800000000000    0.5767400000000000    0.7729876396850115 F F F Fe
   0.1373800000000000    0.3919000000000000    0.8068441184561318 F F F Fe
   0.6373799999999999    0.2277600000000000    0.7957728528088811 F F F Fe
   0.6373799999999999    0.4126100000000000    0.7619163740377608 F F F Fe
   0.1373800000000000    0.2484800000000000    0.7508536774815684 F F F Fe
   0.1373800000000000    0.0636300000000000    0.7847101562526887 F F F Fe
   0.6373799999999999    0.8994900000000000    0.7736388906054381 F F F Fe
   0.6373799999999999    0.0843400000000000    0.7397824118343176 F F F Fe
   0.1373800000000000    0.9202099999999999    0.7287197152781252 F F F Fe
   0.1373800000000000    0.7615900000000000    0.7391225918228328 F F F Fe
   0.6373799999999999    0.5974600000000000    0.7280598952666404 F F F Fe
   0.6373799999999998    0.7823099999999999    0.6942034164955201 F F F Fe
   0.1373800000000000    0.6181700000000000    0.6831321508482694 F F F Fe
   0.1373800000000000    0.4333199999999999    0.7169886296193898 F F F Fe
   0.6373799999999999    0.2691900000000000    0.7059259330631973 F F F Fe
   0.6373799999999999    0.4540399999999999    0.6720694542920770 F F F Fe
   0.1373800000000000    0.2899000000000000    0.6609981886448262 F F F Fe
   0.1373800000000000    0.1050500000000000    0.6948546674159466 F F F Fe
   0.6373799999999998    0.9409200000000000    0.6837919708597542 F F F Fe
   0.6373799999999999    0.1257700000000000    0.6499354920886338 F F F Fe
   0.1373800000000000    0.9616299999999999    0.6388642264413831 T T T Fe
   0.1373800000000000    0.8030199999999998    0.6492756720771491 F F F Fe
   0.6373799999999999    0.6388900000000000    0.6382044064298984 T T T Fe
   0.6373799999999999    0.8237400000000000    0.6043479276587780 T T T Fe
   0.1373800000000000    0.6595999999999999    0.5932852311025855 T T T Fe
   0.1373800000000000    0.4747499999999999    0.6271417098737060 T T T Fe
   0.6373799999999998    0.3106200000000000    0.6160704442264552 T T T Fe
   0.6373799999999999    0.4954700000000000    0.5822139654553348 T T T Fe
   0.1373800000000000    0.3313300000000000    0.5711512688991424 T T T Fe
   0.1373800000000000    0.1464800000000000    0.6050077476702628 T T T Fe
   0.6373799999999998    0.9823499999999998    0.5939364820230120 T T T Fe
   0.6373799999999999    0.1672000000000000    0.5600800032518917 T T T Fe
   0.1373800000000000    0.0030600000000000    0.5490173066956993 T T T Fe
