substance_bottem
1.0
   3.5062000000000002    0.0000000000000000    0.0000000000000002
   0.0000000000000019   12.0001999999999995    0.0000000000000007
   0.0000000000000000    0.0000000000000000   33.8249410619999935
Cr Mo N
20 4 24
Selective dynamics
direct
   0.6482100000000000    0.3787300000000000    0.2812118612583794 T T T Cr
   0.6482100000000000    0.1287300000000000    0.2812118612583794 T T T Cr
   0.1482100000000000    0.0037300000000000    0.2144415037325454 T T T Cr
   0.6482100000000000    0.3787300000000000    0.1476625771156533 F F F Cr
   0.6482100000000000    0.1287300000000000    0.1476625771156533 F F F Cr
   0.1482100000000000    0.2537300000000000    0.2144415037325454 T T T Cr
   0.6482100000000000    0.8787300000000000    0.2812118612583794 T T T Cr
   0.6482100000000000    0.6287300000000000    0.2812118612583794 T T T Cr
   0.1482100000000000    0.5037300000000000    0.2144415037325454 T T T Cr
   0.6482100000000000    0.8787300000000000    0.1476625771156533 F F F Cr
   0.6482100000000000    0.6287300000000000    0.1476625771156533 F F F Cr
   0.1482100000000000    0.7537299999999999    0.2144415037325454 T T T Cr
   0.1317400000000000    0.0053800000000000    0.0809864795914600 F F F Cr
   0.6317400000000001    0.3803800000000000    0.0142075529745678 F F F Cr
   0.6317400000000000    0.1303800000000000    0.0142075529745678 F F F Cr
   0.1317400000000000    0.2553800000000000    0.0809864795914600 F F F Cr
   0.1317400000000000    0.5053800000000001    0.0809864795914600 F F F Cr
   0.6317400000000001    0.8803800000000001    0.0142075529745678 F F F Cr
   0.6317400000000001    0.6303800000000001    0.0142075529745678 F F F Cr
   0.1317400000000000    0.7553800000000001    0.0809864795914600 F F F Cr
   0.1482100000000000    0.0037300000000000    0.3479907878752715 T T T Mo
   0.1482100000000000    0.2537300000000000    0.3479907878752715 T T T Mo
   0.1482100000000000    0.5037300000000000    0.3479907878752715 T T T Mo
   0.1482100000000000    0.7537299999999999    0.3479907878752715 T T T Mo
   0.6482100000000000    0.3787300000000000    0.3479907878752715 T T T N
   0.1482100000000000    0.0037300000000000    0.2812118612583794 T T T N
   0.1482100000000000    0.2537300000000000    0.2812118612583794 T T T N
   0.6482100000000000    0.1287300000000000    0.3479907878752715 T T T N
   0.6482100000000000    0.3787300000000000    0.2144415037325454 T T T N
   0.1482100000000000    0.0037300000000000    0.1476625771156533 F F F N
   0.1482100000000000    0.2537300000000000    0.1476625771156533 F F F N
   0.6482100000000000    0.1287300000000000    0.2144415037325454 T T T N
   0.6482100000000000    0.8787300000000000    0.3479907878752715 T T T N
   0.1482100000000000    0.5037300000000000    0.2812118612583794 T T T N
   0.1482100000000000    0.7537299999999999    0.2812118612583794 T T T N
   0.6482100000000000    0.6287300000000000    0.3479907878752715 T T T N
   0.6482100000000000    0.8787300000000000    0.2144415037325454 T T T N
   0.1482100000000000    0.5037300000000000    0.1476625771156533 F F F N
   0.1482100000000000    0.7537299999999999    0.1476625771156533 F F F N
   0.6482100000000000    0.6287300000000000    0.2144415037325454 T T T N
   0.6317400000000001    0.3803800000000000    0.0809864795914600 F F F N
   0.1317400000000000    0.0053800000000000    0.0142075529745678 F F F N
   0.1317400000000000    0.2553800000000000    0.0142075529745678 F F F N
   0.6317400000000000    0.1303800000000000    0.0809864795914600 F F F N
   0.6317400000000001    0.8803800000000001    0.0809864795914600 F F F N
   0.1317400000000000    0.5053800000000001    0.0142075529745678 F F F N
   0.1317400000000000    0.7553800000000001    0.0142075529745678 F F F N
   0.6317400000000001    0.6303800000000001    0.0809864795914600 F F F N
