total_structure
1.0
   3.0750000000000002    0.0000000000000000    0.0000000000000002
   0.0000000000000026   16.0000000000000000    0.0000000000000010
   0.0000000000000000    0.0000000000000000   57.5109925000000004
Cr Fe W N
30 54 6 36
Selective dynamics
direct
   0.3179800000000000    0.8541700000000000    0.1600025160407378 T T T Cr
   0.3171399999999999    0.9636600000000000    0.2040296296399336 T T T Cr
   0.8244299999999999    0.7978400000000000    0.2037044396338665 T T T Cr
   0.3327500000000000    0.5208500000000000    0.1600025160407378 T T T Cr
   0.3319100000000000    0.6303400000000000    0.2040296296399336 T T T Cr
   0.8252700000000001    0.6883500000000000    0.1596863590903947 T T T Cr
   0.8391900000000000    0.4645200000000000    0.2037044396338665 T T T Cr
   0.3475200000000000    0.1875300000000000    0.1600025160407378 T T T Cr
   0.3466800000000000    0.2970200000000000    0.2040296296399336 T T T Cr
   0.8400400000000000    0.3550300000000000    0.1596773260346707 T T T Cr
   0.8539600000000002    0.1311900000000000    0.2037044396338665 T T T Cr
   0.3190500000000000    0.8541800000000001    0.0288606130384552 F F F Cr
   0.3182000000000000    0.9636700000000000    0.0728877266376511 F F F Cr
   0.8254899999999999    0.7978400000000000    0.0725625366315840 F F F Cr
   0.3320899999999999    0.7398700000000000    0.1159663693858179 F F F Cr
   0.8246500000000000    0.9073300000000000    0.1165896502307798 F F F Cr
   0.3338200000000000    0.5208600000000000    0.0288606130384552 F F F Cr
   0.3329700000000000    0.6303500000000000    0.0728877266376511 F F F Cr
   0.8263400000000001    0.6883500000000000    0.0285444560881122 F F F Cr
   0.8402600000000000    0.4645200000000000    0.0725625366315840 F F F Cr
   0.3468600000000001    0.4065500000000000    0.1159663693858178 F F F Cr
   0.8394100000000000    0.5740100000000000    0.1165896502307798 F F F Cr
   0.3485900000000000    0.1875400000000000    0.0288606130384552 F F F Cr
   0.3477400000000000    0.2970300000000000    0.0728877266376511 F F F Cr
   0.8411000000000000    0.3550300000000000    0.0285354230323881 F F F Cr
   0.8550300000000000    0.1312000000000000    0.0725625366315840 F F F Cr
   0.3616200000000000    0.0732300000000000    0.1159663693858179 F F F Cr
   0.8541800000000001    0.2406900000000000    0.1165896502307798 F F F Cr
   0.8400400000000000    0.0233600000000000    0.1596773260346707 T T T Cr
   0.8411000000000000    0.0233700000000000    0.0285354230323881 F F F Cr
   0.3530400000000000    0.0286600000000000    0.4137727496182578 T T T Fe
   0.3478800000000001    0.1409000000000000    0.4564087726359444 T T T Fe
   0.3467900000000000    0.0900100000000000    0.5283299623111183 F F F Fe
   0.3427100000000000    0.2531300000000000    0.4990538287093550 T T T Fe
   0.3457200000000000    0.0391300000000000    0.6002421189305679 F F F Fe
   0.3416299999999999    0.2022400000000000    0.5709750183845288 F F F Fe
   0.3375500000000000    0.3653700000000000    0.5416988847827657 F F F Fe
   0.3489500000000000    0.1917800000000000    0.3844966160164946 T T T Fe
   0.3437799999999999    0.3040200000000000    0.4271416720899053 T T T Fe
   0.3396900000000000    0.4671400000000000    0.3978745715438661 T T T Fe
   0.3386200000000000    0.4162500000000000    0.4697776951075919 T T T Fe
   0.3345300000000000    0.5793800000000000    0.4405105945615528 T T T Fe
   0.3304300000000000    0.7425000000000000    0.4112434940155137 T T T Fe
   0.3334500000000000    0.5284799999999999    0.5124317842367265 F F F Fe
   0.3293600000000000    0.6916099999999999    0.4831556506349635 T T T Fe
   0.3252700000000000    0.8547400000000001    0.4538795170332002 T T T Fe
   0.3405600000000000    0.1513600000000000    0.6428871750039786 F F F Fe
   0.3364600000000000    0.3144800000000000    0.6136110414022155 F F F Fe
   0.3323800000000000    0.4776000000000000    0.5843439408561764 F F F Fe
   0.3272200000000001    0.5898400000000000    0.6269889969295870 F F F Fe
   0.3282900000000000    0.6407200000000000    0.5550678072544132 F F F Fe
   0.3242000000000000    0.8038500000000000    0.5258007067083741 F F F Fe
   0.3200999999999999    0.9669700000000000    0.4965245731066109 T T T Fe
   0.3231200000000000    0.7529500000000000    0.5977128633278238 F F F Fe
   0.3190300000000000    0.9160800000000000    0.5684457627817847 F F F Fe
   0.3179600000000000    0.8652000000000000    0.6403579194012344 F F F Fe
   0.8304500000000001    0.1161200000000000    0.4924235658078758 T T T Fe
   0.8293800000000001    0.0652400000000000    0.5643357224273257 F F F Fe
   0.8252899999999999    0.2283500000000000    0.5350686218812865 F F F Fe
   0.8366900000000000    0.0547800000000000    0.3778663531150154 T T T Fe
   0.8315300000000000    0.1670100000000000    0.4205023761327020 T T T Fe
   0.8274300000000000    0.3301300000000000    0.3912352755866629 T T T Fe
   0.8263600000000000    0.2792400000000000    0.4631474322061125 T T T Fe
   0.8222699999999999    0.4423600000000000    0.4338803316600736 T T T Fe
   0.8181899999999999    0.6054900000000000    0.4046041980583104 T T T Fe
   0.8212000000000000    0.3914800000000000    0.5057924882795234 F F F Fe
   0.8171000000000000    0.5546000000000000    0.4765163546777601 T T T Fe
   0.8130200000000001    0.7177200000000000    0.4472492541317210 T T T Fe
   0.8089300000000000    0.8808500000000000    0.4179731205299578 T T T Fe
   0.8283100000000001    0.0143500000000000    0.6362569121024994 F F F Fe
   0.8242200000000000    0.1774700000000000    0.6069898115564603 F F F Fe
   0.8201200000000000    0.3405900000000000    0.5777046448989729 F F F Fe
   0.8149600000000001    0.4528200000000000    0.6203587340281077 F F F Fe
   0.8160300000000000    0.5037100000000000    0.5484375443529340 F F F Fe
   0.8119400000000000    0.6668300000000000    0.5191704438068949 F F F Fe
   0.8078600000000001    0.8299600000000000    0.4898852771494077 T T T Fe
   0.8030800000000000    0.0063900000000000    0.4491913611123996 T T T Fe
   0.8108699999999999    0.6159500000000000    0.5910735673706204 F F F Fe
   0.8067699999999999    0.7790700000000000    0.5618064668245814 F F F Fe
   0.8026899999999999    0.9421900000000000    0.5325393662785424 F F F Fe
   0.8057000000000000    0.7281800000000000    0.6337276564997553 F F F Fe
   0.8016100000000000    0.8913000000000000    0.6044515228979920 F F F Fe
   0.3238700000000000    0.9110900000000000    0.3822925504198176 T T T Fe
   0.8118499999999998    0.7695300000000000    0.3753009652893748 T T T Fe
   0.3310199999999999    0.7398700000000000    0.3438026999794865 T T T W
   0.8235800000000000    0.9073300000000000    0.3444259808244485 T T T W
   0.3457900000000000    0.4065500000000000    0.3438026999794865 T T T W
   0.8383500000000002    0.5740100000000000    0.3444259808244485 T T T W
   0.3605600000000000    0.0732200000000000    0.3438026999794865 T T T W
   0.8531199999999999    0.2406800000000000    0.3444259808244485 T T T W
   0.8174800000000000    0.9097300000000000    0.1821696347876452 T T T N
   0.3249200000000000    0.7422700000000000    0.1815373208869591 T T T N
   0.3240800000000000    0.8517600000000000    0.2255644344861550 T T T N
   0.8315899999999999    0.7954300000000000    0.1381334881327252 T T T N
   0.3243000000000000    0.9612600000000000    0.1384496450830682 T T T N
   0.8322500000000002    0.5764100000000000    0.1821696347876452 T T T N
   0.8313700000000001    0.6859400000000000    0.2252482775358119 T T T N
   0.3396900000000000    0.4089500000000000    0.1815373208869591 T T T N
   0.3388500000000000    0.5184400000000000    0.2255644344861550 T T T N
   0.8463600000000001    0.4621100000000000    0.1381334881327253 T T T N
   0.3390700000000000    0.6279400000000001    0.1384496450830683 T T T N
   0.8470199999999999    0.2430900000000000    0.1821696347876452 T T T N
   0.8461400000000000    0.3526200000000000    0.2252482775358120 T T T N
   0.3544600000000000    0.0756300000000000    0.1815373208869591 T T T N
   0.3536200000000000    0.1851200000000000    0.2255644344861550 T T T N
   0.8611300000000000    0.1287900000000000    0.1381334881327252 T T T N
   0.3538400000000000    0.2946200000000000    0.1384496450830683 T T T N
   0.8185500000000000    0.9097400000000000    0.0510277317853626 F F F N
   0.3259899999999999    0.7422800000000001    0.0503954178846766 F F F N
   0.3251400000000000    0.8517700000000000    0.0944225314838724 F F F N
   0.8326499999999999    0.7954400000000000    0.0069915851304427 F F F N
   0.3253600000000000    0.9612700000000000    0.0073077420807857 F F F N
   0.8333199999999999    0.5764200000000000    0.0510277317853626 F F F N
   0.8324300000000000    0.6859400000000000    0.0941063745335294 F F F N
   0.3407600000000001    0.4089600000000000    0.0503954178846766 F F F N
   0.3399100000000000    0.5184500000000000    0.0944225314838724 F F F N
   0.8474200000000001    0.4621200000000000    0.0069915851304427 F F F N
   0.3401300000000000    0.6279400000000001    0.0073077420807857 F F F N
   0.8480899999999999    0.2431000000000000    0.0510277317853626 F F F N
   0.8472000000000000    0.3526200000000000    0.0941063745335294 F F F N
   0.3555300000000000    0.0756400000000000    0.0503954178846766 F F F N
   0.3546799999999999    0.1851300000000000    0.0944225314838724 F F F N
   0.8621900000000001    0.1288000000000000    0.0069915851304427 F F F N
   0.3549000000000000    0.2946200000000000    0.0073077420807857 F F F N
   0.8461400000000000    0.0209600000000000    0.2252482775358120 T T T N
   0.8472000000000000    0.0209600000000000    0.0941063745335294 F F F N
