substance_top
1.0
   3.5062000000000002    0.0000000000000000    0.0000000000000002
   0.0000000000000019   12.0001999999999995    0.0000000000000007
   0.0000000000000000    0.0000000000000000   33.8249410619999935
Fe
36
Selective dynamics
direct
   0.1415300000000000    0.7221700000000000    0.8289866497506332 F F F Fe
   0.6415299999999999    0.5580400000000000    0.8179239531944408 F F F Fe
   0.6415299999999999    0.7428899999999999    0.7840589053322622 F F F Fe
   0.1415300000000000    0.5787500000000000    0.7729962087760698 F F F Fe
   0.1415300000000000    0.3939000000000000    0.8068526875471900 F F F Fe
   0.6415300000000000    0.2297700000000000    0.7957899909909976 F F F Fe
   0.6415300000000000    0.4146200000000000    0.7619249431288190 F F F Fe
   0.1415300000000000    0.2504800000000000    0.7508622465726266 F F F Fe
   0.1415300000000000    0.0656300000000000    0.7847187253437470 F F F Fe
   0.6415300000000000    0.9015000000000000    0.7736560287875545 F F F Fe
   0.6415300000000000    0.0863500000000000    0.7397909809253759 F F F Fe
   0.1415300000000000    0.9222099999999999    0.7287282843691834 F F F Fe
   0.1415300000000000    0.7635999999999999    0.7391397300049494 F F F Fe
   0.6415300000000000    0.5994699999999999    0.7280684643576987 F F F Fe
   0.6415299999999999    0.7843100000000000    0.6942119855865784 F F F Fe
   0.1415300000000000    0.6201800000000000    0.6831407199393276 F F F Fe
   0.1415300000000000    0.4353300000000000    0.7170057678015063 F F F Fe
   0.6415300000000000    0.2712000000000000    0.7059345021542556 F F F Fe
   0.6415300000000000    0.4560500000000000    0.6720780233831352 F F F Fe
   0.1415300000000000    0.2919100000000000    0.6610067577358845 F F F Fe
   0.1415300000000000    0.1070600000000000    0.6948718055980632 F F F Fe
   0.6415299999999999    0.9429300000000000    0.6838005399508124 F F F Fe
   0.6415300000000000    0.1277800000000000    0.6499440611796921 T T T Fe
   0.1415300000000000    0.9636399999999999    0.6388727955324414 T T T Fe
   0.1415300000000000    0.8050300000000000    0.6492842411682074 T T T Fe
   0.6415300000000000    0.6408900000000000    0.6382215446120149 T T T Fe
   0.6415300000000000    0.8257400000000000    0.6043564967498363 T T T Fe
   0.1415300000000000    0.6616100000000000    0.5932938001936436 T T T Fe
   0.1415300000000000    0.4767600000000000    0.6271502789647642 T T T Fe
   0.6415299999999999    0.3126200000000000    0.6160875824085718 T T T Fe
   0.6415300000000000    0.4974700000000000    0.5822225345463931 T T T Fe
   0.1415300000000000    0.3333333333333333    0.5711598379902006 T T T Fe
   0.1415300000000000    0.1484900000000000    0.6050163167613209 T T T Fe
   0.6415299999999999    0.9843499999999999    0.5939536202051285 T T T Fe
   0.6415300000000000    0.1692000000000000    0.5600885723429500 T T T Fe
   0.1415300000000000    0.0050700000000000    0.5490258757867575 T T T Fe
