Zr1 Ti66
1.0
6.309760 0.000000 0.000000
0.000000 9.464640 0.000000
0.000000 0.000000 18.918326
Ti Zr
66 1
Selective dynamics
direct
0.627578 0.041781 0.499205 F F F Ti
0.629496 0.041729 0.658310 F F F Ti
0.125109 0.041718 0.816580 F F F Ti
0.625250 0.041725 0.816967 F F F Ti
0.125527 0.376011 0.499559 F F F Ti
0.625156 0.378719 0.498479 F F F Ti
0.125622 0.376426 0.658382 F F F Ti
0.625704 0.377502 0.659365 F F F Ti
0.125352 0.374863 0.817150 F F F Ti
0.625088 0.375088 0.817414 F F F Ti
0.125364 0.707217 0.499409 F F F Ti
0.624914 0.705335 0.498278 F F F Ti
0.125444 0.706824 0.658499 F F F Ti
0.625442 0.706277 0.659445 F F F Ti
0.125301 0.708465 0.817252 F F F Ti
0.625086 0.708342 0.817502 F F F Ti
0.388572 0.215275 0.578006 F F F Ti
0.859704 0.217760 0.577617 F F F Ti
0.376015 0.208645 0.737529 F F F Ti
0.874453 0.209380 0.737938 F F F Ti
0.374903 0.208114 0.896271 F F F Ti
0.875301 0.208181 0.896345 F F F Ti
0.375625 0.542116 0.579154 F F F Ti
0.875147 0.542161 0.579125 F F F Ti
0.374870 0.541853 0.738251 F F F Ti
0.875839 0.541792 0.738344 F F F Ti
0.374935 0.541669 0.896547 F F F Ti
0.875293 0.541665 0.896563 F F F Ti
0.388383 0.868232 0.578013 F F F Ti
0.859940 0.865745 0.577689 F F F Ti
0.376002 0.874801 0.737578 F F F Ti
0.874389 0.874065 0.737977 F F F Ti
0.374900 0.875256 0.896286 F F F Ti
0.875280 0.875214 0.896364 F F F Ti
0.124976 0.625042 0.356344 F F F Ti
0.625058 0.625007 0.355963 F F F Ti
0.124944 0.625116 0.118856 F F F Ti
0.624860 0.625092 0.118831 F F F Ti
0.125002 0.124891 0.356951 F F F Ti
0.625189 0.125060 0.356490 F F F Ti
0.124995 0.124948 0.118956 F F F Ti
0.624849 0.124962 0.118911 F F F Ti
0.124994 0.374881 0.039498 F F F Ti
0.624903 0.374895 0.039528 F F F Ti
0.124981 0.875138 0.039462 F F F Ti
0.624865 0.875123 0.039501 F F F Ti
0.124953 0.374878 0.277203 F F F Ti
0.624990 0.374902 0.277104 F F F Ti
0.125022 0.875120 0.277405 F F F Ti
0.624963 0.875091 0.277283 F F F Ti
0.374923 0.875076 0.158453 F F F Ti
0.875020 0.875079 0.158443 F F F Ti
0.374931 0.374942 0.158390 F F F Ti
0.875063 0.374940 0.158366 F F F Ti
0.374690 0.374991 0.395827 F F F Ti
0.875602 0.375144 0.395784 F F F Ti
0.375014 0.875102 0.396298 F F F Ti
0.875290 0.874836 0.396133 F F F Ti
0.374846 0.625061 0.237561 F F F Ti
0.875110 0.625043 0.237545 F F F Ti
0.374919 0.625113 0.000006 F F F Ti
0.875024 0.625107 0.000019 F F F Ti
0.374854 0.124952 0.237807 F F F Ti
0.875165 0.124950 0.237775 F F F Ti
0.374896 0.124975 -0.000134 F F F Ti
0.875063 0.124965 -0.000096 F F F Ti
0.114064 0.043236 0.616145 T T T Zr

0.000000 0.000000 0.000000
0.000000 0.000000 0.000000
0.000000 0.000000 0.000000
0.000000 0.000000 0.000000
0.000000 0.000000 0.000000
0.000000 0.000000 0.000000
0.000000 0.000000 0.000000
0.000000 0.000000 0.000000
0.000000 0.000000 0.000000
0.000000 0.000000 0.000000
0.000000 0.000000 0.000000
0.000000 0.000000 0.000000
0.000000 0.000000 0.000000
0.000000 0.000000 0.000000
0.000000 0.000000 0.000000
0.000000 0.000000 0.000000
0.000000 0.000000 0.000000
0.000000 0.000000 0.000000
0.000000 0.000000 0.000000
0.000000 0.000000 0.000000
0.000000 0.000000 0.000000
0.000000 0.000000 0.000000
0.000000 0.000000 0.000000
0.000000 0.000000 0.000000
0.000000 0.000000 0.000000
0.000000 0.000000 0.000000
0.000000 0.000000 0.000000
0.000000 0.000000 0.000000
0.000000 0.000000 0.000000
0.000000 0.000000 0.000000
0.000000 0.000000 0.000000
0.000000 0.000000 0.000000
0.000000 0.000000 0.000000
0.000000 0.000000 0.000000
0.000000 0.000000 0.000000
0.000000 0.000000 0.000000
0.000000 0.000000 0.000000
0.000000 0.000000 0.000000
0.000000 0.000000 0.000000
0.000000 0.000000 0.000000
0.000000 0.000000 0.000000
0.000000 0.000000 0.000000
0.000000 0.000000 0.000000
0.000000 0.000000 0.000000
0.000000 0.000000 0.000000
0.000000 0.000000 0.000000
0.000000 0.000000 0.000000
0.000000 0.000000 0.000000
0.000000 0.000000 0.000000
0.000000 0.000000 0.000000
0.000000 0.000000 0.000000
0.000000 0.000000 0.000000
0.000000 0.000000 0.000000
0.000000 0.000000 0.000000
0.000000 0.000000 0.000000
0.000000 0.000000 0.000000
0.000000 0.000000 0.000000
0.000000 0.000000 0.000000
0.000000 0.000000 0.000000
0.000000 0.000000 0.000000
0.000000 0.000000 0.000000
0.000000 0.000000 0.000000
0.000000 0.000000 0.000000
0.000000 0.000000 0.000000
0.000000 0.000000 0.000000
0.000000 0.000000 0.000000
0.000000 0.000000 0.000000
