Ti36
1.0
8.805261 0.000000 0.000000
-4.402630 7.625579 0.000000
0.000000 0.000000 22.288801
Ti
36
direct
0.000000 0.000000 0.488673 Ti
1.000000 0.500000 0.488673 Ti
0.500000 0.000000 0.488673 Ti
0.500000 0.500000 0.488673 Ti
0.166667 0.333333 0.779054 Ti
0.166667 0.833333 0.779054 Ti
0.666667 0.333333 0.779054 Ti
0.666667 0.833333 0.779054 Ti
0.333333 0.166667 0.820537 Ti
0.333333 0.666667 0.820537 Ti
0.833333 0.166667 0.820537 Ti
0.833333 0.666667 0.820537 Ti
0.166667 0.333333 0.530156 Ti
0.166667 0.833333 0.530156 Ti
0.666667 0.333333 0.530156 Ti
0.666667 0.833333 0.530156 Ti
0.333333 0.166667 0.571639 Ti
0.333333 0.666667 0.571639 Ti
0.833333 0.166667 0.571639 Ti
0.833333 0.666667 0.571639 Ti
0.000000 0.000000 0.613122 Ti
1.000000 0.500000 0.613122 Ti
0.500000 0.000000 0.613122 Ti
0.500000 0.500000 0.613122 Ti
0.166667 0.333333 0.654605 Ti
0.166667 0.833333 0.654605 Ti
0.666667 0.333333 0.654605 Ti
0.666667 0.833333 0.654605 Ti
0.333333 0.166667 0.696088 Ti
0.333333 0.666667 0.696088 Ti
0.833333 0.166667 0.696088 Ti
0.833333 0.666667 0.696088 Ti
0.000000 0.000000 0.737571 Ti
1.000000 0.500000 0.737571 Ti
0.500000 0.000000 0.737571 Ti
0.500000 0.500000 0.737571 Ti

0.000000 0.000000 0.000000
0.000000 0.000000 0.000000
0.000000 0.000000 0.000000
0.000000 0.000000 0.000000
0.000000 0.000000 0.000000
0.000000 0.000000 0.000000
0.000000 0.000000 0.000000
0.000000 0.000000 0.000000
0.000000 0.000000 0.000000
0.000000 0.000000 0.000000
0.000000 0.000000 0.000000
0.000000 0.000000 0.000000
0.000000 0.000000 0.000000
0.000000 0.000000 0.000000
0.000000 0.000000 0.000000
0.000000 0.000000 0.000000
0.000000 0.000000 0.000000
0.000000 0.000000 0.000000
0.000000 0.000000 0.000000
0.000000 0.000000 0.000000
0.000000 0.000000 0.000000
0.000000 0.000000 0.000000
0.000000 0.000000 0.000000
0.000000 0.000000 0.000000
0.000000 0.000000 0.000000
0.000000 0.000000 0.000000
0.000000 0.000000 0.000000
0.000000 0.000000 0.000000
0.000000 0.000000 0.000000
0.000000 0.000000 0.000000
0.000000 0.000000 0.000000
0.000000 0.000000 0.000000
0.000000 0.000000 0.000000
0.000000 0.000000 0.000000
0.000000 0.000000 0.000000
0.000000 0.000000 0.000000
