substance_top
1.0
   3.5061499999999999    0.0000000000000000    0.0000000000000002
   0.0000000000000019   12.0001999999999995    0.0000000000000007
   0.0000000000000000    0.0000000000000000   28.0716049620000021
Fe
36
Selective dynamics
direct
   0.9933200000000000    0.7184400000000000    0.6437651169380258 F F F Fe
   0.4933200000000000    0.5543100000000000    0.6313985775303244 F F F Fe
   0.4933200000000000    0.7391600000000000    0.5935422152226280 F F F Fe
   0.9933200000000000    0.5750200000000000    0.5811756758149267 F F F Fe
   0.9933200000000001    0.3901700000000000    0.6190224590835776 F F F Fe
   0.4933200000000000    0.2260400000000000    0.6066559196758761 F F F Fe
   0.4933200000000000    0.4108899999999999    0.5687995573681797 F F F Fe
   0.9933200000000001    0.2467500000000000    0.5564330179604783 F F F Fe
   0.9933200000000000    0.0619000000000000    0.5942798012291292 F F F Fe
   0.4933200000000000    0.8977699999999998    0.5819132618214278 F F F Fe
   0.4933200000000000    0.0826200000000000    0.5440568995137314 F F F Fe
   0.9933200000000000    0.9184800000000000    0.5316903601060299 F F F Fe
   0.9933200000000000    0.7598700000000000    0.5433288925462756 F F F Fe
   0.4933200000000000    0.5957300000000000    0.5309527740995288 F F F Fe
   0.4933200000000000    0.7805800000000001    0.4931059908308779 F F F Fe
   0.9933200000000001    0.6164500000000001    0.4807298723841310 F F F Fe
   0.9933200000000001    0.4315999999999999    0.5185862346918273 F F F Fe
   0.4933200000000000    0.2674600000000000    0.5062101162450805 F F F Fe
   0.4933200000000000    0.4523100000000000    0.4683633329764296 F F F Fe
   0.9933200000000001    0.2881800000000000    0.4559872145296827 F F F Fe
   0.9933199999999999    0.1033300000000000    0.4938435768373791 F F F Fe
   0.4933200000000000    0.9391999999999999    0.4814674583906320 F F F Fe
   0.4933200000000000    0.1240400000000000    0.4436206751219812 F F F Fe
   0.9933200000000000    0.9599100000000000    0.4312445566752343 F F F Fe
   0.9933200000000000    0.8013000000000000    0.4428830891154800 F F F Fe
   0.4933200000000000    0.6371599999999998    0.4305165497077786 F F F Fe
   0.4933200000000000    0.8220099999999999    0.3926601874000822 F F F Fe
   0.9933200000000001    0.6578799999999999    0.3802936479923808 F F F Fe
   0.9933200000000001    0.4730300000000000    0.4181404312610317 F F F Fe
   0.4933200000000000    0.3088900000000000    0.4057738918533303 F F F Fe
   0.4933200000000000    0.4937400000000000    0.3679175295456339 F F F Fe
   0.9933200000000000    0.3296100000000000    0.3555509901379325 F F F Fe
   0.9933200000000001    0.1447600000000000    0.3933977734065834 F F F Fe
   0.4933200000000000    0.9806200000000000    0.3810312339988819 F F F Fe
   0.4933200000000000    0.1654700000000000    0.3431748716911856 F F F Fe
   0.9933200000000000    0.0013400000000000    0.3308083322834842 F F F Fe
