Ti66 Cr1
1.0
6.309760 0.000000 0.000000
0.000000 9.464640 0.000000
0.000000 0.000000 18.918326
Ti Cr
66 1
Selective dynamics
direct
0.107669 0.034529 0.498473 F F F Ti
0.641151 0.033502 0.497829 F F F Ti
0.123449 0.042421 0.658137 F F F Ti
0.624927 0.042038 0.658642 F F F Ti
0.125042 0.042392 0.816964 F F F Ti
0.624710 0.042403 0.817045 F F F Ti
0.097941 0.387470 0.498710 F F F Ti
0.659870 0.395259 0.497951 F F F Ti
0.124122 0.376116 0.658002 F F F Ti
0.626143 0.377417 0.658948 F F F Ti
0.125122 0.375183 0.816863 F F F Ti
0.624746 0.375238 0.817081 F F F Ti
0.123559 0.709925 0.499770 F F F Ti
0.623001 0.711196 0.499758 F F F Ti
0.126029 0.709836 0.659206 F F F Ti
0.622874 0.710136 0.659437 F F F Ti
0.125215 0.708828 0.817359 F F F Ti
0.624574 0.708880 0.817408 F F F Ti
0.868702 0.209272 0.579213 F F F Ti
0.374675 0.209128 0.737037 F F F Ti
0.874749 0.208996 0.737647 F F F Ti
0.374912 0.208631 0.896081 F F F Ti
0.875092 0.208643 0.896217 F F F Ti
0.374545 0.544960 0.579021 F F F Ti
0.874709 0.547902 0.581713 F F F Ti
0.374678 0.542143 0.737883 F F F Ti
0.875156 0.542584 0.738428 F F F Ti
0.374953 0.541658 0.896280 F F F Ti
0.875098 0.541693 0.896383 F F F Ti
0.374088 0.875989 0.578944 F F F Ti
0.873460 0.873588 0.580411 F F F Ti
0.374429 0.876250 0.737924 F F F Ti
0.874943 0.875765 0.738254 F F F Ti
0.374956 0.875532 0.896344 F F F Ti
0.874959 0.875472 0.896420 F F F Ti
0.125292 0.624971 0.356169 F F F Ti
0.623448 0.625721 0.355762 F F F Ti
0.125102 0.624986 0.118529 F F F Ti
0.624765 0.625001 0.118495 F F F Ti
0.123445 0.124387 0.356017 F F F Ti
0.627846 0.123955 0.355219 F F F Ti
0.125183 0.124992 0.118522 F F F Ti
0.624750 0.124979 0.118466 F F F Ti
0.125120 0.374966 0.039459 F F F Ti
0.624785 0.374992 0.039443 F F F Ti
0.125053 0.875163 0.039416 F F F Ti
0.624742 0.875137 0.039396 F F F Ti
0.126228 0.374776 0.276921 F F F Ti
0.623781 0.375060 0.276505 F F F Ti
0.124800 0.874803 0.276791 F F F Ti
0.624488 0.874553 0.276543 F F F Ti
0.374854 0.874969 0.158102 F F F Ti
0.874933 0.874884 0.158008 F F F Ti
0.374934 0.374893 0.158144 F F F Ti
0.875183 0.375001 0.158076 F F F Ti
0.874091 0.375230 0.392918 F F F Ti
0.374098 0.874661 0.395638 F F F Ti
0.874134 0.872233 0.394801 F F F Ti
0.374655 0.624912 0.237288 F F F Ti
0.875059 0.624865 0.237131 F F F Ti
0.374915 0.624972 -0.000289 F F F Ti
0.874868 0.625023 -0.000217 F F F Ti
0.374871 0.124813 0.237437 F F F Ti
0.875094 0.124820 0.236946 F F F Ti
0.374955 0.125204 -0.000414 F F F Ti
0.874807 0.125156 -0.000322 F F F Ti
0.390473 0.236515 0.526162 T T T Cr

0.000000 0.000000 0.000000
0.000000 0.000000 0.000000
0.000000 0.000000 0.000000
0.000000 0.000000 0.000000
0.000000 0.000000 0.000000
0.000000 0.000000 0.000000
0.000000 0.000000 0.000000
0.000000 0.000000 0.000000
0.000000 0.000000 0.000000
0.000000 0.000000 0.000000
0.000000 0.000000 0.000000
0.000000 0.000000 0.000000
0.000000 0.000000 0.000000
0.000000 0.000000 0.000000
0.000000 0.000000 0.000000
0.000000 0.000000 0.000000
0.000000 0.000000 0.000000
0.000000 0.000000 0.000000
0.000000 0.000000 0.000000
0.000000 0.000000 0.000000
0.000000 0.000000 0.000000
0.000000 0.000000 0.000000
0.000000 0.000000 0.000000
0.000000 0.000000 0.000000
0.000000 0.000000 0.000000
0.000000 0.000000 0.000000
0.000000 0.000000 0.000000
0.000000 0.000000 0.000000
0.000000 0.000000 0.000000
0.000000 0.000000 0.000000
0.000000 0.000000 0.000000
0.000000 0.000000 0.000000
0.000000 0.000000 0.000000
0.000000 0.000000 0.000000
0.000000 0.000000 0.000000
0.000000 0.000000 0.000000
0.000000 0.000000 0.000000
0.000000 0.000000 0.000000
0.000000 0.000000 0.000000
0.000000 0.000000 0.000000
0.000000 0.000000 0.000000
0.000000 0.000000 0.000000
0.000000 0.000000 0.000000
0.000000 0.000000 0.000000
0.000000 0.000000 0.000000
0.000000 0.000000 0.000000
0.000000 0.000000 0.000000
0.000000 0.000000 0.000000
0.000000 0.000000 0.000000
0.000000 0.000000 0.000000
0.000000 0.000000 0.000000
0.000000 0.000000 0.000000
0.000000 0.000000 0.000000
0.000000 0.000000 0.000000
0.000000 0.000000 0.000000
0.000000 0.000000 0.000000
0.000000 0.000000 0.000000
0.000000 0.000000 0.000000
0.000000 0.000000 0.000000
0.000000 0.000000 0.000000
0.000000 0.000000 0.000000
0.000000 0.000000 0.000000
0.000000 0.000000 0.000000
0.000000 0.000000 0.000000
0.000000 0.000000 0.000000
0.000000 0.000000 0.000000
0.000000 0.000000 0.000000
