Ti97
1.0
9.513020 0.000000 0.000000
0.000000 9.350860 0.000000
0.000000 0.000000 18.547230
Ti
97
Selective dynamics
direct
0.143836 0.371426 0.405136 T T T Ti
0.655991 0.350398 0.412818 T T T Ti
0.154690 0.859146 0.409888 T T T Ti
0.670342 0.895552 0.406755 T T T Ti
0.151732 0.373676 0.239535 T T T Ti
0.662106 0.361838 0.230777 T T T Ti
0.161110 0.869220 0.233313 T T T Ti
0.666409 0.883396 0.240549 T T T Ti
0.166695 0.375039 0.077486 F F F Ti
0.666726 0.374857 0.077467 F F F Ti
0.166786 0.875071 0.077587 F F F Ti
0.666592 0.874963 0.077605 F F F Ti
0.406100 0.370041 0.320914 T T T Ti
0.897390 0.375196 0.322241 T T T Ti
0.365169 0.936141 0.323145 T T T Ti
0.915206 0.875652 0.320062 T T T Ti
0.416835 0.374979 0.155063 F F F Ti
0.916717 0.374735 0.155040 F F F Ti
0.416465 0.875020 0.155494 F F F Ti
0.916767 0.875196 0.155068 F F F Ti
0.416703 0.375021 -0.000098 F F F Ti
0.916636 0.374964 -0.000122 F F F Ti
0.416669 0.874987 0.000004 F F F Ti
0.916668 0.874996 -0.000090 F F F Ti
0.102610 0.124805 0.322240 T T T Ti
0.593900 0.129959 0.320913 T T T Ti
0.084794 0.624349 0.320061 T T T Ti
0.634831 0.563860 0.323144 T T T Ti
0.083281 0.125282 0.155036 F F F Ti
0.583166 0.125035 0.155062 F F F Ti
0.083232 0.624820 0.155071 F F F Ti
0.583537 0.624978 0.155495 F F F Ti
0.083365 0.125038 -0.000124 F F F Ti
0.583297 0.124985 -0.000099 F F F Ti
0.083331 0.625005 -0.000088 F F F Ti
0.583333 0.625007 0.000005 F F F Ti
0.344008 0.149602 0.412818 T T T Ti
0.856163 0.128574 0.405136 T T T Ti
0.329657 0.604448 0.406755 T T T Ti
0.845309 0.640854 0.409888 T T T Ti
0.337893 0.138163 0.230776 T T T Ti
0.848267 0.126325 0.239535 T T T Ti
0.333590 0.616606 0.240550 T T T Ti
0.838888 0.630783 0.233313 T T T Ti
0.333273 0.125153 0.077465 F F F Ti
0.833304 0.124971 0.077485 F F F Ti
0.333406 0.625043 0.077605 F F F Ti
0.833213 0.624935 0.077588 F F F Ti
0.375032 0.375033 0.823725 F F F Ti
0.874940 0.375008 0.823743 F F F Ti
0.375032 0.874984 0.823675 F F F Ti
0.874967 0.874981 0.823714 F F F Ti
0.125061 0.124987 0.823743 F F F Ti
0.624971 0.124966 0.823725 F F F Ti
0.125035 0.625013 0.823715 F F F Ti
0.624970 0.625011 0.823676 F F F Ti
0.124990 0.375031 0.910048 F F F Ti
0.625003 0.375007 0.910054 F F F Ti
0.125021 0.874989 0.910074 F F F Ti
0.624969 0.874969 0.910085 F F F Ti
0.375000 0.124991 0.910054 F F F Ti
0.875013 0.124967 0.910046 F F F Ti
0.375032 0.625020 0.910086 F F F Ti
0.874983 0.625003 0.910075 F F F Ti
0.395559 0.391316 0.652734 T T T Ti
0.901498 0.379955 0.652484 T T T Ti
0.395978 0.881148 0.652624 T T T Ti
0.889726 0.883337 0.657742 T T T Ti
0.098502 0.120044 0.652484 T T T Ti
0.604440 0.108682 0.652734 T T T Ti
0.110273 0.616660 0.657742 T T T Ti
0.604021 0.618850 0.652624 T T T Ti
0.152464 0.371872 0.570845 T T T Ti
0.652561 0.360361 0.580812 T T T Ti
0.144251 0.865285 0.578500 T T T Ti
0.651088 0.859940 0.566012 T T T Ti
0.347439 0.139639 0.580812 T T T Ti
0.847536 0.128127 0.570845 T T T Ti
0.348912 0.640060 0.566012 T T T Ti
0.855749 0.634714 0.578500 T T T Ti
0.404687 0.380510 0.495418 T T T Ti
0.899341 0.377578 0.490815 T T T Ti
0.389786 0.901120 0.496370 T T T Ti
0.910960 0.881225 0.491201 T T T Ti
0.100659 0.122422 0.490815 T T T Ti
0.595313 0.119490 0.495418 T T T Ti
0.089040 0.618775 0.491201 T T T Ti
0.610213 0.598880 0.496370 T T T Ti
0.125050 0.875065 0.737481 F F F Ti
0.624992 0.875003 0.737450 F F F Ti
0.375005 0.624987 0.737451 F F F Ti
0.874946 0.624925 0.737483 F F F Ti
0.124962 0.374976 0.737507 F F F Ti
0.625002 0.374975 0.737473 F F F Ti
0.374994 0.125016 0.737473 F F F Ti
0.875033 0.125013 0.737506 F F F Ti
0.500000 0.750000 0.350315 T T T Ti

0.000000 0.000000 0.000000
0.000000 0.000000 0.000000
0.000000 0.000000 0.000000
0.000000 0.000000 0.000000
0.000000 0.000000 0.000000
0.000000 0.000000 0.000000
0.000000 0.000000 0.000000
0.000000 0.000000 0.000000
0.000000 0.000000 0.000000
0.000000 0.000000 0.000000
0.000000 0.000000 0.000000
0.000000 0.000000 0.000000
0.000000 0.000000 0.000000
0.000000 0.000000 0.000000
0.000000 0.000000 0.000000
0.000000 0.000000 0.000000
0.000000 0.000000 0.000000
0.000000 0.000000 0.000000
0.000000 0.000000 0.000000
0.000000 0.000000 0.000000
0.000000 0.000000 0.000000
0.000000 0.000000 0.000000
0.000000 0.000000 0.000000
0.000000 0.000000 0.000000
0.000000 0.000000 0.000000
0.000000 0.000000 0.000000
0.000000 0.000000 0.000000
0.000000 0.000000 0.000000
0.000000 0.000000 0.000000
0.000000 0.000000 0.000000
0.000000 0.000000 0.000000
0.000000 0.000000 0.000000
0.000000 0.000000 0.000000
0.000000 0.000000 0.000000
0.000000 0.000000 0.000000
0.000000 0.000000 0.000000
0.000000 0.000000 0.000000
0.000000 0.000000 0.000000
0.000000 0.000000 0.000000
0.000000 0.000000 0.000000
0.000000 0.000000 0.000000
0.000000 0.000000 0.000000
0.000000 0.000000 0.000000
0.000000 0.000000 0.000000
0.000000 0.000000 0.000000
0.000000 0.000000 0.000000
0.000000 0.000000 0.000000
0.000000 0.000000 0.000000
0.000000 0.000000 0.000000
0.000000 0.000000 0.000000
0.000000 0.000000 0.000000
0.000000 0.000000 0.000000
0.000000 0.000000 0.000000
0.000000 0.000000 0.000000
0.000000 0.000000 0.000000
0.000000 0.000000 0.000000
0.000000 0.000000 0.000000
0.000000 0.000000 0.000000
0.000000 0.000000 0.000000
0.000000 0.000000 0.000000
0.000000 0.000000 0.000000
0.000000 0.000000 0.000000
0.000000 0.000000 0.000000
0.000000 0.000000 0.000000
0.000000 0.000000 0.000000
0.000000 0.000000 0.000000
0.000000 0.000000 0.000000
0.000000 0.000000 0.000000
0.000000 0.000000 0.000000
0.000000 0.000000 0.000000
0.000000 0.000000 0.000000
0.000000 0.000000 0.000000
0.000000 0.000000 0.000000
0.000000 0.000000 0.000000
0.000000 0.000000 0.000000
0.000000 0.000000 0.000000
0.000000 0.000000 0.000000
0.000000 0.000000 0.000000
0.000000 0.000000 0.000000
0.000000 0.000000 0.000000
0.000000 0.000000 0.000000
0.000000 0.000000 0.000000
0.000000 0.000000 0.000000
0.000000 0.000000 0.000000
0.000000 0.000000 0.000000
0.000000 0.000000 0.000000
0.000000 0.000000 0.000000
0.000000 0.000000 0.000000
0.000000 0.000000 0.000000
0.000000 0.000000 0.000000
0.000000 0.000000 0.000000
0.000000 0.000000 0.000000
0.000000 0.000000 0.000000
0.000000 0.000000 0.000000
0.000000 0.000000 0.000000
0.000000 0.000000 0.000000
0.000000 0.000000 0.000000
