Ti96 Mo1
1.0
9.513020 0.000000 0.000000
0.000000 9.350860 0.000000
0.000000 0.000000 18.547230
Ti Mo
96 1
Selective dynamics
direct
0.136416 0.364162 0.406813 T T T Ti
0.652627 0.352130 0.412208 T T T Ti
0.166650 0.856407 0.405208 T T T Ti
0.674936 0.914422 0.403923 T T T Ti
0.152597 0.375119 0.238665 T T T Ti
0.666238 0.364845 0.228253 T T T Ti
0.160323 0.868619 0.235482 T T T Ti
0.662626 0.873965 0.245639 T T T Ti
0.166658 0.375088 0.077534 F F F Ti
0.666724 0.375118 0.077525 F F F Ti
0.166727 0.874930 0.077599 F F F Ti
0.666655 0.874968 0.077568 F F F Ti
0.400921 0.361320 0.315757 T T T Ti
0.895529 0.377024 0.321368 T T T Ti
0.388698 0.930879 0.318340 T T T Ti
0.919350 0.879919 0.321581 T T T Ti
0.416805 0.375239 0.155127 F F F Ti
0.916645 0.375052 0.155120 F F F Ti
0.416480 0.874923 0.155393 F F F Ti
0.916903 0.875011 0.155102 F F F Ti
0.416700 0.375055 -0.000067 F F F Ti
0.916626 0.375033 -0.000087 F F F Ti
0.416660 0.874950 -0.000020 F F F Ti
0.916682 0.874981 -0.000094 F F F Ti
0.104471 0.122977 0.321367 T T T Ti
0.599079 0.138681 0.315756 T T T Ti
0.080650 0.620082 0.321580 T T T Ti
0.611302 0.569122 0.318338 T T T Ti
0.083357 0.124963 0.155121 F F F Ti
0.583193 0.124777 0.155129 F F F Ti
0.083097 0.625005 0.155102 F F F Ti
0.583520 0.625081 0.155391 F F F Ti
0.083375 0.124967 -0.000086 F F F Ti
0.583300 0.124949 -0.000065 F F F Ti
0.083319 0.625024 -0.000096 F F F Ti
0.583340 0.625049 -0.000022 F F F Ti
0.347372 0.147870 0.412208 T T T Ti
0.863583 0.135838 0.406813 T T T Ti
0.325063 0.585578 0.403923 T T T Ti
0.833349 0.643593 0.405208 T T T Ti
0.333762 0.135158 0.228253 T T T Ti
0.847402 0.124885 0.238665 T T T Ti
0.337373 0.626037 0.245639 T T T Ti
0.839676 0.631384 0.235481 T T T Ti
0.333276 0.124891 0.077527 F F F Ti
0.833341 0.124922 0.077535 F F F Ti
0.333344 0.625042 0.077567 F F F Ti
0.833272 0.625078 0.077598 F F F Ti
0.375029 0.375038 0.823777 F F F Ti
0.874927 0.375028 0.823803 F F F Ti
0.375054 0.874954 0.823730 F F F Ti
0.874942 0.874971 0.823760 F F F Ti
0.125076 0.124962 0.823804 F F F Ti
0.624973 0.124958 0.823779 F F F Ti
0.125059 0.625023 0.823759 F F F Ti
0.624950 0.625040 0.823729 F F F Ti
0.124983 0.375023 0.910063 F F F Ti
0.624998 0.375027 0.910072 F F F Ti
0.125034 0.874971 0.910064 F F F Ti
0.624973 0.874981 0.910072 F F F Ti
0.375006 0.124967 0.910073 F F F Ti
0.875019 0.124972 0.910064 F F F Ti
0.375028 0.625009 0.910070 F F F Ti
0.874968 0.625024 0.910063 F F F Ti
0.391852 0.392662 0.654241 T T T Ti
0.901954 0.380881 0.651724 T T T Ti
0.395448 0.878315 0.653572 T T T Ti
0.888666 0.885051 0.657168 T T T Ti
0.098045 0.119116 0.651725 T T T Ti
0.608147 0.107335 0.654241 T T T Ti
0.111333 0.614946 0.657169 T T T Ti
0.604551 0.621683 0.653572 T T T Ti
0.149491 0.371372 0.567752 T T T Ti
0.651621 0.360615 0.584521 T T T Ti
0.142804 0.862034 0.578417 T T T Ti
0.652255 0.859560 0.564207 T T T Ti
0.348379 0.139384 0.584521 T T T Ti
0.850509 0.128627 0.567752 T T T Ti
0.347745 0.640440 0.564207 T T T Ti
0.857195 0.637966 0.578417 T T T Ti
0.404869 0.375056 0.497372 T T T Ti
0.893810 0.384522 0.491408 T T T Ti
0.389761 0.906210 0.497977 T T T Ti
0.914570 0.879755 0.487000 T T T Ti
0.106190 0.115478 0.491408 T T T Ti
0.595131 0.124943 0.497372 T T T Ti
0.085430 0.620244 0.487000 T T T Ti
0.610238 0.593790 0.497977 T T T Ti
0.125124 0.874976 0.737518 F F F Ti
0.625042 0.875017 0.737460 F F F Ti
0.374955 0.624973 0.737459 F F F Ti
0.874871 0.625012 0.737518 F F F Ti
0.124985 0.375036 0.737557 F F F Ti
0.625014 0.375001 0.737494 F F F Ti
0.374983 0.124987 0.737494 F F F Ti
0.875009 0.124949 0.737558 F F F Ti
0.500000 0.750000 0.373841 T T T Mo

0.000000 0.000000 0.000000
0.000000 0.000000 0.000000
0.000000 0.000000 0.000000
0.000000 0.000000 0.000000
0.000000 0.000000 0.000000
0.000000 0.000000 0.000000
0.000000 0.000000 0.000000
0.000000 0.000000 0.000000
0.000000 0.000000 0.000000
0.000000 0.000000 0.000000
0.000000 0.000000 0.000000
0.000000 0.000000 0.000000
0.000000 0.000000 0.000000
0.000000 0.000000 0.000000
0.000000 0.000000 0.000000
0.000000 0.000000 0.000000
0.000000 0.000000 0.000000
0.000000 0.000000 0.000000
0.000000 0.000000 0.000000
0.000000 0.000000 0.000000
0.000000 0.000000 0.000000
0.000000 0.000000 0.000000
0.000000 0.000000 0.000000
0.000000 0.000000 0.000000
0.000000 0.000000 0.000000
0.000000 0.000000 0.000000
0.000000 0.000000 0.000000
0.000000 0.000000 0.000000
0.000000 0.000000 0.000000
0.000000 0.000000 0.000000
0.000000 0.000000 0.000000
0.000000 0.000000 0.000000
0.000000 0.000000 0.000000
0.000000 0.000000 0.000000
0.000000 0.000000 0.000000
0.000000 0.000000 0.000000
0.000000 0.000000 0.000000
0.000000 0.000000 0.000000
0.000000 0.000000 0.000000
0.000000 0.000000 0.000000
0.000000 0.000000 0.000000
0.000000 0.000000 0.000000
0.000000 0.000000 0.000000
0.000000 0.000000 0.000000
0.000000 0.000000 0.000000
0.000000 0.000000 0.000000
0.000000 0.000000 0.000000
0.000000 0.000000 0.000000
0.000000 0.000000 0.000000
0.000000 0.000000 0.000000
0.000000 0.000000 0.000000
0.000000 0.000000 0.000000
0.000000 0.000000 0.000000
0.000000 0.000000 0.000000
0.000000 0.000000 0.000000
0.000000 0.000000 0.000000
0.000000 0.000000 0.000000
0.000000 0.000000 0.000000
0.000000 0.000000 0.000000
0.000000 0.000000 0.000000
0.000000 0.000000 0.000000
0.000000 0.000000 0.000000
0.000000 0.000000 0.000000
0.000000 0.000000 0.000000
0.000000 0.000000 0.000000
0.000000 0.000000 0.000000
0.000000 0.000000 0.000000
0.000000 0.000000 0.000000
0.000000 0.000000 0.000000
0.000000 0.000000 0.000000
0.000000 0.000000 0.000000
0.000000 0.000000 0.000000
0.000000 0.000000 0.000000
0.000000 0.000000 0.000000
0.000000 0.000000 0.000000
0.000000 0.000000 0.000000
0.000000 0.000000 0.000000
0.000000 0.000000 0.000000
0.000000 0.000000 0.000000
0.000000 0.000000 0.000000
0.000000 0.000000 0.000000
0.000000 0.000000 0.000000
0.000000 0.000000 0.000000
0.000000 0.000000 0.000000
0.000000 0.000000 0.000000
0.000000 0.000000 0.000000
0.000000 0.000000 0.000000
0.000000 0.000000 0.000000
0.000000 0.000000 0.000000
0.000000 0.000000 0.000000
0.000000 0.000000 0.000000
0.000000 0.000000 0.000000
0.000000 0.000000 0.000000
0.000000 0.000000 0.000000
0.000000 0.000000 0.000000
0.000000 0.000000 0.000000
0.000000 0.000000 0.000000
