Ti66 Cr1
1.0
6.309760 0.000000 0.000000
0.000000 9.464640 0.000000
0.000000 0.000000 18.918326
Ti Cr
66 1
Selective dynamics
direct
0.124797 0.040623 0.500226 F F F Ti
0.625978 0.041133 0.500248 F F F Ti
0.125394 0.041474 0.658787 F F F Ti
0.625386 0.041541 0.658791 F F F Ti
0.125094 0.041637 0.817230 F F F Ti
0.625081 0.041651 0.817231 F F F Ti
0.636516 0.375350 0.502445 F F F Ti
0.125488 0.374992 0.658611 F F F Ti
0.625712 0.375023 0.658953 F F F Ti
0.125061 0.374998 0.817176 F F F Ti
0.625111 0.375002 0.817227 F F F Ti
0.124945 0.709114 0.500182 F F F Ti
0.625676 0.708923 0.500215 F F F Ti
0.125352 0.708468 0.658742 F F F Ti
0.625290 0.708464 0.658775 F F F Ti
0.125058 0.708338 0.817210 F F F Ti
0.625063 0.708333 0.817223 F F F Ti
0.376089 0.207965 0.579666 F F F Ti
0.876937 0.207686 0.579603 F F F Ti
0.375135 0.208301 0.737981 F F F Ti
0.875298 0.208283 0.737968 F F F Ti
0.375028 0.208344 0.896408 F F F Ti
0.875097 0.208339 0.896405 F F F Ti
0.376029 0.542048 0.579653 F F F Ti
0.876997 0.542345 0.579607 F F F Ti
0.375121 0.541692 0.737980 F F F Ti
0.875293 0.541700 0.737968 F F F Ti
0.375022 0.541638 0.896410 F F F Ti
0.875093 0.541639 0.896409 F F F Ti
0.375342 0.875116 0.579448 F F F Ti
0.875141 0.874908 0.579543 F F F Ti
0.375150 0.874987 0.737985 F F F Ti
0.875114 0.874963 0.737997 F F F Ti
0.375046 0.874959 0.896436 F F F Ti
0.875043 0.874960 0.896435 F F F Ti
0.120627 0.628769 0.355973 F F F Ti
0.626068 0.626301 0.356561 F F F Ti
0.124909 0.625060 0.118789 F F F Ti
0.624724 0.625025 0.118802 F F F Ti
0.120343 0.121248 0.355970 F F F Ti
0.626619 0.123709 0.356540 F F F Ti
0.124907 0.124979 0.118777 F F F Ti
0.624757 0.125007 0.118785 F F F Ti
0.124966 0.375007 0.039554 F F F Ti
0.624850 0.375008 0.039534 F F F Ti
0.124972 0.875019 0.039540 F F F Ti
0.624912 0.875010 0.039533 F F F Ti
0.121107 0.375036 0.276148 F F F Ti
0.624023 0.375031 0.277516 F F F Ti
0.124675 0.875205 0.277086 F F F Ti
0.624438 0.875127 0.277272 F F F Ti
0.374991 0.875059 0.158398 F F F Ti
0.874727 0.874999 0.158337 F F F Ti
0.374952 0.375015 0.158479 F F F Ti
0.874067 0.375009 0.158264 F F F Ti
0.872066 0.375055 0.396036 F F F Ti
0.375137 0.875628 0.396440 F F F Ti
0.874160 0.875035 0.396519 F F F Ti
0.374718 0.625172 0.237738 F F F Ti
0.874018 0.625197 0.237462 F F F Ti
0.374979 0.624987 -0.000047 F F F Ti
0.874945 0.624991 -0.000057 F F F Ti
0.374722 0.124925 0.237732 F F F Ti
0.874011 0.124846 0.237443 F F F Ti
0.374983 0.125007 -0.000049 F F F Ti
0.874948 0.125001 -0.000059 F F F Ti
0.327470 0.373600 0.408212 T T T Cr

0.000000 0.000000 0.000000
0.000000 0.000000 0.000000
0.000000 0.000000 0.000000
0.000000 0.000000 0.000000
0.000000 0.000000 0.000000
0.000000 0.000000 0.000000
0.000000 0.000000 0.000000
0.000000 0.000000 0.000000
0.000000 0.000000 0.000000
0.000000 0.000000 0.000000
0.000000 0.000000 0.000000
0.000000 0.000000 0.000000
0.000000 0.000000 0.000000
0.000000 0.000000 0.000000
0.000000 0.000000 0.000000
0.000000 0.000000 0.000000
0.000000 0.000000 0.000000
0.000000 0.000000 0.000000
0.000000 0.000000 0.000000
0.000000 0.000000 0.000000
0.000000 0.000000 0.000000
0.000000 0.000000 0.000000
0.000000 0.000000 0.000000
0.000000 0.000000 0.000000
0.000000 0.000000 0.000000
0.000000 0.000000 0.000000
0.000000 0.000000 0.000000
0.000000 0.000000 0.000000
0.000000 0.000000 0.000000
0.000000 0.000000 0.000000
0.000000 0.000000 0.000000
0.000000 0.000000 0.000000
0.000000 0.000000 0.000000
0.000000 0.000000 0.000000
0.000000 0.000000 0.000000
0.000000 0.000000 0.000000
0.000000 0.000000 0.000000
0.000000 0.000000 0.000000
0.000000 0.000000 0.000000
0.000000 0.000000 0.000000
0.000000 0.000000 0.000000
0.000000 0.000000 0.000000
0.000000 0.000000 0.000000
0.000000 0.000000 0.000000
0.000000 0.000000 0.000000
0.000000 0.000000 0.000000
0.000000 0.000000 0.000000
0.000000 0.000000 0.000000
0.000000 0.000000 0.000000
0.000000 0.000000 0.000000
0.000000 0.000000 0.000000
0.000000 0.000000 0.000000
0.000000 0.000000 0.000000
0.000000 0.000000 0.000000
0.000000 0.000000 0.000000
0.000000 0.000000 0.000000
0.000000 0.000000 0.000000
0.000000 0.000000 0.000000
0.000000 0.000000 0.000000
0.000000 0.000000 0.000000
0.000000 0.000000 0.000000
0.000000 0.000000 0.000000
0.000000 0.000000 0.000000
0.000000 0.000000 0.000000
0.000000 0.000000 0.000000
0.000000 0.000000 0.000000
0.000000 0.000000 0.000000
