Ti66 Al1
1.0
6.309760 0.000000 0.000000
0.000000 9.464640 0.000000
0.000000 0.000000 18.918326
Ti Al
66 1
Selective dynamics
direct
0.124933 0.041494 0.500317 F F F Ti
0.625016 0.041668 0.500128 F F F Ti
0.124997 0.041669 0.658675 F F F Ti
0.624960 0.041674 0.658658 F F F Ti
0.125017 0.041696 0.817206 F F F Ti
0.624969 0.041691 0.817198 F F F Ti
0.124585 0.374995 0.500172 F F F Ti
0.623758 0.374986 0.500303 F F F Ti
0.124960 0.375008 0.658649 F F F Ti
0.624902 0.375009 0.658656 F F F Ti
0.125019 0.375009 0.817220 F F F Ti
0.624953 0.375007 0.817209 F F F Ti
0.124920 0.708542 0.500280 F F F Ti
0.624978 0.708362 0.500109 F F F Ti
0.124984 0.708346 0.658670 F F F Ti
0.624951 0.708335 0.658653 F F F Ti
0.125014 0.708310 0.817208 F F F Ti
0.624965 0.708314 0.817199 F F F Ti
0.374873 0.208298 0.579362 F F F Ti
0.874828 0.208313 0.579426 F F F Ti
0.374993 0.208342 0.737906 F F F Ti
0.874975 0.208343 0.737921 F F F Ti
0.375013 0.208343 0.896439 F F F Ti
0.875010 0.208341 0.896433 F F F Ti
0.374863 0.541714 0.579350 F F F Ti
0.874833 0.541702 0.579414 F F F Ti
0.374990 0.541663 0.737903 F F F Ti
0.874978 0.541663 0.737920 F F F Ti
0.375012 0.541662 0.896443 F F F Ti
0.875007 0.541664 0.896438 F F F Ti
0.375114 0.875001 0.579405 F F F Ti
0.874839 0.875018 0.579437 F F F Ti
0.375009 0.875001 0.737919 F F F Ti
0.874974 0.875005 0.737928 F F F Ti
0.375009 0.875003 0.896433 F F F Ti
0.875001 0.875002 0.896429 F F F Ti
0.123016 0.628847 0.357434 F F F Ti
0.625507 0.625389 0.356795 F F F Ti
0.125240 0.625084 0.118887 F F F Ti
0.625513 0.625112 0.118759 F F F Ti
0.122977 0.120941 0.357551 F F F Ti
0.625737 0.124640 0.356820 F F F Ti
0.125224 0.124941 0.118862 F F F Ti
0.625595 0.124926 0.118733 F F F Ti
0.125178 0.375009 0.039606 F F F Ti
0.625406 0.375008 0.039519 F F F Ti
0.124992 0.875022 0.039571 F F F Ti
0.625103 0.875020 0.039529 F F F Ti
0.631466 0.374984 0.277020 F F F Ti
0.124985 0.875211 0.277352 F F F Ti
0.625238 0.875101 0.277493 F F F Ti
0.375197 0.875081 0.158366 F F F Ti
0.874963 0.875017 0.158454 F F F Ti
0.376535 0.374999 0.158220 F F F Ti
0.875929 0.375010 0.158439 F F F Ti
0.870409 0.375038 0.397593 F F F Ti
0.375680 0.875180 0.396594 F F F Ti
0.874043 0.875084 0.396659 F F F Ti
0.376796 0.626655 0.237558 F F F Ti
0.875065 0.625646 0.237739 F F F Ti
0.375052 0.625023 -0.000032 F F F Ti
0.875128 0.625018 -0.000036 F F F Ti
0.376897 0.123307 0.237546 F F F Ti
0.875021 0.124367 0.237736 F F F Ti
0.375067 0.124994 -0.000037 F F F Ti
0.875132 0.124994 -0.000042 F F F Ti
0.197492 0.374157 0.305479 T T T Al

0.000000 0.000000 0.000000
0.000000 0.000000 0.000000
0.000000 0.000000 0.000000
0.000000 0.000000 0.000000
0.000000 0.000000 0.000000
0.000000 0.000000 0.000000
0.000000 0.000000 0.000000
0.000000 0.000000 0.000000
0.000000 0.000000 0.000000
0.000000 0.000000 0.000000
0.000000 0.000000 0.000000
0.000000 0.000000 0.000000
0.000000 0.000000 0.000000
0.000000 0.000000 0.000000
0.000000 0.000000 0.000000
0.000000 0.000000 0.000000
0.000000 0.000000 0.000000
0.000000 0.000000 0.000000
0.000000 0.000000 0.000000
0.000000 0.000000 0.000000
0.000000 0.000000 0.000000
0.000000 0.000000 0.000000
0.000000 0.000000 0.000000
0.000000 0.000000 0.000000
0.000000 0.000000 0.000000
0.000000 0.000000 0.000000
0.000000 0.000000 0.000000
0.000000 0.000000 0.000000
0.000000 0.000000 0.000000
0.000000 0.000000 0.000000
0.000000 0.000000 0.000000
0.000000 0.000000 0.000000
0.000000 0.000000 0.000000
0.000000 0.000000 0.000000
0.000000 0.000000 0.000000
0.000000 0.000000 0.000000
0.000000 0.000000 0.000000
0.000000 0.000000 0.000000
0.000000 0.000000 0.000000
0.000000 0.000000 0.000000
0.000000 0.000000 0.000000
0.000000 0.000000 0.000000
0.000000 0.000000 0.000000
0.000000 0.000000 0.000000
0.000000 0.000000 0.000000
0.000000 0.000000 0.000000
0.000000 0.000000 0.000000
0.000000 0.000000 0.000000
0.000000 0.000000 0.000000
0.000000 0.000000 0.000000
0.000000 0.000000 0.000000
0.000000 0.000000 0.000000
0.000000 0.000000 0.000000
0.000000 0.000000 0.000000
0.000000 0.000000 0.000000
0.000000 0.000000 0.000000
0.000000 0.000000 0.000000
0.000000 0.000000 0.000000
0.000000 0.000000 0.000000
0.000000 0.000000 0.000000
0.000000 0.000000 0.000000
0.000000 0.000000 0.000000
0.000000 0.000000 0.000000
0.000000 0.000000 0.000000
0.000000 0.000000 0.000000
0.000000 0.000000 0.000000
0.000000 0.000000 0.000000
