Ti96 Mo1
1.0
9.513020 0.000000 0.000000
0.000000 9.350860 0.000000
0.000000 0.000000 18.547230
Ti Mo
96 1
Selective dynamics
direct
0.144997 0.377949 0.399613 T T T Ti
0.650187 0.372955 0.398555 T T T Ti
0.164654 0.887003 0.395059 T T T Ti
0.650861 0.908530 0.406118 T T T Ti
0.162641 0.378139 0.236842 T T T Ti
0.660512 0.379468 0.234361 T T T Ti
0.157500 0.875751 0.235763 T T T Ti
0.660981 0.875372 0.233330 T T T Ti
0.166659 0.374988 0.077668 F F F Ti
0.666665 0.374975 0.077673 F F F Ti
0.166676 0.875020 0.077678 F F F Ti
0.666681 0.875021 0.077700 F F F Ti
0.410285 0.373111 0.317140 T T T Ti
0.907032 0.372690 0.312768 T T T Ti
0.411764 0.871214 0.317196 T T T Ti
0.898220 0.865831 0.324219 T T T Ti
0.416653 0.374964 0.155293 F F F Ti
0.916651 0.374967 0.155305 F F F Ti
0.416722 0.875054 0.155320 F F F Ti
0.916701 0.875055 0.155340 F F F Ti
0.416678 0.375014 -0.000010 F F F Ti
0.916651 0.375009 -0.000002 F F F Ti
0.416695 0.875001 -0.000005 F F F Ti
0.916649 0.875003 0.000003 F F F Ti
0.089715 0.126890 0.317139 T T T Ti
0.592968 0.127311 0.312767 T T T Ti
0.088236 0.628786 0.317195 T T T Ti
0.601780 0.634169 0.324218 T T T Ti
0.083348 0.125043 0.155293 F F F Ti
0.583348 0.125039 0.155305 F F F Ti
0.083279 0.624951 0.155321 F F F Ti
0.583299 0.624950 0.155341 F F F Ti
0.083324 0.124993 -0.000011 F F F Ti
0.583348 0.124998 -0.000003 F F F Ti
0.083305 0.625005 -0.000005 F F F Ti
0.583351 0.625003 0.000003 F F F Ti
0.355002 0.122051 0.399613 T T T Ti
0.849812 0.127045 0.398555 T T T Ti
0.335345 0.612997 0.395059 T T T Ti
0.849138 0.591470 0.406118 T T T Ti
0.337358 0.121862 0.236842 T T T Ti
0.839487 0.120532 0.234361 T T T Ti
0.342499 0.624251 0.235763 T T T Ti
0.839018 0.624629 0.233330 T T T Ti
0.333340 0.125018 0.077667 F F F Ti
0.833334 0.125031 0.077672 F F F Ti
0.333323 0.624986 0.077678 F F F Ti
0.833318 0.624984 0.077700 F F F Ti
0.374964 0.375029 0.823856 F F F Ti
0.875012 0.374956 0.823836 F F F Ti
0.375026 0.875000 0.823858 F F F Ti
0.874921 0.874952 0.823780 F F F Ti
0.125039 0.124969 0.823855 F F F Ti
0.624992 0.125042 0.823835 F F F Ti
0.124975 0.624997 0.823858 F F F Ti
0.625084 0.625046 0.823780 F F F Ti
0.124987 0.374977 0.910150 F F F Ti
0.625034 0.375020 0.910137 F F F Ti
0.124991 0.874995 0.910151 F F F Ti
0.625037 0.874982 0.910137 F F F Ti
0.375017 0.125025 0.910149 F F F Ti
0.874969 0.124979 0.910136 F F F Ti
0.375013 0.625003 0.910151 F F F Ti
0.874966 0.625019 0.910135 F F F Ti
0.393421 0.371917 0.646228 T T T Ti
0.886234 0.352492 0.659482 T T T Ti
0.376517 0.866456 0.667993 T T T Ti
0.890486 0.867327 0.652123 T T T Ti
0.106578 0.128081 0.646228 T T T Ti
0.613765 0.147505 0.659481 T T T Ti
0.123481 0.633540 0.667993 T T T Ti
0.609513 0.632671 0.652123 T T T Ti
0.142142 0.387749 0.574238 T T T Ti
0.656383 0.392218 0.570808 T T T Ti
0.152960 0.876052 0.573298 T T T Ti
0.595810 0.914945 0.579193 T T T Ti
0.357858 0.112251 0.574238 T T T Ti
0.843616 0.107782 0.570809 T T T Ti
0.347040 0.623948 0.573299 T T T Ti
0.904190 0.585054 0.579193 T T T Ti
0.383752 0.365461 0.488920 T T T Ti
0.901102 0.346033 0.489250 T T T Ti
0.392437 0.856747 0.480562 T T T Ti
-0.068116 -0.100333 0.479294 T T T Ti
0.116248 0.134539 0.488920 T T T Ti
0.598898 0.153967 0.489250 T T T Ti
0.107563 0.643252 0.480562 T T T Ti
0.568116 0.600333 0.479294 T T T Ti
0.125094 0.875162 0.737637 F F F Ti
0.625135 0.875035 0.737597 F F F Ti
0.374900 0.624824 0.737640 F F F Ti
0.874858 0.624953 0.737599 F F F Ti
0.125154 0.374775 0.737635 F F F Ti
0.624956 0.375426 0.737649 F F F Ti
0.374839 0.125214 0.737633 F F F Ti
0.875037 0.124558 0.737654 F F F Ti
0.750000 0.750000 0.523855 T T T Mo

0.000000 0.000000 0.000000
0.000000 0.000000 0.000000
0.000000 0.000000 0.000000
0.000000 0.000000 0.000000
0.000000 0.000000 0.000000
0.000000 0.000000 0.000000
0.000000 0.000000 0.000000
0.000000 0.000000 0.000000
0.000000 0.000000 0.000000
0.000000 0.000000 0.000000
0.000000 0.000000 0.000000
0.000000 0.000000 0.000000
0.000000 0.000000 0.000000
0.000000 0.000000 0.000000
0.000000 0.000000 0.000000
0.000000 0.000000 0.000000
0.000000 0.000000 0.000000
0.000000 0.000000 0.000000
0.000000 0.000000 0.000000
0.000000 0.000000 0.000000
0.000000 0.000000 0.000000
0.000000 0.000000 0.000000
0.000000 0.000000 0.000000
0.000000 0.000000 0.000000
0.000000 0.000000 0.000000
0.000000 0.000000 0.000000
0.000000 0.000000 0.000000
0.000000 0.000000 0.000000
0.000000 0.000000 0.000000
0.000000 0.000000 0.000000
0.000000 0.000000 0.000000
0.000000 0.000000 0.000000
0.000000 0.000000 0.000000
0.000000 0.000000 0.000000
0.000000 0.000000 0.000000
0.000000 0.000000 0.000000
0.000000 0.000000 0.000000
0.000000 0.000000 0.000000
0.000000 0.000000 0.000000
0.000000 0.000000 0.000000
0.000000 0.000000 0.000000
0.000000 0.000000 0.000000
0.000000 0.000000 0.000000
0.000000 0.000000 0.000000
0.000000 0.000000 0.000000
0.000000 0.000000 0.000000
0.000000 0.000000 0.000000
0.000000 0.000000 0.000000
0.000000 0.000000 0.000000
0.000000 0.000000 0.000000
0.000000 0.000000 0.000000
0.000000 0.000000 0.000000
0.000000 0.000000 0.000000
0.000000 0.000000 0.000000
0.000000 0.000000 0.000000
0.000000 0.000000 0.000000
0.000000 0.000000 0.000000
0.000000 0.000000 0.000000
0.000000 0.000000 0.000000
0.000000 0.000000 0.000000
0.000000 0.000000 0.000000
0.000000 0.000000 0.000000
0.000000 0.000000 0.000000
0.000000 0.000000 0.000000
0.000000 0.000000 0.000000
0.000000 0.000000 0.000000
0.000000 0.000000 0.000000
0.000000 0.000000 0.000000
0.000000 0.000000 0.000000
0.000000 0.000000 0.000000
0.000000 0.000000 0.000000
0.000000 0.000000 0.000000
0.000000 0.000000 0.000000
0.000000 0.000000 0.000000
0.000000 0.000000 0.000000
0.000000 0.000000 0.000000
0.000000 0.000000 0.000000
0.000000 0.000000 0.000000
0.000000 0.000000 0.000000
0.000000 0.000000 0.000000
0.000000 0.000000 0.000000
0.000000 0.000000 0.000000
0.000000 0.000000 0.000000
0.000000 0.000000 0.000000
0.000000 0.000000 0.000000
0.000000 0.000000 0.000000
0.000000 0.000000 0.000000
0.000000 0.000000 0.000000
0.000000 0.000000 0.000000
0.000000 0.000000 0.000000
0.000000 0.000000 0.000000
0.000000 0.000000 0.000000
0.000000 0.000000 0.000000
0.000000 0.000000 0.000000
0.000000 0.000000 0.000000
0.000000 0.000000 0.000000
0.000000 0.000000 0.000000
