total_Ti
1.0
8.805261 0.000000 0.000000
-4.402630 7.625580 0.000000
0.000000 0.000000 24.288801
Ti
72
direct
0.055556 0.944452 0.489605 Ti
0.055556 0.444452 0.489605 Ti
0.555556 0.944452 0.489605 Ti
0.555556 0.444452 0.489605 Ti
0.222223 0.277785 0.756076 Ti
0.222223 0.777785 0.756076 Ti
0.722223 0.277785 0.756076 Ti
0.722223 0.777785 0.756076 Ti
0.388889 0.111119 0.794143 Ti
0.388889 0.611119 0.794143 Ti
0.888889 0.111119 0.794143 Ti
0.888889 0.611119 0.794143 Ti
0.222223 0.277785 0.527673 Ti
0.222223 0.777785 0.527673 Ti
0.722223 0.277785 0.527673 Ti
0.722223 0.777785 0.527673 Ti
0.388889 0.111119 0.565740 Ti
0.388889 0.611119 0.565740 Ti
0.888889 0.111119 0.565740 Ti
0.888889 0.611119 0.565740 Ti
0.055556 0.944452 0.603807 Ti
0.055556 0.444452 0.603807 Ti
0.555556 0.944452 0.603807 Ti
0.555556 0.444452 0.603807 Ti
0.222223 0.277785 0.641874 Ti
0.222223 0.777785 0.641874 Ti
0.722223 0.277785 0.641874 Ti
0.722223 0.777785 0.641874 Ti
0.388889 0.111119 0.679941 Ti
0.388889 0.611119 0.679941 Ti
0.888889 0.111119 0.679941 Ti
0.888889 0.611119 0.679941 Ti
0.055556 0.944452 0.718009 Ti
0.055556 0.444452 0.718009 Ti
0.555556 0.944452 0.718009 Ti
0.555556 0.444452 0.718009 Ti
0.111111 0.888889 -0.000000 Ti
0.111111 0.888889 0.189166 Ti
0.111111 0.555556 -0.000000 Ti
0.222222 0.777778 0.094583 Ti
0.111111 0.555556 0.189166 Ti
0.444444 0.888889 -0.000000 Ti
0.111111 0.222222 -0.000000 Ti
0.222222 0.777778 0.283749 Ti
0.222222 0.444444 0.094583 Ti
0.444444 0.888889 0.189166 Ti
0.111111 0.222222 0.189166 Ti
0.444444 0.555556 -0.000000 Ti
0.222222 0.444444 0.283749 Ti
0.555556 0.777778 0.094583 Ti
0.222222 0.111111 0.094583 Ti
0.444444 0.555556 0.189166 Ti
0.777778 0.888889 -0.000000 Ti
0.444444 0.222222 -0.000000 Ti
0.555556 0.777778 0.283749 Ti
0.222222 0.111111 0.283749 Ti
0.555556 0.444444 0.094583 Ti
0.777778 0.888889 0.189166 Ti
0.444444 0.222222 0.189166 Ti
0.777778 0.555556 -0.000000 Ti
0.555556 0.444444 0.283749 Ti
0.888889 0.777778 0.094583 Ti
0.555556 0.111111 0.094583 Ti
0.777778 0.555556 0.189166 Ti
0.777778 0.222222 -0.000000 Ti
0.888889 0.777778 0.283749 Ti
0.555556 0.111111 0.283749 Ti
0.888889 0.444444 0.094583 Ti
0.777778 0.222222 0.189166 Ti
0.888889 0.444444 0.283749 Ti
0.888889 0.111111 0.094583 Ti
0.888889 0.111111 0.283749 Ti
