alpha_Ti
1.0
4.756512 0.000000 0.000000
0.000000 4.675432 0.000000
0.000000 0.000000 23.211800
Ti
12
direct
0.333333 0.750000 0.310385 Ti
0.333333 0.750000 0.186231 Ti
0.333333 0.750000 0.062077 Ti
0.833334 0.750000 0.248308 Ti
0.833334 0.750000 0.124154 Ti
0.833334 0.750000 -0.000000 Ti
0.166666 0.250000 0.248308 Ti
0.166666 0.250000 0.124154 Ti
0.166666 0.250000 -0.000000 Ti
0.666667 0.250000 0.310385 Ti
0.666667 0.250000 0.186231 Ti
0.666667 0.250000 0.062077 Ti
