Ti66 Cr1
1.0
6.309760 0.000000 0.000000
0.000000 9.464640 0.000000
0.000000 0.000000 18.918326
Ti Cr
66 1
Selective dynamics
direct
0.625606 0.056435 0.478910 T T T Ti
0.125042 0.047324 0.655469 T T T Ti
0.625032 0.047114 0.644937 T T T Ti
0.125005 0.041653 0.817180 F F F Ti
0.625004 0.041654 0.817176 F F F Ti
0.125082 0.396615 0.470443 T T T Ti
0.625252 0.354680 0.470307 T T T Ti
0.125011 0.384946 0.645657 T T T Ti
0.624984 0.356068 0.650032 T T T Ti
0.124996 0.375004 0.817187 F F F Ti
0.624994 0.374999 0.817185 F F F Ti
0.125075 0.700791 0.497101 T T T Ti
0.625069 0.723669 0.486373 T T T Ti
0.125014 0.708685 0.647304 T T T Ti
0.624986 0.716600 0.644765 T T T Ti
0.124995 0.708317 0.817157 F F F Ti
0.624996 0.708316 0.817162 F F F Ti
0.345933 0.207356 0.552134 T T T Ti
0.904081 0.207440 0.552187 T T T Ti
0.374959 0.208217 0.737935 F F F Ti
0.875046 0.208218 0.737938 F F F Ti
0.374998 0.208314 0.896442 F F F Ti
0.875002 0.208314 0.896442 F F F Ti
0.408313 0.526106 0.563594 T T T Ti
0.841714 0.526123 0.563599 T T T Ti
0.374995 0.541680 0.737907 F F F Ti
0.875006 0.541681 0.737907 F F F Ti
0.375002 0.541669 0.896444 F F F Ti
0.874996 0.541669 0.896444 F F F Ti
0.353252 0.898277 0.556284 T T T Ti
0.896736 0.898192 0.556329 T T T Ti
0.374997 0.874984 0.737907 F F F Ti
0.875008 0.874982 0.737909 F F F Ti
0.375004 0.874987 0.896442 F F F Ti
0.874996 0.874987 0.896442 F F F Ti
0.125112 0.621843 0.367752 T T T Ti
0.624890 0.569555 0.370857 T T T Ti
0.125011 0.625009 0.118889 F F F Ti
0.625005 0.624997 0.118880 F F F Ti
0.625228 0.054610 0.338587 T T T Ti
0.125002 0.124995 0.118868 F F F Ti
0.625004 0.124992 0.118863 F F F Ti
0.124999 0.375005 0.039617 F F F Ti
0.624999 0.375003 0.039614 F F F Ti
0.125002 0.874993 0.039619 F F F Ti
0.625000 0.874993 0.039620 F F F Ti
0.124992 0.381131 0.285105 T T T Ti
0.624960 0.350789 0.284181 T T T Ti
0.125070 0.883946 0.283803 T T T Ti
0.624835 0.815619 0.284509 T T T Ti
0.374955 0.874985 0.158503 F F F Ti
0.875043 0.874981 0.158506 F F F Ti
0.375020 0.375019 0.158493 F F F Ti
0.874984 0.375023 0.158492 F F F Ti
0.338767 0.214767 0.387450 T T T Ti
0.911227 0.214882 0.387403 T T T Ti
0.357781 0.871733 0.402459 T T T Ti
0.892162 0.871587 0.402416 T T T Ti
0.363945 0.617035 0.245809 T T T Ti
0.886042 0.617044 0.245814 T T T Ti
0.375001 0.625004 -0.000013 F F F Ti
0.874998 0.625005 -0.000013 F F F Ti
0.356269 0.129976 0.243283 T T T Ti
0.893757 0.129979 0.243269 T T T Ti
0.375005 0.124994 -0.000014 F F F Ti
0.874994 0.124994 -0.000014 F F F Ti
0.123760 0.049669 0.464032 T T T Cr

0.000000 0.000000 0.000000
0.000000 0.000000 0.000000
0.000000 0.000000 0.000000
0.000000 0.000000 0.000000
0.000000 0.000000 0.000000
0.000000 0.000000 0.000000
0.000000 0.000000 0.000000
0.000000 0.000000 0.000000
0.000000 0.000000 0.000000
0.000000 0.000000 0.000000
0.000000 0.000000 0.000000
0.000000 0.000000 0.000000
0.000000 0.000000 0.000000
0.000000 0.000000 0.000000
0.000000 0.000000 0.000000
0.000000 0.000000 0.000000
0.000000 0.000000 0.000000
0.000000 0.000000 0.000000
0.000000 0.000000 0.000000
0.000000 0.000000 0.000000
0.000000 0.000000 0.000000
0.000000 0.000000 0.000000
0.000000 0.000000 0.000000
0.000000 0.000000 0.000000
0.000000 0.000000 0.000000
0.000000 0.000000 0.000000
0.000000 0.000000 0.000000
0.000000 0.000000 0.000000
0.000000 0.000000 0.000000
0.000000 0.000000 0.000000
0.000000 0.000000 0.000000
0.000000 0.000000 0.000000
0.000000 0.000000 0.000000
0.000000 0.000000 0.000000
0.000000 0.000000 0.000000
0.000000 0.000000 0.000000
0.000000 0.000000 0.000000
0.000000 0.000000 0.000000
0.000000 0.000000 0.000000
0.000000 0.000000 0.000000
0.000000 0.000000 0.000000
0.000000 0.000000 0.000000
0.000000 0.000000 0.000000
0.000000 0.000000 0.000000
0.000000 0.000000 0.000000
0.000000 0.000000 0.000000
0.000000 0.000000 0.000000
0.000000 0.000000 0.000000
0.000000 0.000000 0.000000
0.000000 0.000000 0.000000
0.000000 0.000000 0.000000
0.000000 0.000000 0.000000
0.000000 0.000000 0.000000
0.000000 0.000000 0.000000
0.000000 0.000000 0.000000
0.000000 0.000000 0.000000
0.000000 0.000000 0.000000
0.000000 0.000000 0.000000
0.000000 0.000000 0.000000
0.000000 0.000000 0.000000
0.000000 0.000000 0.000000
0.000000 0.000000 0.000000
0.000000 0.000000 0.000000
0.000000 0.000000 0.000000
0.000000 0.000000 0.000000
0.000000 0.000000 0.000000
0.000000 0.000000 0.000000
