Ti97
1.0
9.513020 0.000000 0.000000
0.000000 9.350860 0.000000
0.000000 0.000000 18.547230
Ti
97
Selective dynamics
direct
0.145726 0.377610 0.400576 T T T Ti
0.651921 0.368711 0.395651 T T T Ti
0.165116 0.883513 0.399380 T T T Ti
0.646294 0.910425 0.397678 T T T Ti
0.164157 0.376612 0.235884 T T T Ti
0.660450 0.380854 0.235535 T T T Ti
0.157471 0.874968 0.235860 T T T Ti
0.659722 0.874145 0.234759 T T T Ti
0.166660 0.375000 0.077679 F F F Ti
0.666668 0.375004 0.077684 F F F Ti
0.166672 0.875001 0.077681 F F F Ti
0.666668 0.874998 0.077691 F F F Ti
0.407641 0.376853 0.318247 T T T Ti
0.912165 0.368032 0.310211 T T T Ti
0.408142 0.873498 0.316182 T T T Ti
0.901879 0.861940 0.326587 T T T Ti
0.416665 0.375010 0.155340 F F F Ti
0.916660 0.375022 0.155354 F F F Ti
0.416694 0.874989 0.155356 F F F Ti
0.916680 0.875027 0.155366 F F F Ti
0.416678 0.375015 -0.000007 F F F Ti
0.916656 0.375015 -0.000005 F F F Ti
0.416683 0.874995 -0.000006 F F F Ti
0.916653 0.874998 -0.000006 F F F Ti
0.092359 0.123147 0.318246 T T T Ti
0.587835 0.131968 0.310210 T T T Ti
0.091858 0.626502 0.316181 T T T Ti
0.598121 0.638060 0.326586 T T T Ti
0.083336 0.124993 0.155340 F F F Ti
0.583340 0.124980 0.155354 F F F Ti
0.083306 0.625013 0.155356 F F F Ti
0.583321 0.624975 0.155366 F F F Ti
0.083323 0.124990 -0.000007 F F F Ti
0.583344 0.124989 -0.000005 F F F Ti
0.083317 0.625008 -0.000006 F F F Ti
0.583347 0.625006 -0.000007 F F F Ti
0.354273 0.122390 0.400576 T T T Ti
0.848078 0.131289 0.395651 T T T Ti
0.334883 0.616487 0.399380 T T T Ti
0.853705 0.589575 0.397678 T T T Ti
0.335842 0.123388 0.235884 T T T Ti
0.839549 0.119146 0.235535 T T T Ti
0.342528 0.625032 0.235860 T T T Ti
0.840277 0.625856 0.234759 T T T Ti
0.333339 0.125003 0.077679 F F F Ti
0.833331 0.124999 0.077684 F F F Ti
0.333327 0.625002 0.077681 F F F Ti
0.833331 0.625004 0.077691 F F F Ti
0.374989 0.375004 0.823801 F F F Ti
0.875010 0.374981 0.823787 F F F Ti
0.375009 0.875014 0.823819 F F F Ti
0.874968 0.874976 0.823776 F F F Ti
0.125013 0.124996 0.823801 F F F Ti
0.624993 0.125018 0.823787 F F F Ti
0.124992 0.624984 0.823819 F F F Ti
0.625035 0.625022 0.823776 F F F Ti
0.124992 0.374990 0.910118 F F F Ti
0.625018 0.375010 0.910111 F F F Ti
0.124994 0.875000 0.910124 F F F Ti
0.625017 0.874993 0.910115 F F F Ti
0.375010 0.125012 0.910117 F F F Ti
0.874984 0.124991 0.910110 F F F Ti
0.375008 0.624999 0.910124 F F F Ti
0.874985 0.625007 0.910114 F F F Ti
0.393390 0.371011 0.645587 T T T Ti
0.888844 0.357615 0.662864 T T T Ti
0.379688 0.863671 0.665658 T T T Ti
0.893036 0.864668 0.649358 T T T Ti
0.106609 0.128988 0.645587 T T T Ti
0.611155 0.142384 0.662864 T T T Ti
0.120311 0.636327 0.665658 T T T Ti
0.606963 0.635331 0.649358 T T T Ti
0.140618 0.390618 0.573226 T T T Ti
0.655362 0.383131 0.575351 T T T Ti
0.155105 0.876224 0.570397 T T T Ti
0.610530 0.913327 0.581623 T T T Ti
0.359381 0.109381 0.573226 T T T Ti
0.844638 0.116869 0.575351 T T T Ti
0.344895 0.623775 0.570397 T T T Ti
0.889470 0.586672 0.581623 T T T Ti
0.385537 0.362762 0.488341 T T T Ti
0.900329 0.352860 0.489481 T T T Ti
0.409518 0.855993 0.480828 T T T Ti
0.930108 0.910350 0.481402 T T T Ti
0.114463 0.137237 0.488341 T T T Ti
0.599671 0.147140 0.489481 T T T Ti
0.090482 0.644007 0.480828 T T T Ti
0.569892 0.589650 0.481402 T T T Ti
0.125065 0.875051 0.737563 F F F Ti
0.625001 0.875101 0.737560 F F F Ti
0.374931 0.624940 0.737565 F F F Ti
0.874995 0.624890 0.737561 F F F Ti
0.125072 0.374884 0.737511 F F F Ti
0.625004 0.375200 0.737534 F F F Ti
0.374926 0.125111 0.737511 F F F Ti
0.874993 0.124792 0.737536 F F F Ti
0.750000 0.750000 0.508655 T T T Ti

0.000000 0.000000 0.000000
0.000000 0.000000 0.000000
0.000000 0.000000 0.000000
0.000000 0.000000 0.000000
0.000000 0.000000 0.000000
0.000000 0.000000 0.000000
0.000000 0.000000 0.000000
0.000000 0.000000 0.000000
0.000000 0.000000 0.000000
0.000000 0.000000 0.000000
0.000000 0.000000 0.000000
0.000000 0.000000 0.000000
0.000000 0.000000 0.000000
0.000000 0.000000 0.000000
0.000000 0.000000 0.000000
0.000000 0.000000 0.000000
0.000000 0.000000 0.000000
0.000000 0.000000 0.000000
0.000000 0.000000 0.000000
0.000000 0.000000 0.000000
0.000000 0.000000 0.000000
0.000000 0.000000 0.000000
0.000000 0.000000 0.000000
0.000000 0.000000 0.000000
0.000000 0.000000 0.000000
0.000000 0.000000 0.000000
0.000000 0.000000 0.000000
0.000000 0.000000 0.000000
0.000000 0.000000 0.000000
0.000000 0.000000 0.000000
0.000000 0.000000 0.000000
0.000000 0.000000 0.000000
0.000000 0.000000 0.000000
0.000000 0.000000 0.000000
0.000000 0.000000 0.000000
0.000000 0.000000 0.000000
0.000000 0.000000 0.000000
0.000000 0.000000 0.000000
0.000000 0.000000 0.000000
0.000000 0.000000 0.000000
0.000000 0.000000 0.000000
0.000000 0.000000 0.000000
0.000000 0.000000 0.000000
0.000000 0.000000 0.000000
0.000000 0.000000 0.000000
0.000000 0.000000 0.000000
0.000000 0.000000 0.000000
0.000000 0.000000 0.000000
0.000000 0.000000 0.000000
0.000000 0.000000 0.000000
0.000000 0.000000 0.000000
0.000000 0.000000 0.000000
0.000000 0.000000 0.000000
0.000000 0.000000 0.000000
0.000000 0.000000 0.000000
0.000000 0.000000 0.000000
0.000000 0.000000 0.000000
0.000000 0.000000 0.000000
0.000000 0.000000 0.000000
0.000000 0.000000 0.000000
0.000000 0.000000 0.000000
0.000000 0.000000 0.000000
0.000000 0.000000 0.000000
0.000000 0.000000 0.000000
0.000000 0.000000 0.000000
0.000000 0.000000 0.000000
0.000000 0.000000 0.000000
0.000000 0.000000 0.000000
0.000000 0.000000 0.000000
0.000000 0.000000 0.000000
0.000000 0.000000 0.000000
0.000000 0.000000 0.000000
0.000000 0.000000 0.000000
0.000000 0.000000 0.000000
0.000000 0.000000 0.000000
0.000000 0.000000 0.000000
0.000000 0.000000 0.000000
0.000000 0.000000 0.000000
0.000000 0.000000 0.000000
0.000000 0.000000 0.000000
0.000000 0.000000 0.000000
0.000000 0.000000 0.000000
0.000000 0.000000 0.000000
0.000000 0.000000 0.000000
0.000000 0.000000 0.000000
0.000000 0.000000 0.000000
0.000000 0.000000 0.000000
0.000000 0.000000 0.000000
0.000000 0.000000 0.000000
0.000000 0.000000 0.000000
0.000000 0.000000 0.000000
0.000000 0.000000 0.000000
0.000000 0.000000 0.000000
0.000000 0.000000 0.000000
0.000000 0.000000 0.000000
0.000000 0.000000 0.000000
0.000000 0.000000 0.000000
