Ti66 Sn1
1.0
6.309760 0.000000 0.000000
0.000000 9.464640 0.000000
0.000000 0.000000 18.918326
Ti Sn
66 1
Selective dynamics
direct
0.635071 0.038376 0.498929 F F F Ti
0.121481 0.039808 0.659861 F F F Ti
0.625558 0.040711 0.658936 F F F Ti
0.124762 0.041553 0.817369 F F F Ti
0.624654 0.041594 0.817314 F F F Ti
0.119793 0.380342 0.498997 F F F Ti
0.626538 0.376528 0.499473 F F F Ti
0.123643 0.375303 0.658737 F F F Ti
0.624025 0.375020 0.658666 F F F Ti
0.124908 0.374883 0.817224 F F F Ti
0.624664 0.374902 0.817240 F F F Ti
0.124815 0.708813 0.499995 F F F Ti
0.625208 0.707868 0.499840 F F F Ti
0.124746 0.707861 0.658831 F F F Ti
0.624979 0.707790 0.658879 F F F Ti
0.124930 0.708106 0.817341 F F F Ti
0.624732 0.708071 0.817380 F F F Ti
0.869949 0.209196 0.579676 F F F Ti
0.374462 0.208051 0.737830 F F F Ti
0.874145 0.208397 0.738115 F F F Ti
0.374914 0.208296 0.896470 F F F Ti
0.874838 0.208325 0.896523 F F F Ti
0.374695 0.541814 0.579304 F F F Ti
0.873860 0.542323 0.579570 F F F Ti
0.374764 0.541430 0.737978 F F F Ti
0.874630 0.541493 0.738097 F F F Ti
0.374926 0.541517 0.896517 F F F Ti
0.874904 0.541520 0.896540 F F F Ti
0.376509 0.872487 0.579676 F F F Ti
0.875270 0.874113 0.579610 F F F Ti
0.374965 0.874594 0.738124 F F F Ti
0.874210 0.874322 0.738291 F F F Ti
0.374948 0.874925 0.896544 F F F Ti
0.874840 0.874909 0.896580 F F F Ti
0.125042 0.625056 0.356686 F F F Ti
0.624751 0.625074 0.356625 F F F Ti
0.125015 0.624996 0.118902 F F F Ti
0.624965 0.624997 0.118897 F F F Ti
0.125081 0.125130 0.356697 F F F Ti
0.625688 0.124901 0.356412 F F F Ti
0.125027 0.124979 0.118893 F F F Ti
0.624983 0.124975 0.118885 F F F Ti
0.125009 0.374954 0.039597 F F F Ti
0.624924 0.374960 0.039602 F F F Ti
0.125003 0.874999 0.039629 F F F Ti
0.624923 0.874993 0.039635 F F F Ti
0.124931 0.375032 0.277310 F F F Ti
0.624909 0.375052 0.277214 F F F Ti
0.125162 0.875043 0.277436 F F F Ti
0.625124 0.874914 0.277375 F F F Ti
0.375006 0.874985 0.158529 F F F Ti
0.875039 0.874972 0.158518 F F F Ti
0.374977 0.374994 0.158476 F F F Ti
0.875025 0.375004 0.158459 F F F Ti
0.374996 0.375684 0.396028 F F F Ti
0.873871 0.375245 0.395798 F F F Ti
0.375308 0.874905 0.396353 F F F Ti
0.876064 0.874488 0.396142 F F F Ti
0.374968 0.625003 0.237780 F F F Ti
0.875047 0.625001 0.237764 F F F Ti
0.374979 0.624953 0.000024 F F F Ti
0.874979 0.624956 0.000040 F F F Ti
0.375003 0.124983 0.237778 F F F Ti
0.875147 0.124962 0.237721 F F F Ti
0.374989 0.124974 0.000009 F F F Ti
0.874963 0.124964 0.000035 F F F Ti
0.310281 0.164380 0.552658 T T T Sn

0.000000 0.000000 0.000000
0.000000 0.000000 0.000000
0.000000 0.000000 0.000000
0.000000 0.000000 0.000000
0.000000 0.000000 0.000000
0.000000 0.000000 0.000000
0.000000 0.000000 0.000000
0.000000 0.000000 0.000000
0.000000 0.000000 0.000000
0.000000 0.000000 0.000000
0.000000 0.000000 0.000000
0.000000 0.000000 0.000000
0.000000 0.000000 0.000000
0.000000 0.000000 0.000000
0.000000 0.000000 0.000000
0.000000 0.000000 0.000000
0.000000 0.000000 0.000000
0.000000 0.000000 0.000000
0.000000 0.000000 0.000000
0.000000 0.000000 0.000000
0.000000 0.000000 0.000000
0.000000 0.000000 0.000000
0.000000 0.000000 0.000000
0.000000 0.000000 0.000000
0.000000 0.000000 0.000000
0.000000 0.000000 0.000000
0.000000 0.000000 0.000000
0.000000 0.000000 0.000000
0.000000 0.000000 0.000000
0.000000 0.000000 0.000000
0.000000 0.000000 0.000000
0.000000 0.000000 0.000000
0.000000 0.000000 0.000000
0.000000 0.000000 0.000000
0.000000 0.000000 0.000000
0.000000 0.000000 0.000000
0.000000 0.000000 0.000000
0.000000 0.000000 0.000000
0.000000 0.000000 0.000000
0.000000 0.000000 0.000000
0.000000 0.000000 0.000000
0.000000 0.000000 0.000000
0.000000 0.000000 0.000000
0.000000 0.000000 0.000000
0.000000 0.000000 0.000000
0.000000 0.000000 0.000000
0.000000 0.000000 0.000000
0.000000 0.000000 0.000000
0.000000 0.000000 0.000000
0.000000 0.000000 0.000000
0.000000 0.000000 0.000000
0.000000 0.000000 0.000000
0.000000 0.000000 0.000000
0.000000 0.000000 0.000000
0.000000 0.000000 0.000000
0.000000 0.000000 0.000000
0.000000 0.000000 0.000000
0.000000 0.000000 0.000000
0.000000 0.000000 0.000000
0.000000 0.000000 0.000000
0.000000 0.000000 0.000000
0.000000 0.000000 0.000000
0.000000 0.000000 0.000000
0.000000 0.000000 0.000000
0.000000 0.000000 0.000000
0.000000 0.000000 0.000000
0.000000 0.000000 0.000000
