beta_Ti
1.0
9.445957 0.000000 0.000000
0.000000 9.093951 0.000000
0.000000 0.000000 20.211864
Ti
48
direct
0.375000 0.375000 0.797076 Ti
0.875000 0.375000 0.797076 Ti
0.375000 0.875000 0.797076 Ti
0.875000 0.875000 0.797076 Ti
0.125000 0.125000 0.797076 Ti
0.625000 0.125000 0.797076 Ti
0.125000 0.625000 0.797076 Ti
0.625000 0.625000 0.797076 Ti
0.125000 0.375000 0.876309 Ti
0.625000 0.375000 0.876309 Ti
0.125000 0.875000 0.876309 Ti
0.625000 0.875000 0.876309 Ti
0.375000 0.125000 0.876309 Ti
0.875000 0.125000 0.876309 Ti
0.375000 0.625000 0.876309 Ti
0.875000 0.625000 0.876309 Ti
0.375000 0.375000 0.638609 Ti
0.875000 0.375000 0.638609 Ti
0.375000 0.875000 0.638609 Ti
0.875000 0.875000 0.638609 Ti
0.125000 0.125000 0.638609 Ti
0.625000 0.125000 0.638609 Ti
0.125000 0.625000 0.638609 Ti
0.625000 0.625000 0.638609 Ti
0.125000 0.375000 0.559377 Ti
0.625000 0.375000 0.559377 Ti
0.125000 0.875000 0.559377 Ti
0.625000 0.875000 0.559377 Ti
0.375000 0.125000 0.559377 Ti
0.875000 0.125000 0.559377 Ti
0.375000 0.625000 0.559377 Ti
0.875000 0.625000 0.559377 Ti
0.375000 0.375000 0.480143 Ti
0.875000 0.375000 0.480143 Ti
0.375000 0.875000 0.480143 Ti
0.875000 0.875000 0.480143 Ti
0.125000 0.125000 0.480143 Ti
0.625000 0.125000 0.480143 Ti
0.125000 0.625000 0.480143 Ti
0.625000 0.625000 0.480143 Ti
0.125000 0.875000 0.717843 Ti
0.625000 0.875000 0.717843 Ti
0.375000 0.625000 0.717843 Ti
0.875000 0.625000 0.717843 Ti
0.125000 0.375000 0.717843 Ti
0.625000 0.375000 0.717843 Ti
0.375000 0.125000 0.717843 Ti
0.875000 0.125000 0.717843 Ti
