Zr1 Ti66
1.0
6.309760 0.000000 0.000000
0.000000 9.464640 0.000000
0.000000 0.000000 18.918326
Ti Zr
66 1
Selective dynamics
direct
0.124403 0.041320 0.499419 F F F Ti
0.625082 0.041592 0.499939 F F F Ti
0.626455 0.041428 0.658699 F F F Ti
0.125013 0.041674 0.817184 F F F Ti
0.625143 0.041619 0.817216 F F F Ti
0.124940 0.375086 0.499962 F F F Ti
0.624853 0.375064 0.499969 F F F Ti
0.124648 0.375864 0.658691 F F F Ti
0.625062 0.375121 0.658608 F F F Ti
0.124950 0.375087 0.817211 F F F Ti
0.625142 0.375120 0.817224 F F F Ti
0.124947 0.708218 0.499954 F F F Ti
0.625120 0.708211 0.499940 F F F Ti
0.125002 0.708318 0.658577 F F F Ti
0.625122 0.708243 0.658600 F F F Ti
0.124996 0.708346 0.817167 F F F Ti
0.625042 0.708335 0.817179 F F F Ti
0.873291 0.208879 0.579035 F F F Ti
0.375987 0.208918 0.738412 F F F Ti
0.874819 0.208490 0.737953 F F F Ti
0.375017 0.208350 0.896489 F F F Ti
0.874997 0.208342 0.896461 F F F Ti
0.375028 0.541657 0.579281 F F F Ti
0.874911 0.541757 0.579267 F F F Ti
0.375060 0.541768 0.737900 F F F Ti
0.874925 0.541757 0.737905 F F F Ti
0.375006 0.541696 0.896460 F F F Ti
0.874996 0.541692 0.896460 F F F Ti
0.375860 0.873974 0.579048 F F F Ti
0.874853 0.874834 0.579223 F F F Ti
0.375212 0.874859 0.737935 F F F Ti
0.875140 0.874988 0.737875 F F F Ti
0.375006 0.874994 0.896456 F F F Ti
0.875015 0.874996 0.896449 F F F Ti
0.125002 0.625019 0.356801 F F F Ti
0.624964 0.625009 0.356793 F F F Ti
0.125001 0.625011 0.118923 F F F Ti
0.624992 0.625010 0.118925 F F F Ti
0.124997 0.125024 0.356736 F F F Ti
0.624981 0.125005 0.356778 F F F Ti
0.125000 0.125000 0.118921 F F F Ti
0.624990 0.125001 0.118923 F F F Ti
0.124996 0.375007 0.039650 F F F Ti
0.625003 0.375008 0.039652 F F F Ti
0.124997 0.875000 0.039645 F F F Ti
0.625003 0.874998 0.039647 F F F Ti
0.124999 0.375011 0.277500 F F F Ti
0.624992 0.375005 0.277501 F F F Ti
0.124997 0.874992 0.277491 F F F Ti
0.624994 0.874997 0.277493 F F F Ti
0.375001 0.874998 0.158572 F F F Ti
0.874996 0.874998 0.158571 F F F Ti
0.375000 0.375005 0.158575 F F F Ti
0.874999 0.375005 0.158574 F F F Ti
0.374995 0.374997 0.396429 F F F Ti
0.874963 0.375024 0.396414 F F F Ti
0.375055 0.874952 0.396393 F F F Ti
0.874913 0.874938 0.396389 F F F Ti
0.374996 0.625005 0.237865 F F F Ti
0.875001 0.625004 0.237864 F F F Ti
0.374997 0.625018 0.000002 F F F Ti
0.875004 0.625016 0.000001 F F F Ti
0.375007 0.125003 0.237854 F F F Ti
0.874988 0.125003 0.237852 F F F Ti
0.375002 0.124994 0.000015 F F F Ti
0.874996 0.124999 0.000007 F F F Ti
0.214166 0.103009 0.628783 T T T Zr

0.000000 0.000000 0.000000
0.000000 0.000000 0.000000
0.000000 0.000000 0.000000
0.000000 0.000000 0.000000
0.000000 0.000000 0.000000
0.000000 0.000000 0.000000
0.000000 0.000000 0.000000
0.000000 0.000000 0.000000
0.000000 0.000000 0.000000
0.000000 0.000000 0.000000
0.000000 0.000000 0.000000
0.000000 0.000000 0.000000
0.000000 0.000000 0.000000
0.000000 0.000000 0.000000
0.000000 0.000000 0.000000
0.000000 0.000000 0.000000
0.000000 0.000000 0.000000
0.000000 0.000000 0.000000
0.000000 0.000000 0.000000
0.000000 0.000000 0.000000
0.000000 0.000000 0.000000
0.000000 0.000000 0.000000
0.000000 0.000000 0.000000
0.000000 0.000000 0.000000
0.000000 0.000000 0.000000
0.000000 0.000000 0.000000
0.000000 0.000000 0.000000
0.000000 0.000000 0.000000
0.000000 0.000000 0.000000
0.000000 0.000000 0.000000
0.000000 0.000000 0.000000
0.000000 0.000000 0.000000
0.000000 0.000000 0.000000
0.000000 0.000000 0.000000
0.000000 0.000000 0.000000
0.000000 0.000000 0.000000
0.000000 0.000000 0.000000
0.000000 0.000000 0.000000
0.000000 0.000000 0.000000
0.000000 0.000000 0.000000
0.000000 0.000000 0.000000
0.000000 0.000000 0.000000
0.000000 0.000000 0.000000
0.000000 0.000000 0.000000
0.000000 0.000000 0.000000
0.000000 0.000000 0.000000
0.000000 0.000000 0.000000
0.000000 0.000000 0.000000
0.000000 0.000000 0.000000
0.000000 0.000000 0.000000
0.000000 0.000000 0.000000
0.000000 0.000000 0.000000
0.000000 0.000000 0.000000
0.000000 0.000000 0.000000
0.000000 0.000000 0.000000
0.000000 0.000000 0.000000
0.000000 0.000000 0.000000
0.000000 0.000000 0.000000
0.000000 0.000000 0.000000
0.000000 0.000000 0.000000
0.000000 0.000000 0.000000
0.000000 0.000000 0.000000
0.000000 0.000000 0.000000
0.000000 0.000000 0.000000
0.000000 0.000000 0.000000
0.000000 0.000000 0.000000
0.000000 0.000000 0.000000
