total_Ti
1.0
6.391540 0.000000 0.000000
0.000000 9.587310 0.000000
0.000000 0.000000 29.750000
Ti
84
direct
0.125000 0.083333 0.563025 Ti
0.625000 0.083333 0.563025 Ti
0.125000 0.083333 0.663866 Ti
0.625000 0.083333 0.663866 Ti
0.125000 0.083333 0.764706 Ti
0.625000 0.083333 0.764706 Ti
0.125000 0.416667 0.563025 Ti
0.625000 0.416667 0.563025 Ti
0.125000 0.416667 0.663866 Ti
0.625000 0.416667 0.663866 Ti
0.125000 0.416667 0.764706 Ti
0.625000 0.416667 0.764706 Ti
0.125000 0.750000 0.563025 Ti
0.625000 0.750000 0.563025 Ti
0.125000 0.750000 0.663866 Ti
0.625000 0.750000 0.663866 Ti
0.125000 0.750000 0.764706 Ti
0.625000 0.750000 0.764706 Ti
0.375000 0.250000 0.613445 Ti
0.875000 0.250000 0.613445 Ti
0.375000 0.250000 0.714286 Ti
0.875000 0.250000 0.714286 Ti
0.375000 0.250000 0.815126 Ti
0.875000 0.250000 0.815126 Ti
0.375000 0.583333 0.613445 Ti
0.875000 0.583333 0.613445 Ti
0.375000 0.583333 0.714286 Ti
0.875000 0.583333 0.714286 Ti
0.375000 0.583333 0.815126 Ti
0.875000 0.583333 0.815126 Ti
0.375000 0.916667 0.613445 Ti
0.875000 0.916667 0.613445 Ti
0.375000 0.916667 0.714286 Ti
0.875000 0.916667 0.714286 Ti
0.375000 0.916667 0.815126 Ti
0.875000 0.916667 0.815126 Ti
0.125000 0.166667 0.302521 Ti
0.625000 0.166667 0.302521 Ti
0.125000 0.666667 0.302521 Ti
0.625000 0.666667 0.302521 Ti
0.125000 0.166667 -0.000000 Ti
0.625000 0.166667 -0.000000 Ti
0.125000 0.666667 -0.000000 Ti
0.625000 0.666667 -0.000000 Ti
0.125000 0.833333 0.075630 Ti
0.625000 0.833333 0.075630 Ti
0.125000 0.833333 0.378151 Ti
0.625000 0.833333 0.378151 Ti
0.125000 0.333333 0.075630 Ti
0.625000 0.333333 0.075630 Ti
0.125000 0.333333 0.378151 Ti
0.625000 0.333333 0.378151 Ti
0.375000 0.583333 0.378151 Ti
0.875000 0.583333 0.378151 Ti
0.374999 0.583333 0.075630 Ti
0.874999 0.583333 0.075630 Ti
0.375000 0.083333 0.075630 Ti
0.875000 0.083333 0.075630 Ti
0.375000 0.083333 0.378151 Ti
0.875000 0.083333 0.378151 Ti
0.375000 0.416667 0.302521 Ti
0.875000 0.416667 0.302521 Ti
0.375000 0.916667 0.302521 Ti
0.875000 0.916667 0.302521 Ti
0.375000 0.416667 -0.000000 Ti
0.875000 0.416667 -0.000000 Ti
0.375000 0.916667 -0.000000 Ti
0.875000 0.916667 -0.000000 Ti
0.375000 0.083333 0.226891 Ti
0.875000 0.083333 0.226891 Ti
0.125000 0.166667 0.151261 Ti
0.625000 0.166667 0.151261 Ti
0.125000 0.333333 0.226891 Ti
0.625000 0.333333 0.226891 Ti
0.375000 0.416667 0.151261 Ti
0.875000 0.416667 0.151261 Ti
0.374999 0.583333 0.226891 Ti
0.874999 0.583333 0.226891 Ti
0.125000 0.666667 0.151261 Ti
0.625000 0.666667 0.151261 Ti
0.125000 0.833333 0.226891 Ti
0.625000 0.833333 0.226891 Ti
0.375000 0.916667 0.151261 Ti
0.875000 0.916667 0.151261 Ti
