Ti66 Cr1
1.0
6.309760 0.000000 0.000000
0.000000 9.464640 0.000000
0.000000 0.000000 18.918326
Ti Cr
66 1
Selective dynamics
direct
0.630024 0.041694 0.499932 F F F Ti
0.125182 0.042257 0.658516 F F F Ti
0.625285 0.041876 0.658635 F F F Ti
0.125123 0.041855 0.817116 F F F Ti
0.625067 0.041819 0.817155 F F F Ti
0.125775 0.378759 0.500373 F F F Ti
0.626209 0.375716 0.500050 F F F Ti
0.125585 0.375873 0.658844 F F F Ti
0.625171 0.376075 0.658926 F F F Ti
0.125131 0.375247 0.817210 F F F Ti
0.625059 0.375265 0.817233 F F F Ti
0.125087 0.708318 0.499740 F F F Ti
0.624902 0.707801 0.500163 F F F Ti
0.125344 0.708996 0.658561 F F F Ti
0.624810 0.708877 0.658680 F F F Ti
0.125091 0.708640 0.817145 F F F Ti
0.625018 0.708638 0.817163 F F F Ti
0.377509 0.209899 0.579820 F F F Ti
0.873191 0.210814 0.580442 F F F Ti
0.375264 0.208627 0.737940 F F F Ti
0.875099 0.208694 0.738039 F F F Ti
0.375029 0.208394 0.896373 F F F Ti
0.875100 0.208404 0.896386 F F F Ti
0.375395 0.542793 0.579375 F F F Ti
0.875240 0.542734 0.579460 F F F Ti
0.375057 0.542238 0.737936 F F F Ti
0.875221 0.542221 0.737949 F F F Ti
0.375028 0.541857 0.896354 F F F Ti
0.875086 0.541853 0.896355 F F F Ti
0.375237 0.875786 0.578921 F F F Ti
0.874612 0.874629 0.579560 F F F Ti
0.375009 0.875390 0.737778 F F F Ti
0.875164 0.875312 0.737886 F F F Ti
0.375008 0.875157 0.896328 F F F Ti
0.875102 0.875152 0.896345 F F F Ti
0.125725 0.623949 0.356336 F F F Ti
0.624495 0.622665 0.356165 F F F Ti
0.125128 0.624741 0.118685 F F F Ti
0.625003 0.624722 0.118645 F F F Ti
0.627940 0.124479 0.356620 F F F Ti
0.125222 0.124852 0.118871 F F F Ti
0.625001 0.124876 0.118841 F F F Ti
0.125055 0.374886 0.039541 F F F Ti
0.624986 0.374891 0.039534 F F F Ti
0.125096 0.874972 0.039468 F F F Ti
0.625009 0.874977 0.039468 F F F Ti
0.125173 0.374369 0.277465 F F F Ti
0.625291 0.374219 0.277269 F F F Ti
0.125249 0.874167 0.277243 F F F Ti
0.624822 0.874383 0.276356 F F F Ti
0.374799 0.874821 0.158273 F F F Ti
0.875374 0.874746 0.158230 F F F Ti
0.375019 0.374573 0.158465 F F F Ti
0.875179 0.374645 0.158403 F F F Ti
0.376221 0.375458 0.396407 F F F Ti
0.874618 0.376592 0.396325 F F F Ti
0.382519 0.870003 0.395069 F F F Ti
0.864830 0.866698 0.394306 F F F Ti
0.375079 0.624331 0.237420 F F F Ti
0.875133 0.624239 0.237395 F F F Ti
0.375011 0.624976 -0.000122 F F F Ti
0.875038 0.624977 -0.000116 F F F Ti
0.374984 0.124562 0.237987 F F F Ti
0.875582 0.124553 0.237703 F F F Ti
0.375028 0.124989 -0.000079 F F F Ti
0.875065 0.124985 -0.000072 F F F Ti
0.110111 0.039219 0.461297 T T T Cr
