Zr1 Ti96
1.0
9.513020 0.000000 0.000000
0.000000 9.350860 0.000000
0.000000 0.000000 18.547230
Ti Zr
96 1
Selective dynamics
direct
0.148249 0.380308 0.403968 T T T Ti
0.646651 0.333638 0.408262 T T T Ti
0.129821 0.853025 0.414982 T T T Ti
0.672903 0.876984 0.411078 T T T Ti
0.151442 0.367082 0.240178 T T T Ti
0.651069 0.363175 0.238486 T T T Ti
0.159639 0.866909 0.231807 T T T Ti
0.678633 0.894220 0.231021 T T T Ti
0.166710 0.375117 0.077433 F F F Ti
0.666733 0.374990 0.077364 F F F Ti
0.166744 0.875001 0.077432 F F F Ti
0.666576 0.874923 0.077485 F F F Ti
0.411547 0.393947 0.324723 T T T Ti
0.900331 0.372666 0.323885 T T T Ti
0.334728 0.934953 0.335905 T T T Ti
0.912541 0.875240 0.316914 T T T Ti
0.416757 0.375256 0.154939 F F F Ti
0.916814 0.374869 0.154917 F F F Ti
0.416583 0.875010 0.155276 F F F Ti
0.916680 0.875059 0.154863 F F F Ti
0.416674 0.375047 -0.000143 F F F Ti
0.916666 0.374987 -0.000177 F F F Ti
0.416665 0.874969 -0.000066 F F F Ti
0.916659 0.874980 -0.000179 F F F Ti
0.099669 0.127336 0.323883 T T T Ti
0.588453 0.106055 0.324722 T T T Ti
0.087459 0.624762 0.316913 T T T Ti
0.665272 0.565048 0.335904 T T T Ti
0.083185 0.125157 0.154915 F F F Ti
0.583242 0.124770 0.154941 F F F Ti
0.083321 0.624969 0.154863 F F F Ti
0.583419 0.625001 0.155275 F F F Ti
0.083335 0.125015 -0.000178 F F F Ti
0.583327 0.124961 -0.000142 F F F Ti
0.083342 0.625025 -0.000179 F F F Ti
0.583337 0.625029 -0.000068 F F F Ti
0.353348 0.166363 0.408262 T T T Ti
0.851750 0.119693 0.403968 T T T Ti
0.327096 0.623017 0.411078 T T T Ti
0.870178 0.646975 0.414982 T T T Ti
0.348930 0.136830 0.238486 T T T Ti
0.848557 0.132923 0.240178 T T T Ti
0.321366 0.605785 0.231021 T T T Ti
0.840361 0.633097 0.231807 T T T Ti
0.333267 0.125029 0.077364 F F F Ti
0.833289 0.124899 0.077435 F F F Ti
0.333422 0.625093 0.077484 F F F Ti
0.833256 0.625016 0.077431 F F F Ti
0.375044 0.375090 0.823744 F F F Ti
0.874929 0.374937 0.823731 F F F Ti
0.375037 0.874994 0.823673 F F F Ti
0.874919 0.874940 0.823712 F F F Ti
0.125070 0.125046 0.823730 F F F Ti
0.624963 0.124903 0.823746 F F F Ti
0.125084 0.625050 0.823711 F F F Ti
0.624966 0.624994 0.823673 F F F Ti
0.125033 0.375086 0.910030 F F F Ti
0.624994 0.375077 0.910074 F F F Ti
0.125061 0.874963 0.910032 F F F Ti
0.624951 0.874909 0.910109 F F F Ti
0.375010 0.124910 0.910076 F F F Ti
0.874973 0.124904 0.910030 F F F Ti
0.375050 0.625072 0.910108 F F F Ti
0.874945 0.625024 0.910031 F F F Ti
0.395305 0.385792 0.653935 T T T Ti
0.897478 0.379307 0.653891 T T T Ti
0.397403 0.886846 0.651627 T T T Ti
0.888528 0.885307 0.660447 T T T Ti
0.102521 0.120689 0.653891 T T T Ti
0.604694 0.114203 0.653935 T T T Ti
0.111469 0.614688 0.660447 T T T Ti
0.602597 0.613150 0.651628 T T T Ti
0.149169 0.366772 0.573676 T T T Ti
0.651501 0.356170 0.575499 T T T Ti
0.142059 0.867654 0.581770 T T T Ti
0.651079 0.860868 0.573593 T T T Ti
0.348499 0.143829 0.575499 T T T Ti
0.850831 0.133227 0.573676 T T T Ti
0.348921 0.639131 0.573593 T T T Ti
0.857940 0.632344 0.581771 T T T Ti
0.402204 0.392404 0.495672 T T T Ti
0.897460 0.372892 0.486066 T T T Ti
0.377277 0.906796 0.491193 T T T Ti
0.907103 0.888329 0.499342 T T T Ti
0.102540 0.127108 0.486066 T T T Ti
0.597796 0.107596 0.495672 T T T Ti
0.092897 0.611670 0.499342 T T T Ti
0.622723 0.593204 0.491193 T T T Ti
0.125130 0.875254 0.737544 F F F Ti
0.624835 0.874839 0.737512 F F F Ti
0.375157 0.625142 0.737507 F F F Ti
0.874864 0.624725 0.737550 F F F Ti
0.124961 0.374997 0.737516 F F F Ti
0.624994 0.374870 0.737560 F F F Ti
0.374997 0.125108 0.737559 F F F Ti
0.875035 0.124985 0.737516 F F F Ti
0.500000 0.750000 0.336292 T T T Zr

0.000000 0.000000 0.000000
0.000000 0.000000 0.000000
0.000000 0.000000 0.000000
0.000000 0.000000 0.000000
0.000000 0.000000 0.000000
0.000000 0.000000 0.000000
0.000000 0.000000 0.000000
0.000000 0.000000 0.000000
0.000000 0.000000 0.000000
0.000000 0.000000 0.000000
0.000000 0.000000 0.000000
0.000000 0.000000 0.000000
0.000000 0.000000 0.000000
0.000000 0.000000 0.000000
0.000000 0.000000 0.000000
0.000000 0.000000 0.000000
0.000000 0.000000 0.000000
0.000000 0.000000 0.000000
0.000000 0.000000 0.000000
0.000000 0.000000 0.000000
0.000000 0.000000 0.000000
0.000000 0.000000 0.000000
0.000000 0.000000 0.000000
0.000000 0.000000 0.000000
0.000000 0.000000 0.000000
0.000000 0.000000 0.000000
0.000000 0.000000 0.000000
0.000000 0.000000 0.000000
0.000000 0.000000 0.000000
0.000000 0.000000 0.000000
0.000000 0.000000 0.000000
0.000000 0.000000 0.000000
0.000000 0.000000 0.000000
0.000000 0.000000 0.000000
0.000000 0.000000 0.000000
0.000000 0.000000 0.000000
0.000000 0.000000 0.000000
0.000000 0.000000 0.000000
0.000000 0.000000 0.000000
0.000000 0.000000 0.000000
0.000000 0.000000 0.000000
0.000000 0.000000 0.000000
0.000000 0.000000 0.000000
0.000000 0.000000 0.000000
0.000000 0.000000 0.000000
0.000000 0.000000 0.000000
0.000000 0.000000 0.000000
0.000000 0.000000 0.000000
0.000000 0.000000 0.000000
0.000000 0.000000 0.000000
0.000000 0.000000 0.000000
0.000000 0.000000 0.000000
0.000000 0.000000 0.000000
0.000000 0.000000 0.000000
0.000000 0.000000 0.000000
0.000000 0.000000 0.000000
0.000000 0.000000 0.000000
0.000000 0.000000 0.000000
0.000000 0.000000 0.000000
0.000000 0.000000 0.000000
0.000000 0.000000 0.000000
0.000000 0.000000 0.000000
0.000000 0.000000 0.000000
0.000000 0.000000 0.000000
0.000000 0.000000 0.000000
0.000000 0.000000 0.000000
0.000000 0.000000 0.000000
0.000000 0.000000 0.000000
0.000000 0.000000 0.000000
0.000000 0.000000 0.000000
0.000000 0.000000 0.000000
0.000000 0.000000 0.000000
0.000000 0.000000 0.000000
0.000000 0.000000 0.000000
0.000000 0.000000 0.000000
0.000000 0.000000 0.000000
0.000000 0.000000 0.000000
0.000000 0.000000 0.000000
0.000000 0.000000 0.000000
0.000000 0.000000 0.000000
0.000000 0.000000 0.000000
0.000000 0.000000 0.000000
0.000000 0.000000 0.000000
0.000000 0.000000 0.000000
0.000000 0.000000 0.000000
0.000000 0.000000 0.000000
0.000000 0.000000 0.000000
0.000000 0.000000 0.000000
0.000000 0.000000 0.000000
0.000000 0.000000 0.000000
0.000000 0.000000 0.000000
0.000000 0.000000 0.000000
0.000000 0.000000 0.000000
0.000000 0.000000 0.000000
0.000000 0.000000 0.000000
0.000000 0.000000 0.000000
0.000000 0.000000 0.000000
