beta_Ti
1.0
5.745590 0.000000 0.000000
0.000000 9.072750 0.000000
0.000000 0.000000 20.667173
Ti
28
direct
0.458333 0.625000 0.629451 Ti
0.458333 0.125000 0.629451 Ti
0.958333 0.625000 0.629451 Ti
0.958333 0.125000 0.629451 Ti
0.125000 0.625000 0.757907 Ti
0.125000 0.125000 0.757907 Ti
0.625000 0.625000 0.757907 Ti
0.625000 0.125000 0.757907 Ti
0.291667 0.625000 0.886364 Ti
0.291667 0.125000 0.886365 Ti
0.791667 0.625000 0.886364 Ti
0.791667 0.125000 0.886365 Ti
0.125000 0.875000 0.565222 Ti
0.125000 0.375000 0.565222 Ti
0.625000 0.875000 0.565222 Ti
0.625000 0.375000 0.565222 Ti
0.291667 0.875000 0.693679 Ti
0.291667 0.375000 0.693679 Ti
0.791667 0.875000 0.693679 Ti
0.791667 0.375000 0.693679 Ti
0.458333 0.875000 0.822136 Ti
0.458333 0.375000 0.822136 Ti
0.958333 0.875000 0.822136 Ti
0.958333 0.375000 0.822136 Ti
0.125000 0.875000 0.950593 Ti
0.125000 0.375000 0.950593 Ti
0.625000 0.875000 0.950593 Ti
0.625000 0.375000 0.950593 Ti
