alpha_Ti
1.0
5.745590 0.000000 0.000000
0.000000 9.072750 0.000000
0.000000 0.000000 20.667173
Ti
36
direct
0.041667 0.875000 0.451589 Ti
0.041667 0.375000 0.451589 Ti
0.541667 0.875000 0.451589 Ti
0.541667 0.375000 0.451589 Ti
0.291667 0.625000 0.492643 Ti
0.291667 0.125000 0.492643 Ti
0.791667 0.625000 0.492643 Ti
0.791667 0.125000 0.492643 Ti
0.291667 0.875000 0.328428 Ti
0.291667 0.375000 0.328428 Ti
0.791667 0.875000 0.328428 Ti
0.791667 0.375000 0.328428 Ti
0.041667 0.625000 0.369482 Ti
0.041667 0.125000 0.369482 Ti
0.541667 0.625000 0.369482 Ti
0.541667 0.125000 0.369482 Ti
0.041667 0.875000 0.205267 Ti
0.041667 0.375000 0.205267 Ti
0.541667 0.875000 0.205267 Ti
0.541667 0.375000 0.205267 Ti
0.291667 0.625000 0.246321 Ti
0.291667 0.125000 0.246321 Ti
0.791667 0.625000 0.246321 Ti
0.791667 0.125000 0.246321 Ti
0.291667 0.875000 0.082106 Ti
0.291667 0.375000 0.082106 Ti
0.791667 0.875000 0.082106 Ti
0.791667 0.375000 0.082106 Ti
0.041667 0.625000 0.123161 Ti
0.041667 0.125000 0.123161 Ti
0.541667 0.625000 0.123161 Ti
0.541667 0.125000 0.123161 Ti
0.791667 0.125000 0.000000 Ti
0.291667 0.125000 0.000000 Ti
0.791667 0.625000 -0.000000 Ti
0.291667 0.625000 -0.000000 Ti
