Ti66 Cr1
1.0
6.309760 0.000000 0.000000
0.000000 9.464640 0.000000
0.000000 0.000000 18.918326
Ti Cr
66 1
Selective dynamics
direct
0.631434 0.041644 0.499805 F F F Ti
0.629133 0.041589 0.659098 F F F Ti
0.125157 0.041527 0.816766 F F F Ti
0.625241 0.041522 0.817240 F F F Ti
0.125865 0.376988 0.499704 F F F Ti
0.625909 0.378959 0.498407 F F F Ti
0.126087 0.375930 0.658931 F F F Ti
0.625790 0.378321 0.660361 F F F Ti
0.125425 0.374548 0.817504 F F F Ti
0.625157 0.374785 0.817783 F F F Ti
0.125224 0.706711 0.500011 F F F Ti
0.624843 0.703746 0.498092 F F F Ti
0.125625 0.706664 0.658962 F F F Ti
0.624902 0.704093 0.660657 F F F Ti
0.125258 0.708448 0.817502 F F F Ti
0.625094 0.708282 0.817832 F F F Ti
0.394208 0.217903 0.579655 F F F Ti
0.854212 0.221350 0.579942 F F F Ti
0.375579 0.208122 0.737821 F F F Ti
0.875363 0.208665 0.738189 F F F Ti
0.374923 0.207925 0.896467 F F F Ti
0.875342 0.207982 0.896533 F F F Ti
0.375755 0.541074 0.579484 F F F Ti
0.875323 0.540846 0.579526 F F F Ti
0.374362 0.541331 0.738788 F F F Ti
0.876591 0.541136 0.738904 F F F Ti
0.374925 0.541547 0.896777 F F F Ti
0.875340 0.541514 0.896796 F F F Ti
0.396479 0.864238 0.579801 F F F Ti
0.849374 0.859624 0.580182 F F F Ti
0.375317 0.874890 0.737735 F F F Ti
0.875253 0.874254 0.738124 F F F Ti
0.374862 0.875177 0.896447 F F F Ti
0.875325 0.875142 0.896524 F F F Ti
0.125061 0.625206 0.356554 F F F Ti
0.625086 0.625075 0.355948 F F F Ti
0.124924 0.625150 0.118957 F F F Ti
0.624829 0.625120 0.118931 F F F Ti
0.125169 0.124928 0.357198 F F F Ti
0.625604 0.124976 0.356771 F F F Ti
0.125008 0.124895 0.119084 F F F Ti
0.624843 0.124908 0.119034 F F F Ti
0.124971 0.374798 0.039576 F F F Ti
0.624847 0.374820 0.039619 F F F Ti
0.124941 0.875138 0.039530 F F F Ti
0.624770 0.875114 0.039594 F F F Ti
0.125045 0.374929 0.277260 F F F Ti
0.625115 0.374854 0.277130 F F F Ti
0.125128 0.875201 0.277707 F F F Ti
0.624974 0.875165 0.277534 F F F Ti
0.374878 0.875110 0.158623 F F F Ti
0.875073 0.875108 0.158607 F F F Ti
0.374913 0.374915 0.158471 F F F Ti
0.875090 0.374919 0.158432 F F F Ti
0.374971 0.375155 0.395849 F F F Ti
0.875770 0.375449 0.395755 F F F Ti
0.374971 0.875287 0.396898 F F F Ti
0.875525 0.874624 0.396542 F F F Ti
0.374785 0.625147 0.237665 F F F Ti
0.875242 0.625117 0.237638 F F F Ti
0.374864 0.625133 0.000151 F F F Ti
0.875014 0.625134 0.000163 F F F Ti
0.374895 0.124914 0.237992 F F F Ti
0.875265 0.124910 0.237930 F F F Ti
0.374874 0.124878 0.000009 F F F Ti
0.875053 0.124865 0.000044 F F F Ti
0.108820 0.033681 0.571967 T T T Cr

0.000000 0.000000 0.000000
0.000000 0.000000 0.000000
0.000000 0.000000 0.000000
0.000000 0.000000 0.000000
0.000000 0.000000 0.000000
0.000000 0.000000 0.000000
0.000000 0.000000 0.000000
0.000000 0.000000 0.000000
0.000000 0.000000 0.000000
0.000000 0.000000 0.000000
0.000000 0.000000 0.000000
0.000000 0.000000 0.000000
0.000000 0.000000 0.000000
0.000000 0.000000 0.000000
0.000000 0.000000 0.000000
0.000000 0.000000 0.000000
0.000000 0.000000 0.000000
0.000000 0.000000 0.000000
0.000000 0.000000 0.000000
0.000000 0.000000 0.000000
0.000000 0.000000 0.000000
0.000000 0.000000 0.000000
0.000000 0.000000 0.000000
0.000000 0.000000 0.000000
0.000000 0.000000 0.000000
0.000000 0.000000 0.000000
0.000000 0.000000 0.000000
0.000000 0.000000 0.000000
0.000000 0.000000 0.000000
0.000000 0.000000 0.000000
0.000000 0.000000 0.000000
0.000000 0.000000 0.000000
0.000000 0.000000 0.000000
0.000000 0.000000 0.000000
0.000000 0.000000 0.000000
0.000000 0.000000 0.000000
0.000000 0.000000 0.000000
0.000000 0.000000 0.000000
0.000000 0.000000 0.000000
0.000000 0.000000 0.000000
0.000000 0.000000 0.000000
0.000000 0.000000 0.000000
0.000000 0.000000 0.000000
0.000000 0.000000 0.000000
0.000000 0.000000 0.000000
0.000000 0.000000 0.000000
0.000000 0.000000 0.000000
0.000000 0.000000 0.000000
0.000000 0.000000 0.000000
0.000000 0.000000 0.000000
0.000000 0.000000 0.000000
0.000000 0.000000 0.000000
0.000000 0.000000 0.000000
0.000000 0.000000 0.000000
0.000000 0.000000 0.000000
0.000000 0.000000 0.000000
0.000000 0.000000 0.000000
0.000000 0.000000 0.000000
0.000000 0.000000 0.000000
0.000000 0.000000 0.000000
0.000000 0.000000 0.000000
0.000000 0.000000 0.000000
0.000000 0.000000 0.000000
0.000000 0.000000 0.000000
0.000000 0.000000 0.000000
0.000000 0.000000 0.000000
0.000000 0.000000 0.000000
