alpha_Ti
1.0
4.756512 0.000000 0.000000
0.000000 4.675432 0.000000
0.000000 0.000000 21.011800
Ti
12
direct
0.333333 0.750000 0.342884 Ti
0.333333 0.750000 0.205730 Ti
0.333333 0.750000 0.068577 Ti
0.833334 0.750000 0.274307 Ti
0.833334 0.750000 0.137153 Ti
0.833334 0.750000 -0.000000 Ti
0.166666 0.250000 0.274307 Ti
0.166666 0.250000 0.137153 Ti
0.166666 0.250000 -0.000000 Ti
0.666667 0.250000 0.342884 Ti
0.666667 0.250000 0.205730 Ti
0.666667 0.250000 0.068577 Ti
