Ti66 Al1
1.0
6.309760 0.000000 0.000000
0.000000 9.464640 0.000000
0.000000 0.000000 18.918326
Ti Al
66 1
Selective dynamics
direct
0.625595 0.052461 0.475672 T T T Ti
0.124917 0.039650 0.653409 T T T Ti
0.625003 0.047826 0.636913 T T T Ti
0.124984 0.041649 0.817213 F F F Ti
0.624996 0.041661 0.817226 F F F Ti
0.125018 0.394053 0.490146 T T T Ti
0.625034 0.383869 0.508808 T T T Ti
0.124931 0.342437 0.641915 T T T Ti
0.624964 0.348269 0.650498 T T T Ti
0.124972 0.374964 0.817174 F F F Ti
0.624992 0.374967 0.817199 F F F Ti
0.125031 0.675305 0.487932 T T T Ti
0.624967 0.696208 0.493299 T T T Ti
0.124962 0.730383 0.648403 T T T Ti
0.624947 0.738122 0.644950 T T T Ti
0.124975 0.708293 0.817196 F F F Ti
0.624982 0.708286 0.817206 F F F Ti
0.335565 0.177883 0.540192 T T T Ti
0.914551 0.177935 0.540235 T T T Ti
0.374972 0.208282 0.738018 F F F Ti
0.875007 0.208286 0.738022 F F F Ti
0.374989 0.208340 0.896464 F F F Ti
0.875001 0.208339 0.896464 F F F Ti
0.376519 0.539794 0.589089 T T T Ti
0.873471 0.539805 0.589089 T T T Ti
0.375021 0.541553 0.737913 F F F Ti
0.874962 0.541556 0.737913 F F F Ti
0.374995 0.541652 0.896444 F F F Ti
0.874993 0.541653 0.896444 F F F Ti
0.342973 0.889016 0.550980 T T T Ti
0.907089 0.888968 0.550997 T T T Ti
0.375092 0.874916 0.737961 F F F Ti
0.874889 0.874909 0.737963 F F F Ti
0.375006 0.874980 0.896467 F F F Ti
0.874987 0.874980 0.896467 F F F Ti
0.124938 0.627247 0.360885 T T T Ti
0.624706 0.628083 0.362030 T T T Ti
0.124953 0.625082 0.118871 F F F Ti
0.624985 0.625132 0.118896 F F F Ti
0.625907 0.116420 0.359004 T T T Ti
0.125044 0.124979 0.118829 F F F Ti
0.625018 0.124969 0.118837 F F F Ti
0.124952 0.374992 0.039592 F F F Ti
0.624997 0.374966 0.039612 F F F Ti
0.124999 0.875045 0.039624 F F F Ti
0.624995 0.875048 0.039634 F F F Ti
0.124752 0.379981 0.282898 T T T Ti
0.624813 0.387146 0.273485 T T T Ti
0.125160 0.893604 0.283013 T T T Ti
0.625094 0.876797 0.280038 T T T Ti
0.374904 0.875213 0.158512 F F F Ti
0.875119 0.875209 0.158510 F F F Ti
0.374893 0.374945 0.158439 F F F Ti
0.875066 0.374953 0.158435 F F F Ti
0.410067 0.371132 0.391869 T T T Ti
0.839866 0.371267 0.391874 T T T Ti
0.355496 0.873913 0.403166 T T T Ti
0.894576 0.873763 0.403159 T T T Ti
0.362750 0.632296 0.244959 T T T Ti
0.887189 0.632297 0.244965 T T T Ti
0.375004 0.625022 -0.000005 F F F Ti
0.874980 0.625026 -0.000007 F F F Ti
0.376909 0.133667 0.246699 T T T Ti
0.873157 0.133665 0.246643 T T T Ti
0.374998 0.124981 -0.000016 F F F Ti
0.874998 0.124977 -0.000017 F F F Ti
0.124360 0.130969 0.391909 T T T Al

0.000000 0.000000 0.000000
0.000000 0.000000 0.000000
0.000000 0.000000 0.000000
0.000000 0.000000 0.000000
0.000000 0.000000 0.000000
0.000000 0.000000 0.000000
0.000000 0.000000 0.000000
0.000000 0.000000 0.000000
0.000000 0.000000 0.000000
0.000000 0.000000 0.000000
0.000000 0.000000 0.000000
0.000000 0.000000 0.000000
0.000000 0.000000 0.000000
0.000000 0.000000 0.000000
0.000000 0.000000 0.000000
0.000000 0.000000 0.000000
0.000000 0.000000 0.000000
0.000000 0.000000 0.000000
0.000000 0.000000 0.000000
0.000000 0.000000 0.000000
0.000000 0.000000 0.000000
0.000000 0.000000 0.000000
0.000000 0.000000 0.000000
0.000000 0.000000 0.000000
0.000000 0.000000 0.000000
0.000000 0.000000 0.000000
0.000000 0.000000 0.000000
0.000000 0.000000 0.000000
0.000000 0.000000 0.000000
0.000000 0.000000 0.000000
0.000000 0.000000 0.000000
0.000000 0.000000 0.000000
0.000000 0.000000 0.000000
0.000000 0.000000 0.000000
0.000000 0.000000 0.000000
0.000000 0.000000 0.000000
0.000000 0.000000 0.000000
0.000000 0.000000 0.000000
0.000000 0.000000 0.000000
0.000000 0.000000 0.000000
0.000000 0.000000 0.000000
0.000000 0.000000 0.000000
0.000000 0.000000 0.000000
0.000000 0.000000 0.000000
0.000000 0.000000 0.000000
0.000000 0.000000 0.000000
0.000000 0.000000 0.000000
0.000000 0.000000 0.000000
0.000000 0.000000 0.000000
0.000000 0.000000 0.000000
0.000000 0.000000 0.000000
0.000000 0.000000 0.000000
0.000000 0.000000 0.000000
0.000000 0.000000 0.000000
0.000000 0.000000 0.000000
0.000000 0.000000 0.000000
0.000000 0.000000 0.000000
0.000000 0.000000 0.000000
0.000000 0.000000 0.000000
0.000000 0.000000 0.000000
0.000000 0.000000 0.000000
0.000000 0.000000 0.000000
0.000000 0.000000 0.000000
0.000000 0.000000 0.000000
0.000000 0.000000 0.000000
0.000000 0.000000 0.000000
0.000000 0.000000 0.000000
