total_Ti
1.0
8.805261 0.000000 0.000000
-4.402631 7.625580 0.000000
0.000000 0.000000 27.883422
Ti
90
direct
0.083333 0.916670 0.573335 Ti
0.083333 0.416670 0.573335 Ti
0.583333 0.916670 0.573335 Ti
0.583333 0.416670 0.573335 Ti
0.250000 0.250004 0.805453 Ti
0.250000 0.750004 0.805453 Ti
0.750000 0.250004 0.805453 Ti
0.750000 0.750004 0.805453 Ti
0.416667 0.083337 0.838613 Ti
0.416667 0.583337 0.838613 Ti
0.916667 0.083337 0.838613 Ti
0.916667 0.583337 0.838613 Ti
0.250000 0.250004 0.606495 Ti
0.250000 0.750004 0.606495 Ti
0.750000 0.250004 0.606495 Ti
0.750000 0.750004 0.606495 Ti
0.416667 0.083337 0.639655 Ti
0.416667 0.583337 0.639655 Ti
0.916667 0.083337 0.639655 Ti
0.916667 0.583337 0.639655 Ti
0.083333 0.916670 0.672814 Ti
0.083333 0.416670 0.672814 Ti
0.583333 0.916670 0.672814 Ti
0.583333 0.416670 0.672814 Ti
0.250000 0.250004 0.705974 Ti
0.250000 0.750004 0.705974 Ti
0.750000 0.250004 0.705974 Ti
0.750000 0.750004 0.705974 Ti
0.416667 0.083337 0.739134 Ti
0.416667 0.583337 0.739134 Ti
0.916667 0.083337 0.739134 Ti
0.916667 0.583337 0.739134 Ti
0.083333 0.916670 0.772294 Ti
0.083333 0.416670 0.772294 Ti
0.583333 0.916670 0.772294 Ti
0.583333 0.416670 0.772294 Ti
0.138888 0.861108 -0.000000 Ti
0.138888 0.861108 0.329559 Ti
0.138888 0.527774 -0.000000 Ti
0.249999 0.749996 0.082390 Ti
0.138888 0.527774 0.329559 Ti
0.472221 0.861108 -0.000000 Ti
0.138888 0.194441 -0.000000 Ti
0.249999 0.749996 0.411949 Ti
0.250000 0.416663 0.082390 Ti
0.472221 0.861108 0.329559 Ti
0.138888 0.194441 0.329559 Ti
0.472222 0.527774 -0.000000 Ti
0.250000 0.416663 0.411949 Ti
0.583333 0.749996 0.082390 Ti
0.250000 0.083330 0.082390 Ti
0.472222 0.527774 0.329559 Ti
0.805555 0.861108 -0.000000 Ti
0.472222 0.194441 -0.000000 Ti
0.583333 0.749996 0.411949 Ti
0.250000 0.083330 0.411949 Ti
0.583333 0.416663 0.082390 Ti
0.805555 0.861108 0.329559 Ti
0.472222 0.194441 0.329559 Ti
0.805555 0.527774 -0.000000 Ti
0.583333 0.416663 0.411949 Ti
0.916666 0.749996 0.082390 Ti
0.583333 0.083330 0.082390 Ti
0.805555 0.527774 0.329559 Ti
0.805555 0.194441 -0.000000 Ti
0.916666 0.749996 0.411949 Ti
0.583333 0.083330 0.411949 Ti
0.916666 0.416663 0.082390 Ti
0.805555 0.194441 0.329559 Ti
0.916666 0.416663 0.411949 Ti
0.916666 0.083330 0.082390 Ti
0.916666 0.083330 0.411949 Ti
0.138888 0.861108 0.164780 Ti
0.138888 0.527774 0.164780 Ti
0.249999 0.749996 0.247169 Ti
0.472221 0.861108 0.164780 Ti
0.138888 0.194441 0.164780 Ti
0.250000 0.416663 0.247169 Ti
0.472222 0.527774 0.164780 Ti
0.583333 0.749996 0.247169 Ti
0.250000 0.083330 0.247169 Ti
0.805555 0.861108 0.164780 Ti
0.472222 0.194441 0.164780 Ti
0.583333 0.416663 0.247169 Ti
0.805555 0.527774 0.164780 Ti
0.916666 0.749996 0.247169 Ti
0.583333 0.083330 0.247169 Ti
0.805555 0.194441 0.164780 Ti
0.916666 0.416663 0.247169 Ti
0.916666 0.083330 0.247169 Ti
