Ti96 Al1
1.0
9.513020 0.000000 0.000000
0.000000 9.350860 0.000000
0.000000 0.000000 18.547230
Ti Al
96 1
Selective dynamics
direct
0.142881 0.376190 0.401712 T T T Ti
0.651702 0.375319 0.397670 T T T Ti
0.164349 0.889468 0.391470 T T T Ti
0.648060 0.904789 0.412600 T T T Ti
0.162856 0.378312 0.237207 T T T Ti
0.660316 0.377568 0.235318 T T T Ti
0.157664 0.875566 0.235663 T T T Ti
0.662278 0.877068 0.233587 T T T Ti
0.166657 0.374997 0.077676 F F F Ti
0.666667 0.374991 0.077676 F F F Ti
0.166672 0.875010 0.077689 F F F Ti
0.666671 0.875005 0.077695 F F F Ti
0.410192 0.371397 0.316695 T T T Ti
0.907361 0.374675 0.314232 T T T Ti
0.414804 0.872198 0.317616 T T T Ti
0.897245 0.868669 0.321105 T T T Ti
0.416660 0.374996 0.155339 F F F Ti
0.916649 0.374988 0.155349 F F F Ti
0.416689 0.875013 0.155357 F F F Ti
0.916679 0.875030 0.155356 F F F Ti
0.416661 0.375007 -0.000005 F F F Ti
0.916659 0.375004 0.000001 F F F Ti
0.416672 0.874995 0.000003 F F F Ti
0.916661 0.875000 0.000007 F F F Ti
0.089808 0.128603 0.316694 T T T Ti
0.592639 0.125325 0.314231 T T T Ti
0.085196 0.627802 0.317615 T T T Ti
0.602755 0.631331 0.321104 T T T Ti
0.083340 0.125007 0.155339 F F F Ti
0.583351 0.125014 0.155349 F F F Ti
0.083311 0.624989 0.155357 F F F Ti
0.583321 0.624973 0.155356 F F F Ti
0.083340 0.124997 -0.000005 F F F Ti
0.583341 0.124998 0.000001 F F F Ti
0.083329 0.625008 0.000002 F F F Ti
0.583339 0.625003 0.000007 F F F Ti
0.357118 0.123810 0.401712 T T T Ti
0.848297 0.124681 0.397670 T T T Ti
0.335650 0.610532 0.391470 T T T Ti
0.851939 0.595211 0.412600 T T T Ti
0.337143 0.121688 0.237207 T T T Ti
0.839683 0.122432 0.235318 T T T Ti
0.342335 0.624434 0.235663 T T T Ti
0.837721 0.622933 0.233587 T T T Ti
0.333342 0.125006 0.077676 F F F Ti
0.833332 0.125011 0.077676 F F F Ti
0.333327 0.624993 0.077689 F F F Ti
0.833329 0.624997 0.077695 F F F Ti
0.374984 0.375009 0.823819 F F F Ti
0.875007 0.374986 0.823790 F F F Ti
0.375009 0.874992 0.823822 F F F Ti
0.875013 0.874966 0.823770 F F F Ti
0.125017 0.124991 0.823818 F F F Ti
0.624995 0.125013 0.823790 F F F Ti
0.124993 0.625008 0.823821 F F F Ti
0.624990 0.625033 0.823770 F F F Ti
0.124984 0.374995 0.910105 F F F Ti
0.625005 0.375009 0.910089 F F F Ti
0.124989 0.874992 0.910110 F F F Ti
0.625005 0.874985 0.910083 F F F Ti
0.375019 0.125007 0.910105 F F F Ti
0.874996 0.124993 0.910088 F F F Ti
0.375014 0.625008 0.910110 F F F Ti
0.874997 0.625017 0.910082 F F F Ti
0.399383 0.378360 0.645750 T T T Ti
0.884095 0.343365 0.654587 T T T Ti
0.371338 0.869561 0.671263 T T T Ti
0.887450 0.867212 0.658916 T T T Ti
0.100616 0.121639 0.645750 T T T Ti
0.615904 0.156633 0.654587 T T T Ti
0.128661 0.630437 0.671263 T T T Ti
0.612550 0.632786 0.658916 T T T Ti
0.147962 0.380367 0.573198 T T T Ti
0.659877 0.413619 0.567241 T T T Ti
0.144802 0.870612 0.575607 T T T Ti
0.574649 0.926634 0.580044 T T T Ti
0.352038 0.119633 0.573198 T T T Ti
0.840123 0.086381 0.567241 T T T Ti
0.355197 0.629388 0.575607 T T T Ti
0.925351 0.573366 0.580044 T T T Ti
0.389191 0.372936 0.488933 T T T Ti
0.899299 0.339929 0.491280 T T T Ti
0.382441 0.857824 0.479628 T T T Ti
0.931793 0.886586 0.472189 T T T Ti
0.110809 0.127064 0.488933 T T T Ti
0.600701 0.160071 0.491280 T T T Ti
0.117559 0.642176 0.479628 T T T Ti
0.568207 0.613414 0.472189 T T T Ti
0.125100 0.875006 0.737560 F F F Ti
0.624941 0.875067 0.737528 F F F Ti
0.374896 0.624986 0.737561 F F F Ti
0.875055 0.624926 0.737528 F F F Ti
0.125084 0.374928 0.737539 F F F Ti
0.624911 0.375205 0.737554 F F F Ti
0.374913 0.125065 0.737539 F F F Ti
0.875085 0.124786 0.737556 F F F Ti
0.750000 0.750000 0.538942 T T T Al

0.000000 0.000000 0.000000
0.000000 0.000000 0.000000
0.000000 0.000000 0.000000
0.000000 0.000000 0.000000
0.000000 0.000000 0.000000
0.000000 0.000000 0.000000
0.000000 0.000000 0.000000
0.000000 0.000000 0.000000
0.000000 0.000000 0.000000
0.000000 0.000000 0.000000
0.000000 0.000000 0.000000
0.000000 0.000000 0.000000
0.000000 0.000000 0.000000
0.000000 0.000000 0.000000
0.000000 0.000000 0.000000
0.000000 0.000000 0.000000
0.000000 0.000000 0.000000
0.000000 0.000000 0.000000
0.000000 0.000000 0.000000
0.000000 0.000000 0.000000
0.000000 0.000000 0.000000
0.000000 0.000000 0.000000
0.000000 0.000000 0.000000
0.000000 0.000000 0.000000
0.000000 0.000000 0.000000
0.000000 0.000000 0.000000
0.000000 0.000000 0.000000
0.000000 0.000000 0.000000
0.000000 0.000000 0.000000
0.000000 0.000000 0.000000
0.000000 0.000000 0.000000
0.000000 0.000000 0.000000
0.000000 0.000000 0.000000
0.000000 0.000000 0.000000
0.000000 0.000000 0.000000
0.000000 0.000000 0.000000
0.000000 0.000000 0.000000
0.000000 0.000000 0.000000
0.000000 0.000000 0.000000
0.000000 0.000000 0.000000
0.000000 0.000000 0.000000
0.000000 0.000000 0.000000
0.000000 0.000000 0.000000
0.000000 0.000000 0.000000
0.000000 0.000000 0.000000
0.000000 0.000000 0.000000
0.000000 0.000000 0.000000
0.000000 0.000000 0.000000
0.000000 0.000000 0.000000
0.000000 0.000000 0.000000
0.000000 0.000000 0.000000
0.000000 0.000000 0.000000
0.000000 0.000000 0.000000
0.000000 0.000000 0.000000
0.000000 0.000000 0.000000
0.000000 0.000000 0.000000
0.000000 0.000000 0.000000
0.000000 0.000000 0.000000
0.000000 0.000000 0.000000
0.000000 0.000000 0.000000
0.000000 0.000000 0.000000
0.000000 0.000000 0.000000
0.000000 0.000000 0.000000
0.000000 0.000000 0.000000
0.000000 0.000000 0.000000
0.000000 0.000000 0.000000
0.000000 0.000000 0.000000
0.000000 0.000000 0.000000
0.000000 0.000000 0.000000
0.000000 0.000000 0.000000
0.000000 0.000000 0.000000
0.000000 0.000000 0.000000
0.000000 0.000000 0.000000
0.000000 0.000000 0.000000
0.000000 0.000000 0.000000
0.000000 0.000000 0.000000
0.000000 0.000000 0.000000
0.000000 0.000000 0.000000
0.000000 0.000000 0.000000
0.000000 0.000000 0.000000
0.000000 0.000000 0.000000
0.000000 0.000000 0.000000
0.000000 0.000000 0.000000
0.000000 0.000000 0.000000
0.000000 0.000000 0.000000
0.000000 0.000000 0.000000
0.000000 0.000000 0.000000
0.000000 0.000000 0.000000
0.000000 0.000000 0.000000
0.000000 0.000000 0.000000
0.000000 0.000000 0.000000
0.000000 0.000000 0.000000
0.000000 0.000000 0.000000
0.000000 0.000000 0.000000
0.000000 0.000000 0.000000
0.000000 0.000000 0.000000
0.000000 0.000000 0.000000
