Ti66 Nb1
1.0
6.309760 0.000000 0.000000
0.000000 9.464640 0.000000
0.000000 0.000000 18.918326
Ti Nb
66 1
Selective dynamics
direct
0.625000 0.088108 0.466648 T T T Ti
0.125000 0.046876 0.655231 T T T Ti
0.625000 0.053400 0.637405 T T T Ti
0.125000 0.041667 0.817153 F F F Ti
0.625000 0.041667 0.817153 F F F Ti
0.125000 0.411289 0.490640 T T T Ti
0.625000 0.401482 0.501458 T T T Ti
0.125000 0.359645 0.646526 T T T Ti
0.625000 0.354415 0.648816 T T T Ti
0.125000 0.375000 0.817153 F F F Ti
0.625000 0.375000 0.817153 F F F Ti
0.125000 0.703842 0.492130 T T T Ti
0.625000 0.724450 0.496852 T T T Ti
0.125000 0.737761 0.643174 T T T Ti
0.625000 0.746244 0.644608 T T T Ti
0.125000 0.708333 0.817153 F F F Ti
0.625000 0.708333 0.817153 F F F Ti
0.339285 0.200600 0.547104 T T T Ti
0.910715 0.200600 0.547104 T T T Ti
0.375000 0.208333 0.737865 F F F Ti
0.875000 0.208333 0.737865 F F F Ti
0.375000 0.208333 0.896441 F F F Ti
0.875000 0.208333 0.896441 F F F Ti
0.381506 0.548472 0.588452 T T T Ti
0.868494 0.548472 0.588452 T T T Ti
0.375000 0.541667 0.737865 F F F Ti
0.875000 0.541667 0.737865 F F F Ti
0.375000 0.541667 0.896441 F F F Ti
0.875000 0.541667 0.896441 F F F Ti
0.344188 0.915485 0.547941 T T T Ti
0.905812 0.915485 0.547941 T T T Ti
0.375000 0.875000 0.737865 F F F Ti
0.875000 0.875000 0.737865 F F F Ti
0.375000 0.875000 0.896441 F F F Ti
0.875000 0.875000 0.896441 F F F Ti
0.125000 0.609124 0.366556 T T T Ti
0.625000 0.601766 0.368980 T T T Ti
0.125000 0.625000 0.118932 F F F Ti
0.625000 0.625000 0.118932 F F F Ti
0.625000 0.084985 0.346607 T T T Ti
0.125000 0.125000 0.118932 F F F Ti
0.625000 0.125000 0.118932 F F F Ti
0.125000 0.375000 0.039644 F F F Ti
0.625000 0.375000 0.039644 F F F Ti
0.125000 0.875000 0.039644 F F F Ti
0.625000 0.875000 0.039644 F F F Ti
0.125000 0.383089 0.281226 T T T Ti
0.625000 0.382507 0.274002 T T T Ti
0.125000 0.883701 0.283528 T T T Ti
0.625000 0.856639 0.271427 T T T Ti
0.375000 0.875000 0.158576 F F F Ti
0.875000 0.875000 0.158576 F F F Ti
0.374999 0.375000 0.158576 F F F Ti
0.874999 0.375000 0.158576 F F F Ti
0.394335 0.319629 0.389396 T T T Ti
0.855665 0.319629 0.389396 T T T Ti
0.381831 0.860915 0.398383 T T T Ti
0.868169 0.860915 0.398383 T T T Ti
0.363408 0.628610 0.246731 T T T Ti
0.886592 0.628610 0.246731 T T T Ti
0.375000 0.625000 0.000000 F F F Ti
0.875000 0.625000 0.000000 F F F Ti
0.355138 0.132209 0.249535 T T T Ti
0.894862 0.132209 0.249535 T T T Ti
0.375000 0.125000 0.000000 F F F Ti
0.875000 0.125000 0.000000 F F F Ti
0.125000 0.097299 0.401589 T T T Nb
