Ti82 Sn1
1.0
6.391540 0.000000 0.000000
0.000000 9.587310 0.000000
0.000000 0.000000 23.271695
Ti Sn
82 1
Selective dynamics
direct
0.631193 0.083336 0.581072 F F F Ti
0.125376 0.083341 0.709469 F F F Ti
0.625629 0.083345 0.709647 F F F Ti
0.125029 0.083340 0.838414 F F F Ti
0.625081 0.083341 0.838445 F F F Ti
0.125080 0.417599 0.580608 F F F Ti
0.625686 0.417017 0.580595 F F F Ti
0.125165 0.416778 0.709561 F F F Ti
0.625433 0.416893 0.709621 F F F Ti
0.125036 0.416668 0.838436 F F F Ti
0.625059 0.416682 0.838451 F F F Ti
0.124916 0.748983 0.580609 F F F Ti
0.625672 0.749693 0.580593 F F F Ti
0.125106 0.749902 0.709574 F F F Ti
0.625437 0.749825 0.709634 F F F Ti
0.125020 0.750009 0.838440 F F F Ti
0.625059 0.750001 0.838456 F F F Ti
0.376753 0.250841 0.645454 F F F Ti
0.875690 0.250428 0.645161 F F F Ti
0.375109 0.250029 0.774014 F F F Ti
0.875176 0.250022 0.773992 F F F Ti
0.375007 0.249998 0.902873 F F F Ti
0.875032 0.249997 0.902873 F F F Ti
0.375351 0.583461 0.645112 F F F Ti
0.875013 0.583344 0.645145 F F F Ti
0.375057 0.583354 0.774015 F F F Ti
0.875138 0.583330 0.774029 F F F Ti
0.375001 0.583335 0.902879 F F F Ti
0.875026 0.583332 0.902883 F F F Ti
0.376744 0.915822 0.645467 F F F Ti
0.875690 0.916260 0.645169 F F F Ti
0.375101 0.916659 0.774015 F F F Ti
0.875170 0.916666 0.773990 F F F Ti
0.375000 0.916673 0.902870 F F F Ti
0.875025 0.916673 0.902869 F F F Ti
0.124647 0.166760 0.386622 F F F Ti
0.624148 0.166848 0.386547 F F F Ti
0.124986 0.666414 0.386517 F F F Ti
0.624994 0.666637 0.386628 F F F Ti
0.125000 0.166662 -0.000004 F F F Ti
0.624996 0.166664 -0.000001 F F F Ti
0.125000 0.666674 0.000000 F F F Ti
0.624997 0.666672 0.000002 F F F Ti
0.124998 0.833338 0.096666 F F F Ti
0.624994 0.833339 0.096666 F F F Ti
0.123345 0.830975 0.482914 F F F Ti
0.625179 0.832857 0.483367 F F F Ti
0.124997 0.333331 0.096666 F F F Ti
0.624992 0.333333 0.096665 F F F Ti
0.123395 0.335703 0.482906 F F F Ti
0.625025 0.333855 0.483367 F F F Ti
0.375431 0.583544 0.483353 F F F Ti
0.874284 0.583430 0.483329 F F F Ti
0.375002 0.583334 0.096665 F F F Ti
0.875003 0.583334 0.096664 F F F Ti
0.374997 0.083336 0.096669 F F F Ti
0.874996 0.083337 0.096667 F F F Ti
0.868720 0.083331 0.482366 F F F Ti
0.375062 0.416790 0.386612 F F F Ti
0.874498 0.416831 0.386529 F F F Ti
0.374716 0.916558 0.386675 F F F Ti
0.874594 0.916436 0.386472 F F F Ti
0.374989 0.416665 -0.000001 F F F Ti
0.874999 0.416663 0.000000 F F F Ti
0.374990 0.916670 0.000000 F F F Ti
0.875000 0.916669 0.000001 F F F Ti
0.374837 0.083316 0.289993 F F F Ti
0.874891 0.083353 0.289963 F F F Ti
0.124986 0.166664 0.193331 F F F Ti
0.624953 0.166661 0.193327 F F F Ti
0.124957 0.333355 0.289974 F F F Ti
0.624866 0.333350 0.289954 F F F Ti
0.374966 0.416669 0.193321 F F F Ti
0.874971 0.416666 0.193319 F F F Ti
0.375047 0.583346 0.289970 F F F Ti
0.874918 0.583349 0.289941 F F F Ti
0.124995 0.666662 0.193322 F F F Ti
0.624962 0.666665 0.193318 F F F Ti
0.124997 0.833320 0.289971 F F F Ti
0.624844 0.833317 0.289970 F F F Ti
0.374961 0.916666 0.193329 F F F Ti
0.874970 0.916659 0.193325 F F F Ti
0.205450 0.083264 0.548622 T T T Sn

0.000000 0.000000 0.000000
0.000000 0.000000 0.000000
0.000000 0.000000 0.000000
0.000000 0.000000 0.000000
0.000000 0.000000 0.000000
0.000000 0.000000 0.000000
0.000000 0.000000 0.000000
0.000000 0.000000 0.000000
0.000000 0.000000 0.000000
0.000000 0.000000 0.000000
0.000000 0.000000 0.000000
0.000000 0.000000 0.000000
0.000000 0.000000 0.000000
0.000000 0.000000 0.000000
0.000000 0.000000 0.000000
0.000000 0.000000 0.000000
0.000000 0.000000 0.000000
0.000000 0.000000 0.000000
0.000000 0.000000 0.000000
0.000000 0.000000 0.000000
0.000000 0.000000 0.000000
0.000000 0.000000 0.000000
0.000000 0.000000 0.000000
0.000000 0.000000 0.000000
0.000000 0.000000 0.000000
0.000000 0.000000 0.000000
0.000000 0.000000 0.000000
0.000000 0.000000 0.000000
0.000000 0.000000 0.000000
0.000000 0.000000 0.000000
0.000000 0.000000 0.000000
0.000000 0.000000 0.000000
0.000000 0.000000 0.000000
0.000000 0.000000 0.000000
0.000000 0.000000 0.000000
0.000000 0.000000 0.000000
0.000000 0.000000 0.000000
0.000000 0.000000 0.000000
0.000000 0.000000 0.000000
0.000000 0.000000 0.000000
0.000000 0.000000 0.000000
0.000000 0.000000 0.000000
0.000000 0.000000 0.000000
0.000000 0.000000 0.000000
0.000000 0.000000 0.000000
0.000000 0.000000 0.000000
0.000000 0.000000 0.000000
0.000000 0.000000 0.000000
0.000000 0.000000 0.000000
0.000000 0.000000 0.000000
0.000000 0.000000 0.000000
0.000000 0.000000 0.000000
0.000000 0.000000 0.000000
0.000000 0.000000 0.000000
0.000000 0.000000 0.000000
0.000000 0.000000 0.000000
0.000000 0.000000 0.000000
0.000000 0.000000 0.000000
0.000000 0.000000 0.000000
0.000000 0.000000 0.000000
0.000000 0.000000 0.000000
0.000000 0.000000 0.000000
0.000000 0.000000 0.000000
0.000000 0.000000 0.000000
0.000000 0.000000 0.000000
0.000000 0.000000 0.000000
0.000000 0.000000 0.000000
0.000000 0.000000 0.000000
0.000000 0.000000 0.000000
0.000000 0.000000 0.000000
0.000000 0.000000 0.000000
0.000000 0.000000 0.000000
0.000000 0.000000 0.000000
0.000000 0.000000 0.000000
0.000000 0.000000 0.000000
0.000000 0.000000 0.000000
0.000000 0.000000 0.000000
0.000000 0.000000 0.000000
0.000000 0.000000 0.000000
0.000000 0.000000 0.000000
0.000000 0.000000 0.000000
0.000000 0.000000 0.000000
0.000000 0.000000 0.000000
