Zr1 Ti96
1.0
9.513020 0.000000 0.000000
0.000000 9.350860 0.000000
0.000000 0.000000 18.547230
Ti Zr
96 1
Selective dynamics
direct
0.147366 0.373967 0.397762 T T T Ti
0.651071 0.369823 0.395925 T T T Ti
0.167134 0.883813 0.392645 T T T Ti
0.653095 0.901884 0.399510 T T T Ti
0.163565 0.376590 0.236032 T T T Ti
0.661293 0.378637 0.235064 T T T Ti
0.159134 0.874498 0.234856 T T T Ti
0.661463 0.874822 0.234951 T T T Ti
0.166667 0.375002 0.077685 F F F Ti
0.666665 0.375011 0.077684 F F F Ti
0.166671 0.875000 0.077690 F F F Ti
0.666664 0.874995 0.077686 F F F Ti
0.410372 0.375885 0.316497 T T T Ti
0.909899 0.370318 0.311967 T T T Ti
0.412486 0.875470 0.316122 T T T Ti
0.905271 0.866366 0.321720 T T T Ti
0.416668 0.375010 0.155358 F F F Ti
0.916659 0.375014 0.155353 F F F Ti
0.416667 0.874989 0.155363 F F F Ti
0.916683 0.875015 0.155358 F F F Ti
0.416662 0.375008 -0.000006 F F F Ti
0.916665 0.375005 -0.000001 F F F Ti
0.416661 0.874995 -0.000000 F F F Ti
0.916668 0.875000 0.000003 F F F Ti
0.089628 0.124115 0.316496 T T T Ti
0.590101 0.129682 0.311966 T T T Ti
0.087514 0.624530 0.316121 T T T Ti
0.594729 0.633634 0.321719 T T T Ti
0.083332 0.124991 0.155358 F F F Ti
0.583340 0.124988 0.155353 F F F Ti
0.083333 0.625012 0.155363 F F F Ti
0.583317 0.624986 0.155358 F F F Ti
0.083339 0.124994 -0.000006 F F F Ti
0.583335 0.124997 -0.000001 F F F Ti
0.083339 0.625006 -0.000001 F F F Ti
0.583332 0.625001 0.000002 F F F Ti
0.352633 0.126033 0.397762 T T T Ti
0.848928 0.130177 0.395925 T T T Ti
0.332865 0.616187 0.392645 T T T Ti
0.846904 0.598116 0.399510 T T T Ti
0.336434 0.123411 0.236032 T T T Ti
0.838706 0.121363 0.235064 T T T Ti
0.340865 0.625502 0.234856 T T T Ti
0.838536 0.625178 0.234950 T T T Ti
0.333332 0.124999 0.077685 F F F Ti
0.833334 0.124990 0.077684 F F F Ti
0.333328 0.625001 0.077689 F F F Ti
0.833335 0.625006 0.077686 F F F Ti
0.374991 0.375016 0.823773 F F F Ti
0.875005 0.375017 0.823769 F F F Ti
0.374999 0.875005 0.823794 F F F Ti
0.875023 0.874989 0.823771 F F F Ti
0.125010 0.124984 0.823773 F F F Ti
0.624996 0.124983 0.823769 F F F Ti
0.125002 0.624995 0.823793 F F F Ti
0.624978 0.625011 0.823771 F F F Ti
0.124998 0.375001 0.910096 F F F Ti
0.624997 0.375013 0.910090 F F F Ti
0.125001 0.875001 0.910104 F F F Ti
0.624998 0.874995 0.910097 F F F Ti
0.375003 0.124999 0.910096 F F F Ti
0.875004 0.124988 0.910090 F F F Ti
0.374999 0.624999 0.910104 F F F Ti
0.875002 0.625005 0.910096 F F F Ti
0.398362 0.377735 0.644954 T T T Ti
0.885662 0.349663 0.658256 T T T Ti
0.372299 0.869504 0.671408 T T T Ti
0.886727 0.868933 0.654391 T T T Ti
0.101638 0.122265 0.644954 T T T Ti
0.614338 0.150336 0.658256 T T T Ti
0.127700 0.630495 0.671408 T T T Ti
0.613273 0.631066 0.654391 T T T Ti
0.144540 0.384764 0.575199 T T T Ti
0.658896 0.392718 0.568789 T T T Ti
0.149619 0.869701 0.573917 T T T Ti
0.581173 0.919729 0.585157 T T T Ti
0.355460 0.115236 0.575199 T T T Ti
0.841104 0.107282 0.568789 T T T Ti
0.350381 0.630298 0.573917 T T T Ti
0.918827 0.580271 0.585157 T T T Ti
0.381112 0.363205 0.487739 T T T Ti
0.904866 0.353565 0.488861 T T T Ti
0.391326 0.859315 0.478767 T T T Ti
-0.055113 -0.091967 0.475346 T T T Ti
0.118888 0.136795 0.487739 T T T Ti
0.595134 0.146435 0.488861 T T T Ti
0.108674 0.640685 0.478767 T T T Ti
0.555113 0.591967 0.475346 T T T Ti
0.125035 0.875045 0.737489 F F F Ti
0.624983 0.875040 0.737510 F F F Ti
0.374963 0.624952 0.737490 F F F Ti
0.875015 0.624956 0.737510 F F F Ti
0.125056 0.374997 0.737467 F F F Ti
0.624915 0.375215 0.737485 F F F Ti
0.374943 0.125001 0.737468 F F F Ti
0.875084 0.124782 0.737487 F F F Ti
0.750000 0.750000 0.520618 T T T Zr

0.000000 0.000000 0.000000
0.000000 0.000000 0.000000
0.000000 0.000000 0.000000
0.000000 0.000000 0.000000
0.000000 0.000000 0.000000
0.000000 0.000000 0.000000
0.000000 0.000000 0.000000
0.000000 0.000000 0.000000
0.000000 0.000000 0.000000
0.000000 0.000000 0.000000
0.000000 0.000000 0.000000
0.000000 0.000000 0.000000
0.000000 0.000000 0.000000
0.000000 0.000000 0.000000
0.000000 0.000000 0.000000
0.000000 0.000000 0.000000
0.000000 0.000000 0.000000
0.000000 0.000000 0.000000
0.000000 0.000000 0.000000
0.000000 0.000000 0.000000
0.000000 0.000000 0.000000
0.000000 0.000000 0.000000
0.000000 0.000000 0.000000
0.000000 0.000000 0.000000
0.000000 0.000000 0.000000
0.000000 0.000000 0.000000
0.000000 0.000000 0.000000
0.000000 0.000000 0.000000
0.000000 0.000000 0.000000
0.000000 0.000000 0.000000
0.000000 0.000000 0.000000
0.000000 0.000000 0.000000
0.000000 0.000000 0.000000
0.000000 0.000000 0.000000
0.000000 0.000000 0.000000
0.000000 0.000000 0.000000
0.000000 0.000000 0.000000
0.000000 0.000000 0.000000
0.000000 0.000000 0.000000
0.000000 0.000000 0.000000
0.000000 0.000000 0.000000
0.000000 0.000000 0.000000
0.000000 0.000000 0.000000
0.000000 0.000000 0.000000
0.000000 0.000000 0.000000
0.000000 0.000000 0.000000
0.000000 0.000000 0.000000
0.000000 0.000000 0.000000
0.000000 0.000000 0.000000
0.000000 0.000000 0.000000
0.000000 0.000000 0.000000
0.000000 0.000000 0.000000
0.000000 0.000000 0.000000
0.000000 0.000000 0.000000
0.000000 0.000000 0.000000
0.000000 0.000000 0.000000
0.000000 0.000000 0.000000
0.000000 0.000000 0.000000
0.000000 0.000000 0.000000
0.000000 0.000000 0.000000
0.000000 0.000000 0.000000
0.000000 0.000000 0.000000
0.000000 0.000000 0.000000
0.000000 0.000000 0.000000
0.000000 0.000000 0.000000
0.000000 0.000000 0.000000
0.000000 0.000000 0.000000
0.000000 0.000000 0.000000
0.000000 0.000000 0.000000
0.000000 0.000000 0.000000
0.000000 0.000000 0.000000
0.000000 0.000000 0.000000
0.000000 0.000000 0.000000
0.000000 0.000000 0.000000
0.000000 0.000000 0.000000
0.000000 0.000000 0.000000
0.000000 0.000000 0.000000
0.000000 0.000000 0.000000
0.000000 0.000000 0.000000
0.000000 0.000000 0.000000
0.000000 0.000000 0.000000
0.000000 0.000000 0.000000
0.000000 0.000000 0.000000
0.000000 0.000000 0.000000
0.000000 0.000000 0.000000
0.000000 0.000000 0.000000
0.000000 0.000000 0.000000
0.000000 0.000000 0.000000
0.000000 0.000000 0.000000
0.000000 0.000000 0.000000
0.000000 0.000000 0.000000
0.000000 0.000000 0.000000
0.000000 0.000000 0.000000
0.000000 0.000000 0.000000
0.000000 0.000000 0.000000
0.000000 0.000000 0.000000
0.000000 0.000000 0.000000
