beta_Ti
1.0
9.588310 0.000000 0.000000
0.000000 9.588310 0.000000
0.000000 0.000000 28.000006
Ti
54
direct
0.083333 0.083333 0.500000 Ti
0.083333 0.083333 0.607143 Ti
0.083333 0.083333 0.714285 Ti
0.083333 0.416667 0.500000 Ti
0.083333 0.416667 0.607143 Ti
0.083333 0.416667 0.714285 Ti
0.083333 0.750000 0.500000 Ti
0.083333 0.750000 0.607143 Ti
0.083333 0.750000 0.714285 Ti
0.416667 0.083333 0.500000 Ti
0.416667 0.083333 0.607143 Ti
0.416667 0.083333 0.714285 Ti
0.416667 0.416667 0.500000 Ti
0.416667 0.416667 0.607143 Ti
0.416667 0.416667 0.714285 Ti
0.416667 0.750000 0.500000 Ti
0.416667 0.750000 0.607143 Ti
0.416667 0.750000 0.714285 Ti
0.750000 0.083333 0.500000 Ti
0.750000 0.083333 0.607143 Ti
0.750000 0.083333 0.714285 Ti
0.750000 0.416667 0.500000 Ti
0.750000 0.416667 0.607143 Ti
0.750000 0.416667 0.714285 Ti
0.750000 0.750000 0.500000 Ti
0.750000 0.750000 0.607143 Ti
0.750000 0.750000 0.714285 Ti
0.250000 0.250000 0.553571 Ti
0.250000 0.250000 0.660714 Ti
0.250000 0.250000 0.767857 Ti
0.250000 0.583333 0.553571 Ti
0.250000 0.583333 0.660714 Ti
0.250000 0.583333 0.767857 Ti
0.250000 0.916667 0.553571 Ti
0.250000 0.916667 0.660714 Ti
0.250000 0.916667 0.767857 Ti
0.583333 0.250000 0.553571 Ti
0.583333 0.250000 0.660714 Ti
0.583333 0.250000 0.767857 Ti
0.583333 0.583333 0.553571 Ti
0.583333 0.583333 0.660714 Ti
0.583333 0.583333 0.767857 Ti
0.583333 0.916667 0.553571 Ti
0.583333 0.916667 0.660714 Ti
0.583333 0.916667 0.767857 Ti
0.916667 0.250000 0.553571 Ti
0.916667 0.250000 0.660714 Ti
0.916667 0.250000 0.767857 Ti
0.916667 0.583333 0.553571 Ti
0.916667 0.583333 0.660714 Ti
0.916667 0.583333 0.767857 Ti
0.916667 0.916667 0.553571 Ti
0.916667 0.916667 0.660714 Ti
0.916667 0.916667 0.767857 Ti
