alpha_Ti
1.0
9.588310 0.000000 0.000000
0.000000 9.588310 0.000000
0.000000 0.000000 28.000006
Ti
48
direct
0.125000 0.833333 -0.000000 Ti
0.125000 0.333333 -0.000000 Ti
0.625000 0.833333 -0.000000 Ti
0.625000 0.333333 -0.000000 Ti
0.375000 0.666667 -0.000000 Ti
0.375000 0.166667 -0.000000 Ti
0.875000 0.666667 -0.000000 Ti
0.875000 0.166667 -0.000000 Ti
0.875000 0.416667 0.053571 Ti
0.375000 0.416667 0.053571 Ti
0.875000 0.916667 0.053571 Ti
0.375000 0.916667 0.053571 Ti
0.625000 0.083333 0.053571 Ti
0.125000 0.083333 0.053571 Ti
0.625000 0.583333 0.053571 Ti
0.125000 0.583333 0.053571 Ti
0.125000 0.333333 0.107143 Ti
0.625000 0.333333 0.107143 Ti
0.625000 0.833333 0.107143 Ti
0.125000 0.833333 0.107143 Ti
0.875000 0.666667 0.107143 Ti
0.375000 0.166667 0.107143 Ti
0.875000 0.166667 0.107143 Ti
0.375000 0.666667 0.107143 Ti
0.875000 0.416667 0.160714 Ti
0.375000 0.416667 0.160714 Ti
0.875000 0.916667 0.160714 Ti
0.375000 0.916667 0.160714 Ti
0.125000 0.583333 0.160714 Ti
0.625000 0.083333 0.160714 Ti
0.125000 0.083333 0.160714 Ti
0.625000 0.583333 0.160714 Ti
0.625000 0.833333 0.214285 Ti
0.625000 0.333333 0.214285 Ti
0.125000 0.833333 0.214285 Ti
0.125000 0.333333 0.214285 Ti
0.375000 0.166667 0.214285 Ti
0.875000 0.166667 0.214285 Ti
0.375000 0.666667 0.214285 Ti
0.875000 0.666667 0.214285 Ti
0.875000 0.416667 0.267857 Ti
0.375000 0.416667 0.267857 Ti
0.375000 0.916667 0.267857 Ti
0.875000 0.916667 0.267857 Ti
0.625000 0.583333 0.267857 Ti
0.625000 0.083333 0.267857 Ti
0.125000 0.583333 0.267857 Ti
0.125000 0.083333 0.267857 Ti
