total_Ti
1.0
6.391540 0.000000 0.000000
0.000000 9.587310 0.000000
0.000000 0.000000 23.250000
Ti
84
direct
0.125000 0.083333 0.580645 Ti
0.625000 0.083333 0.580645 Ti
0.125000 0.083333 0.709677 Ti
0.625000 0.083333 0.709677 Ti
0.125000 0.083333 0.838710 Ti
0.625000 0.083333 0.838710 Ti
0.125000 0.416667 0.580645 Ti
0.625000 0.416667 0.580645 Ti
0.125000 0.416667 0.709677 Ti
0.625000 0.416667 0.709677 Ti
0.125000 0.416667 0.838710 Ti
0.625000 0.416667 0.838710 Ti
0.125000 0.750000 0.580645 Ti
0.625000 0.750000 0.580645 Ti
0.125000 0.750000 0.709677 Ti
0.625000 0.750000 0.709677 Ti
0.125000 0.750000 0.838710 Ti
0.625000 0.750000 0.838710 Ti
0.375000 0.250000 0.645161 Ti
0.875000 0.250000 0.645161 Ti
0.375000 0.250000 0.774194 Ti
0.875000 0.250000 0.774194 Ti
0.375000 0.250000 0.903226 Ti
0.875000 0.250000 0.903226 Ti
0.375000 0.583333 0.645161 Ti
0.875000 0.583333 0.645161 Ti
0.375000 0.583333 0.774194 Ti
0.875000 0.583333 0.774194 Ti
0.375000 0.583333 0.903226 Ti
0.875000 0.583333 0.903226 Ti
0.375000 0.916667 0.645161 Ti
0.875000 0.916667 0.645161 Ti
0.375000 0.916667 0.774194 Ti
0.875000 0.916667 0.774194 Ti
0.375000 0.916667 0.903226 Ti
0.875000 0.916667 0.903226 Ti
0.125000 0.166667 0.387097 Ti
0.625000 0.166667 0.387097 Ti
0.125000 0.666667 0.387097 Ti
0.625000 0.666667 0.387097 Ti
0.125000 0.166667 -0.000000 Ti
0.625000 0.166667 -0.000000 Ti
0.125000 0.666667 -0.000000 Ti
0.625000 0.666667 -0.000000 Ti
0.125000 0.833333 0.096774 Ti
0.625000 0.833333 0.096774 Ti
0.125000 0.833333 0.483871 Ti
0.625000 0.833333 0.483871 Ti
0.125000 0.333333 0.096774 Ti
0.625000 0.333333 0.096774 Ti
0.125000 0.333333 0.483871 Ti
0.625000 0.333333 0.483871 Ti
0.375000 0.583333 0.483871 Ti
0.875000 0.583333 0.483871 Ti
0.374999 0.583333 0.096774 Ti
0.874999 0.583333 0.096774 Ti
0.375000 0.083333 0.096774 Ti
0.875000 0.083333 0.096774 Ti
0.375000 0.083333 0.483871 Ti
0.875000 0.083333 0.483871 Ti
0.375000 0.416667 0.387097 Ti
0.875000 0.416667 0.387097 Ti
0.375000 0.916667 0.387097 Ti
0.875000 0.916667 0.387097 Ti
0.375000 0.416667 -0.000000 Ti
0.875000 0.416667 -0.000000 Ti
0.375000 0.916667 -0.000000 Ti
0.875000 0.916667 -0.000000 Ti
0.375000 0.083333 0.290323 Ti
0.875000 0.083333 0.290323 Ti
0.125000 0.166667 0.193548 Ti
0.625000 0.166667 0.193548 Ti
0.125000 0.333333 0.290323 Ti
0.625000 0.333333 0.290323 Ti
0.375000 0.416667 0.193548 Ti
0.875000 0.416667 0.193548 Ti
0.374999 0.583333 0.290323 Ti
0.874999 0.583333 0.290323 Ti
0.125000 0.666667 0.193548 Ti
0.625000 0.666667 0.193548 Ti
0.125000 0.833333 0.290323 Ti
0.625000 0.833333 0.290323 Ti
0.375000 0.916667 0.193548 Ti
0.875000 0.916667 0.193548 Ti
