Ti96 Cr1
1.0
9.513020 0.000000 0.000000
0.000000 9.350860 0.000000
0.000000 0.000000 18.547230
Ti Cr
96 1
Selective dynamics
direct
0.142466 0.379530 0.405201 T T T Ti
0.648134 0.361228 0.402547 T T T Ti
0.167523 0.884523 0.403883 T T T Ti
0.636356 0.937258 0.406377 T T T Ti
0.161394 0.379629 0.236298 T T T Ti
0.659411 0.377630 0.232961 T T T Ti
0.160801 0.875918 0.237249 T T T Ti
0.657296 0.880138 0.235549 T T T Ti
0.166653 0.374982 0.077499 F F F Ti
0.666692 0.375016 0.077528 F F F Ti
0.166675 0.874981 0.077545 F F F Ti
0.666691 0.874962 0.077697 F F F Ti
0.398782 0.367861 0.319762 T T T Ti
0.909146 0.363059 0.311480 T T T Ti
0.412474 0.863453 0.321794 T T T Ti
0.912697 0.887923 0.325204 T T T Ti
0.416587 0.375049 0.155085 F F F Ti
0.916809 0.374874 0.155054 F F F Ti
0.416777 0.875006 0.155218 F F F Ti
0.916650 0.874896 0.155311 F F F Ti
0.416682 0.375024 -0.000098 F F F Ti
0.916647 0.375009 -0.000081 F F F Ti
0.416723 0.874983 -0.000051 F F F Ti
0.916627 0.874961 -0.000013 F F F Ti
0.101219 0.132140 0.319761 T T T Ti
0.590854 0.136941 0.311478 T T T Ti
0.087526 0.636547 0.321793 T T T Ti
0.587303 0.612077 0.325203 T T T Ti
0.083417 0.124966 0.155085 F F F Ti
0.583187 0.125142 0.155052 F F F Ti
0.083226 0.625003 0.155218 F F F Ti
0.583350 0.625110 0.155310 F F F Ti
0.083322 0.124981 -0.000097 F F F Ti
0.583350 0.124998 -0.000080 F F F Ti
0.083278 0.625018 -0.000052 F F F Ti
0.583371 0.625039 -0.000014 F F F Ti
0.357533 0.120470 0.405201 T T T Ti
0.851865 0.138772 0.402547 T T T Ti
0.332476 0.615477 0.403883 T T T Ti
0.863643 0.562742 0.406377 T T T Ti
0.338605 0.120373 0.236298 T T T Ti
0.840588 0.122373 0.232961 T T T Ti
0.339198 0.624084 0.237249 T T T Ti
0.842703 0.619865 0.235549 T T T Ti
0.333346 0.125028 0.077499 F F F Ti
0.833308 0.124992 0.077529 F F F Ti
0.333323 0.625028 0.077544 F F F Ti
0.833309 0.625043 0.077696 F F F Ti
0.374970 0.375025 0.823851 F F F Ti
0.875010 0.374983 0.823808 F F F Ti
0.375036 0.874977 0.823821 F F F Ti
0.874975 0.874955 0.823768 F F F Ti
0.125033 0.124969 0.823852 F F F Ti
0.624994 0.125015 0.823809 F F F Ti
0.124969 0.625015 0.823821 F F F Ti
0.625032 0.625042 0.823768 F F F Ti
0.124911 0.375057 0.910041 F F F Ti
0.625050 0.375093 0.910017 F F F Ti
0.124882 0.874943 0.910031 F F F Ti
0.625058 0.874940 0.909994 F F F Ti
0.375093 0.124944 0.910042 F F F Ti
0.874953 0.124908 0.910019 F F F Ti
0.375121 0.625052 0.910031 F F F Ti
0.874944 0.625062 0.909993 F F F Ti
0.393934 0.366616 0.648743 T T T Ti
0.895207 0.367676 0.660566 T T T Ti
0.392591 0.863646 0.656883 T T T Ti
0.898073 0.863003 0.649638 T T T Ti
0.106065 0.133380 0.648743 T T T Ti
0.604791 0.132320 0.660566 T T T Ti
0.107407 0.636350 0.656883 T T T Ti
0.601926 0.636994 0.649638 T T T Ti
0.146844 0.390929 0.571870 T T T Ti
0.652780 0.382391 0.577667 T T T Ti
0.155419 0.879864 0.570927 T T T Ti
0.643915 0.890991 0.576139 T T T Ti
0.353155 0.109070 0.571870 T T T Ti
0.847220 0.117607 0.577667 T T T Ti
0.344581 0.620135 0.570927 T T T Ti
0.856084 0.609008 0.576139 T T T Ti
0.392427 0.365592 0.490241 T T T Ti
0.903267 0.352797 0.496912 T T T Ti
0.410800 0.857253 0.486879 T T T Ti
0.912342 0.891513 0.483258 T T T Ti
0.107573 0.134408 0.490241 T T T Ti
0.596733 0.147203 0.496911 T T T Ti
0.089200 0.642746 0.486879 T T T Ti
0.587657 0.608487 0.483258 T T T Ti
0.125043 0.874936 0.737587 F F F Ti
0.625022 0.875003 0.737481 F F F Ti
0.374949 0.625045 0.737586 F F F Ti
0.874974 0.624986 0.737481 F F F Ti
0.125048 0.374936 0.737613 F F F Ti
0.624955 0.375043 0.737600 F F F Ti
0.374943 0.125047 0.737613 F F F Ti
0.875039 0.124939 0.737601 F F F Ti
0.750000 0.750000 0.411337 T T T Cr

0.000000 0.000000 0.000000
0.000000 0.000000 0.000000
0.000000 0.000000 0.000000
0.000000 0.000000 0.000000
0.000000 0.000000 0.000000
0.000000 0.000000 0.000000
0.000000 0.000000 0.000000
0.000000 0.000000 0.000000
0.000000 0.000000 0.000000
0.000000 0.000000 0.000000
0.000000 0.000000 0.000000
0.000000 0.000000 0.000000
0.000000 0.000000 0.000000
0.000000 0.000000 0.000000
0.000000 0.000000 0.000000
0.000000 0.000000 0.000000
0.000000 0.000000 0.000000
0.000000 0.000000 0.000000
0.000000 0.000000 0.000000
0.000000 0.000000 0.000000
0.000000 0.000000 0.000000
0.000000 0.000000 0.000000
0.000000 0.000000 0.000000
0.000000 0.000000 0.000000
0.000000 0.000000 0.000000
0.000000 0.000000 0.000000
0.000000 0.000000 0.000000
0.000000 0.000000 0.000000
0.000000 0.000000 0.000000
0.000000 0.000000 0.000000
0.000000 0.000000 0.000000
0.000000 0.000000 0.000000
0.000000 0.000000 0.000000
0.000000 0.000000 0.000000
0.000000 0.000000 0.000000
0.000000 0.000000 0.000000
0.000000 0.000000 0.000000
0.000000 0.000000 0.000000
0.000000 0.000000 0.000000
0.000000 0.000000 0.000000
0.000000 0.000000 0.000000
0.000000 0.000000 0.000000
0.000000 0.000000 0.000000
0.000000 0.000000 0.000000
0.000000 0.000000 0.000000
0.000000 0.000000 0.000000
0.000000 0.000000 0.000000
0.000000 0.000000 0.000000
0.000000 0.000000 0.000000
0.000000 0.000000 0.000000
0.000000 0.000000 0.000000
0.000000 0.000000 0.000000
0.000000 0.000000 0.000000
0.000000 0.000000 0.000000
0.000000 0.000000 0.000000
0.000000 0.000000 0.000000
0.000000 0.000000 0.000000
0.000000 0.000000 0.000000
0.000000 0.000000 0.000000
0.000000 0.000000 0.000000
0.000000 0.000000 0.000000
0.000000 0.000000 0.000000
0.000000 0.000000 0.000000
0.000000 0.000000 0.000000
0.000000 0.000000 0.000000
0.000000 0.000000 0.000000
0.000000 0.000000 0.000000
0.000000 0.000000 0.000000
0.000000 0.000000 0.000000
0.000000 0.000000 0.000000
0.000000 0.000000 0.000000
0.000000 0.000000 0.000000
0.000000 0.000000 0.000000
0.000000 0.000000 0.000000
0.000000 0.000000 0.000000
0.000000 0.000000 0.000000
0.000000 0.000000 0.000000
0.000000 0.000000 0.000000
0.000000 0.000000 0.000000
0.000000 0.000000 0.000000
0.000000 0.000000 0.000000
0.000000 0.000000 0.000000
0.000000 0.000000 0.000000
0.000000 0.000000 0.000000
0.000000 0.000000 0.000000
0.000000 0.000000 0.000000
0.000000 0.000000 0.000000
0.000000 0.000000 0.000000
0.000000 0.000000 0.000000
0.000000 0.000000 0.000000
0.000000 0.000000 0.000000
0.000000 0.000000 0.000000
0.000000 0.000000 0.000000
0.000000 0.000000 0.000000
0.000000 0.000000 0.000000
0.000000 0.000000 0.000000
0.000000 0.000000 0.000000
