Ti66 Al1
1.0
6.309760 0.000000 0.000000
0.000000 9.464640 0.000000
0.000000 0.000000 18.918326
Ti Al
66 1
Selective dynamics
direct
0.125000 0.041502 0.488733 T T T Ti
0.625000 0.048828 0.496094 T T T Ti
0.125000 0.070223 0.646931 T T T Ti
0.625000 0.083102 0.646063 T T T Ti
0.125000 0.041667 0.817153 F F F Ti
0.625000 0.041667 0.817153 F F F Ti
0.625000 0.381669 0.475198 T T T Ti
0.125000 0.381892 0.655315 T T T Ti
0.625000 0.391280 0.637500 T T T Ti
0.125000 0.375000 0.817153 F F F Ti
0.625000 0.375000 0.817153 F F F Ti
0.125000 0.758307 0.489993 T T T Ti
0.625000 0.728723 0.500740 T T T Ti
0.125000 0.691532 0.643320 T T T Ti
0.625000 0.689075 0.648059 T T T Ti
0.125000 0.708333 0.817153 F F F Ti
0.625000 0.708333 0.817153 F F F Ti
0.338419 0.243496 0.553077 T T T Ti
0.911581 0.243496 0.553077 T T T Ti
0.375000 0.208333 0.737865 F F F Ti
0.875000 0.208333 0.737865 F F F Ti
0.375000 0.208333 0.896441 F F F Ti
0.875000 0.208333 0.896441 F F F Ti
0.334691 0.527213 0.540225 T T T Ti
0.915309 0.527213 0.540225 T T T Ti
0.375000 0.541667 0.737865 F F F Ti
0.875000 0.541667 0.737865 F F F Ti
0.375000 0.541667 0.896441 F F F Ti
0.875000 0.541667 0.896441 F F F Ti
0.384078 0.889411 0.585960 T T T Ti
0.865922 0.889411 0.585960 T T T Ti
0.375000 0.875000 0.737865 F F F Ti
0.875000 0.875000 0.737865 F F F Ti
0.375000 0.875000 0.896441 F F F Ti
0.875000 0.875000 0.896441 F F F Ti
0.125000 0.594437 0.376700 T T T Ti
0.625000 0.617314 0.376771 T T T Ti
0.125000 0.625000 0.118932 F F F Ti
0.625000 0.625000 0.118932 F F F Ti
0.625000 0.122769 0.363896 T T T Ti
0.125000 0.125000 0.118932 F F F Ti
0.625000 0.125000 0.118932 F F F Ti
0.125000 0.375000 0.039644 F F F Ti
0.625000 0.375000 0.039644 F F F Ti
0.125000 0.875000 0.039644 F F F Ti
0.625000 0.875000 0.039644 F F F Ti
0.125000 0.358890 0.282261 T T T Ti
0.625000 0.372745 0.290140 T T T Ti
0.125000 0.842374 0.282066 T T T Ti
0.625000 0.866221 0.274435 T T T Ti
0.375000 0.875000 0.158576 F F F Ti
0.875000 0.875000 0.158576 F F F Ti
0.374999 0.375000 0.158576 F F F Ti
0.874999 0.375000 0.158576 F F F Ti
0.322669 0.320949 0.407667 T T T Ti
0.927331 0.320949 0.407667 T T T Ti
0.403726 0.877225 0.395808 T T T Ti
0.846274 0.877225 0.395808 T T T Ti
0.370419 0.610248 0.249661 T T T Ti
0.879581 0.610248 0.249661 T T T Ti
0.375000 0.625000 0.000000 F F F Ti
0.875000 0.625000 0.000000 F F F Ti
0.388234 0.117636 0.243207 T T T Ti
0.861766 0.117636 0.243207 T T T Ti
0.375000 0.125000 0.000000 F F F Ti
0.875000 0.125000 0.000000 F F F Ti
0.125000 0.095093 0.352192 T T T Al

0.000000 0.000000 0.000000
0.000000 0.000000 0.000000
0.000000 0.000000 0.000000
0.000000 0.000000 0.000000
0.000000 0.000000 0.000000
0.000000 0.000000 0.000000
0.000000 0.000000 0.000000
0.000000 0.000000 0.000000
0.000000 0.000000 0.000000
0.000000 0.000000 0.000000
0.000000 0.000000 0.000000
0.000000 0.000000 0.000000
0.000000 0.000000 0.000000
0.000000 0.000000 0.000000
0.000000 0.000000 0.000000
0.000000 0.000000 0.000000
0.000000 0.000000 0.000000
0.000000 0.000000 0.000000
0.000000 0.000000 0.000000
0.000000 0.000000 0.000000
0.000000 0.000000 0.000000
0.000000 0.000000 0.000000
0.000000 0.000000 0.000000
0.000000 0.000000 0.000000
0.000000 0.000000 0.000000
0.000000 0.000000 0.000000
0.000000 0.000000 0.000000
0.000000 0.000000 0.000000
0.000000 0.000000 0.000000
0.000000 0.000000 0.000000
0.000000 0.000000 0.000000
0.000000 0.000000 0.000000
0.000000 0.000000 0.000000
0.000000 0.000000 0.000000
0.000000 0.000000 0.000000
0.000000 0.000000 0.000000
0.000000 0.000000 0.000000
0.000000 0.000000 0.000000
0.000000 0.000000 0.000000
0.000000 0.000000 0.000000
0.000000 0.000000 0.000000
0.000000 0.000000 0.000000
0.000000 0.000000 0.000000
0.000000 0.000000 0.000000
0.000000 0.000000 0.000000
0.000000 0.000000 0.000000
0.000000 0.000000 0.000000
0.000000 0.000000 0.000000
0.000000 0.000000 0.000000
0.000000 0.000000 0.000000
0.000000 0.000000 0.000000
0.000000 0.000000 0.000000
0.000000 0.000000 0.000000
0.000000 0.000000 0.000000
0.000000 0.000000 0.000000
0.000000 0.000000 0.000000
0.000000 0.000000 0.000000
0.000000 0.000000 0.000000
0.000000 0.000000 0.000000
0.000000 0.000000 0.000000
0.000000 0.000000 0.000000
0.000000 0.000000 0.000000
0.000000 0.000000 0.000000
0.000000 0.000000 0.000000
0.000000 0.000000 0.000000
0.000000 0.000000 0.000000
0.000000 0.000000 0.000000
