Ti96 Al1
1.0
9.513020 0.000000 0.000000
0.000000 9.350860 0.000000
0.000000 0.000000 18.547230
Ti Al
96 1
Selective dynamics
direct
0.147136 0.376612 0.404981 T T T Ti
0.649487 0.339387 0.401244 T T T Ti
0.131141 0.855773 0.394696 T T T Ti
0.667673 0.868944 0.397614 T T T Ti
0.162114 0.371337 0.235258 T T T Ti
0.659360 0.375482 0.234428 T T T Ti
0.164107 0.874168 0.235224 T T T Ti
0.654261 0.869712 0.236614 T T T Ti
0.166645 0.375028 0.077657 F F F Ti
0.666677 0.375008 0.077637 F F F Ti
0.166641 0.874990 0.077665 F F F Ti
0.666688 0.874982 0.077659 F F F Ti
0.406232 0.384660 0.314887 T T T Ti
0.900690 0.374561 0.320126 T T T Ti
0.399347 0.891756 0.331002 T T T Ti
0.909929 0.883668 0.309458 T T T Ti
0.416652 0.375010 0.155308 F F F Ti
0.916667 0.374988 0.155293 F F F Ti
0.416667 0.874983 0.155343 F F F Ti
0.916666 0.874992 0.155332 F F F Ti
0.416670 0.375031 0.000032 F F F Ti
0.916641 0.375018 0.000018 F F F Ti
0.416677 0.874977 0.000045 F F F Ti
0.916647 0.874983 0.000025 F F F Ti
0.099310 0.125440 0.320125 T T T Ti
0.593768 0.115340 0.314886 T T T Ti
0.090071 0.616333 0.309457 T T T Ti
0.600653 0.608244 0.331001 T T T Ti
0.083333 0.125018 0.155293 F F F Ti
0.583348 0.124996 0.155309 F F F Ti
0.083334 0.625014 0.155332 F F F Ti
0.583333 0.625022 0.155343 F F F Ti
0.083359 0.124985 0.000018 F F F Ti
0.583330 0.124971 0.000032 F F F Ti
0.083353 0.625021 0.000025 F F F Ti
0.583324 0.625025 0.000046 F F F Ti
0.350512 0.160613 0.401244 T T T Ti
0.852863 0.123388 0.404981 T T T Ti
0.332326 0.631056 0.397614 T T T Ti
0.868858 0.644227 0.394696 T T T Ti
0.340639 0.124519 0.234428 T T T Ti
0.837885 0.128664 0.235258 T T T Ti
0.345738 0.630289 0.236614 T T T Ti
0.835892 0.625833 0.235224 T T T Ti
0.333323 0.124997 0.077638 F F F Ti
0.833354 0.124977 0.077657 F F F Ti
0.333311 0.625024 0.077659 F F F Ti
0.833358 0.625015 0.077666 F F F Ti
0.375008 0.375016 0.823859 F F F Ti
0.874965 0.374967 0.823867 F F F Ti
0.375017 0.874961 0.823783 F F F Ti
0.875055 0.874986 0.823799 F F F Ti
0.125039 0.125029 0.823867 F F F Ti
0.624997 0.124986 0.823860 F F F Ti
0.124947 0.625015 0.823800 F F F Ti
0.624985 0.625036 0.823784 F F F Ti
0.124984 0.375023 0.910149 F F F Ti
0.624994 0.375010 0.910142 F F F Ti
0.125005 0.874979 0.910121 F F F Ti
0.624989 0.874973 0.910119 F F F Ti
0.375010 0.124990 0.910142 F F F Ti
0.875020 0.124977 0.910149 F F F Ti
0.375013 0.625027 0.910119 F F F Ti
0.874999 0.625022 0.910121 F F F Ti
0.389316 0.380011 0.664136 T T T Ti
0.886153 0.378864 0.646043 T T T Ti
0.387440 0.892463 0.648348 T T T Ti
0.890625 0.884449 0.666138 T T T Ti
0.113846 0.121134 0.646043 T T T Ti
0.610683 0.119987 0.664136 T T T Ti
0.109374 0.615548 0.666138 T T T Ti
0.612560 0.607535 0.648348 T T T Ti
0.146284 0.373168 0.570193 T T T Ti
0.633357 0.341125 0.572495 T T T Ti
0.134190 0.853314 0.580507 T T T Ti
0.666257 0.886340 0.580412 T T T Ti
0.366643 0.158874 0.572495 T T T Ti
0.853716 0.126832 0.570193 T T T Ti
0.333743 0.613660 0.580412 T T T Ti
0.865809 0.646685 0.580507 T T T Ti
0.410178 0.409480 0.484897 T T T Ti
0.896662 0.375377 0.487906 T T T Ti
0.325584 0.934103 0.484969 T T T Ti
0.909954 0.884560 0.489324 T T T Ti
0.103338 0.124623 0.487906 T T T Ti
0.589822 0.090520 0.484897 T T T Ti
0.090046 0.615440 0.489324 T T T Ti
0.674415 0.565897 0.484969 T T T Ti
0.125248 0.875005 0.737593 F F F Ti
0.625098 0.874979 0.737610 F F F Ti
0.374896 0.625009 0.737610 F F F Ti
0.874747 0.624985 0.737595 F F F Ti
0.124844 0.374848 0.737661 F F F Ti
0.625022 0.374835 0.737638 F F F Ti
0.374972 0.125152 0.737636 F F F Ti
0.875149 0.125138 0.737658 F F F Ti
0.500000 0.750000 0.499575 T T T Al

0.000000 0.000000 0.000000
0.000000 0.000000 0.000000
0.000000 0.000000 0.000000
0.000000 0.000000 0.000000
0.000000 0.000000 0.000000
0.000000 0.000000 0.000000
0.000000 0.000000 0.000000
0.000000 0.000000 0.000000
0.000000 0.000000 0.000000
0.000000 0.000000 0.000000
0.000000 0.000000 0.000000
0.000000 0.000000 0.000000
0.000000 0.000000 0.000000
0.000000 0.000000 0.000000
0.000000 0.000000 0.000000
0.000000 0.000000 0.000000
0.000000 0.000000 0.000000
0.000000 0.000000 0.000000
0.000000 0.000000 0.000000
0.000000 0.000000 0.000000
0.000000 0.000000 0.000000
0.000000 0.000000 0.000000
0.000000 0.000000 0.000000
0.000000 0.000000 0.000000
0.000000 0.000000 0.000000
0.000000 0.000000 0.000000
0.000000 0.000000 0.000000
0.000000 0.000000 0.000000
0.000000 0.000000 0.000000
0.000000 0.000000 0.000000
0.000000 0.000000 0.000000
0.000000 0.000000 0.000000
0.000000 0.000000 0.000000
0.000000 0.000000 0.000000
0.000000 0.000000 0.000000
0.000000 0.000000 0.000000
0.000000 0.000000 0.000000
0.000000 0.000000 0.000000
0.000000 0.000000 0.000000
0.000000 0.000000 0.000000
0.000000 0.000000 0.000000
0.000000 0.000000 0.000000
0.000000 0.000000 0.000000
0.000000 0.000000 0.000000
0.000000 0.000000 0.000000
0.000000 0.000000 0.000000
0.000000 0.000000 0.000000
0.000000 0.000000 0.000000
0.000000 0.000000 0.000000
0.000000 0.000000 0.000000
0.000000 0.000000 0.000000
0.000000 0.000000 0.000000
0.000000 0.000000 0.000000
0.000000 0.000000 0.000000
0.000000 0.000000 0.000000
0.000000 0.000000 0.000000
0.000000 0.000000 0.000000
0.000000 0.000000 0.000000
0.000000 0.000000 0.000000
0.000000 0.000000 0.000000
0.000000 0.000000 0.000000
0.000000 0.000000 0.000000
0.000000 0.000000 0.000000
0.000000 0.000000 0.000000
0.000000 0.000000 0.000000
0.000000 0.000000 0.000000
0.000000 0.000000 0.000000
0.000000 0.000000 0.000000
0.000000 0.000000 0.000000
0.000000 0.000000 0.000000
0.000000 0.000000 0.000000
0.000000 0.000000 0.000000
0.000000 0.000000 0.000000
0.000000 0.000000 0.000000
0.000000 0.000000 0.000000
0.000000 0.000000 0.000000
0.000000 0.000000 0.000000
0.000000 0.000000 0.000000
0.000000 0.000000 0.000000
0.000000 0.000000 0.000000
0.000000 0.000000 0.000000
0.000000 0.000000 0.000000
0.000000 0.000000 0.000000
0.000000 0.000000 0.000000
0.000000 0.000000 0.000000
0.000000 0.000000 0.000000
0.000000 0.000000 0.000000
0.000000 0.000000 0.000000
0.000000 0.000000 0.000000
0.000000 0.000000 0.000000
0.000000 0.000000 0.000000
0.000000 0.000000 0.000000
0.000000 0.000000 0.000000
0.000000 0.000000 0.000000
0.000000 0.000000 0.000000
0.000000 0.000000 0.000000
0.000000 0.000000 0.000000
