beta_Ti
1.0
5.745590 0.000000 0.000000
0.000000 9.072750 0.000000
0.000000 0.000000 34.625032
Ti
32
direct
0.291667 0.625000 0.500593 Ti
0.291667 0.125000 0.500593 Ti
0.791667 0.625000 0.500593 Ti
0.791667 0.125000 0.500593 Ti
0.458333 0.625000 0.577268 Ti
0.458333 0.125000 0.577268 Ti
0.958333 0.625000 0.577268 Ti
0.958333 0.125000 0.577268 Ti
0.125000 0.625000 0.653941 Ti
0.125000 0.125000 0.653941 Ti
0.625000 0.625000 0.653941 Ti
0.625000 0.125000 0.653941 Ti
0.291667 0.625000 0.730615 Ti
0.291667 0.125000 0.730615 Ti
0.791667 0.625000 0.730615 Ti
0.791667 0.125000 0.730615 Ti
0.125000 0.875000 0.538930 Ti
0.125000 0.375000 0.538930 Ti
0.625000 0.875000 0.538930 Ti
0.625000 0.375000 0.538930 Ti
0.291667 0.875000 0.615604 Ti
0.291667 0.375000 0.615604 Ti
0.791667 0.875000 0.615604 Ti
0.791667 0.375000 0.615604 Ti
0.458333 0.875000 0.692278 Ti
0.458333 0.375000 0.692278 Ti
0.958333 0.875000 0.692278 Ti
0.958333 0.375000 0.692278 Ti
0.125000 0.875000 0.768952 Ti
0.125000 0.375000 0.768952 Ti
0.625000 0.875000 0.768952 Ti
0.625000 0.375000 0.768952 Ti
