alpha_Ti
1.0
5.745590 0.000000 0.000000
0.000000 9.072750 0.000000
0.000000 0.000000 34.625032
Ti
32
direct
0.041667 0.875000 0.269547 Ti
0.041667 0.375000 0.269547 Ti
0.541667 0.875000 0.269547 Ti
0.541667 0.375000 0.269547 Ti
0.291667 0.875000 0.196034 Ti
0.291667 0.375000 0.196034 Ti
0.791667 0.875000 0.196034 Ti
0.791667 0.375000 0.196034 Ti
0.041667 0.625000 0.220539 Ti
0.041667 0.125000 0.220539 Ti
0.541667 0.625000 0.220539 Ti
0.541667 0.125000 0.220539 Ti
0.041667 0.875000 0.122521 Ti
0.041667 0.375000 0.122521 Ti
0.541667 0.875000 0.122521 Ti
0.541667 0.375000 0.122521 Ti
0.291667 0.625000 0.147025 Ti
0.291667 0.125000 0.147025 Ti
0.791667 0.625000 0.147025 Ti
0.791667 0.125000 0.147025 Ti
0.291667 0.875000 0.049008 Ti
0.291667 0.375000 0.049008 Ti
0.791667 0.875000 0.049008 Ti
0.791667 0.375000 0.049008 Ti
0.041667 0.625000 0.073513 Ti
0.041667 0.125000 0.073513 Ti
0.541667 0.625000 0.073513 Ti
0.541667 0.125000 0.073513 Ti
0.791667 0.125000 0.000000 Ti
0.291667 0.125000 0.000000 Ti
0.791667 0.625000 -0.000000 Ti
0.291667 0.625000 -0.000000 Ti
