beta_Ti
1.0
8.805261 0.000000 0.000000
-4.402631 7.625580 0.000000
0.000000 0.000000 31.883422
Ti
36
direct
0.055556 0.055556 0.564135 Ti
0.055556 0.555555 0.564135 Ti
0.555556 0.055556 0.564135 Ti
0.555556 0.555555 0.564135 Ti
0.222222 0.388889 0.767132 Ti
0.222222 0.888889 0.767132 Ti
0.722222 0.388889 0.767132 Ti
0.722222 0.888889 0.767132 Ti
0.388889 0.222222 0.796132 Ti
0.388889 0.722222 0.796132 Ti
0.888889 0.222222 0.796132 Ti
0.888889 0.722222 0.796132 Ti
0.222222 0.388889 0.593134 Ti
0.222222 0.888889 0.593134 Ti
0.722222 0.388889 0.593134 Ti
0.722222 0.888889 0.593134 Ti
0.388889 0.222222 0.622134 Ti
0.388889 0.722222 0.622134 Ti
0.888889 0.222222 0.622134 Ti
0.888889 0.722222 0.622134 Ti
0.055556 0.055556 0.651134 Ti
0.055556 0.555555 0.651134 Ti
0.555556 0.055556 0.651134 Ti
0.555556 0.555555 0.651134 Ti
0.222222 0.388889 0.680133 Ti
0.222222 0.888889 0.680133 Ti
0.722222 0.388889 0.680133 Ti
0.722222 0.888889 0.680133 Ti
0.388889 0.222222 0.709133 Ti
0.388889 0.722222 0.709133 Ti
0.888889 0.222222 0.709133 Ti
0.888889 0.722222 0.709133 Ti
0.055556 0.055556 0.738133 Ti
0.055556 0.555555 0.738133 Ti
0.555556 0.055556 0.738133 Ti
0.555556 0.555555 0.738133 Ti
