Ti96 Al1
1.0
9.513020 0.000000 0.000000
0.000000 9.350860 0.000000
0.000000 0.000000 18.547230
Ti Al
96 1
Selective dynamics
direct
0.141358 0.372370 0.405112 T T T Ti
0.654677 0.349065 0.410998 T T T Ti
0.150116 0.859915 0.408646 T T T Ti
0.674331 0.897484 0.397914 T T T Ti
0.149289 0.369041 0.239995 T T T Ti
0.662203 0.369539 0.232848 T T T Ti
0.165469 0.869694 0.235177 T T T Ti
0.673998 0.894227 0.234521 T T T Ti
0.166667 0.375125 0.077339 F F F Ti
0.666730 0.374973 0.077276 F F F Ti
0.166738 0.875029 0.077466 F F F Ti
0.666540 0.874901 0.077610 F F F Ti
0.406658 0.368974 0.317906 T T T Ti
0.900209 0.373588 0.322670 T T T Ti
0.371991 0.927803 0.327354 T T T Ti
0.917360 0.877070 0.316810 T T T Ti
0.416752 0.375233 0.154875 F F F Ti
0.916862 0.374834 0.154785 F F F Ti
0.416568 0.874938 0.155503 F F F Ti
0.916675 0.875177 0.154902 F F F Ti
0.416675 0.375077 -0.000165 F F F Ti
0.916650 0.375008 -0.000233 F F F Ti
0.416681 0.874937 0.000010 F F F Ti
0.916635 0.874966 -0.000159 F F F Ti
0.099791 0.126414 0.322668 T T T Ti
0.593342 0.131028 0.317905 T T T Ti
0.082640 0.622932 0.316810 T T T Ti
0.628009 0.572198 0.327354 T T T Ti
0.083138 0.125201 0.154783 F F F Ti
0.583247 0.124796 0.154877 F F F Ti
0.083326 0.624851 0.154904 F F F Ti
0.583434 0.625062 0.155502 F F F Ti
0.083351 0.125001 -0.000233 F F F Ti
0.583325 0.124938 -0.000163 F F F Ti
0.083366 0.625038 -0.000159 F F F Ti
0.583321 0.625056 0.000008 F F F Ti
0.345322 0.150936 0.410998 T T T Ti
0.858641 0.127630 0.405112 T T T Ti
0.325667 0.602517 0.397914 T T T Ti
0.849883 0.640086 0.408646 T T T Ti
0.337796 0.130465 0.232848 T T T Ti
0.850711 0.130964 0.239995 T T T Ti
0.326001 0.605777 0.234521 T T T Ti
0.834530 0.630313 0.235178 T T T Ti
0.333270 0.125049 0.077276 F F F Ti
0.833332 0.124897 0.077341 F F F Ti
0.333458 0.625111 0.077609 F F F Ti
0.833262 0.624989 0.077466 F F F Ti
0.375039 0.375075 0.823774 F F F Ti
0.874906 0.375040 0.823797 F F F Ti
0.375061 0.874917 0.823696 F F F Ti
0.874917 0.874951 0.823738 F F F Ti
0.125098 0.124942 0.823798 F F F Ti
0.624962 0.124920 0.823776 F F F Ti
0.125086 0.625034 0.823737 F F F Ti
0.624945 0.625070 0.823694 F F F Ti
0.125051 0.375088 0.910033 F F F Ti
0.624973 0.375082 0.910050 F F F Ti
0.125099 0.874928 0.910078 F F F Ti
0.624930 0.874924 0.910140 F F F Ti
0.375034 0.124912 0.910052 F F F Ti
0.874954 0.124906 0.910034 F F F Ti
0.375072 0.625053 0.910139 F F F Ti
0.874906 0.625054 0.910077 F F F Ti
0.393743 0.396010 0.653680 T T T Ti
0.900058 0.376773 0.651706 T T T Ti
0.391894 0.884228 0.653387 T T T Ti
0.886838 0.883796 0.660645 T T T Ti
0.099940 0.123222 0.651706 T T T Ti
0.606255 0.103985 0.653681 T T T Ti
0.113161 0.616199 0.660645 T T T Ti
0.608106 0.615768 0.653387 T T T Ti
0.152761 0.376851 0.569607 T T T Ti
0.647988 0.350489 0.581063 T T T Ti
0.137533 0.864526 0.580597 T T T Ti
0.649471 0.858207 0.567541 T T T Ti
0.352011 0.149509 0.581063 T T T Ti
0.847238 0.123147 0.569607 T T T Ti
0.350528 0.641791 0.567541 T T T Ti
0.862466 0.635472 0.580597 T T T Ti
0.404890 0.388025 0.490936 T T T Ti
0.897643 0.375774 0.491493 T T T Ti
0.376413 0.909968 0.500051 T T T Ti
0.908641 0.880545 0.489529 T T T Ti
0.102357 0.124226 0.491493 T T T Ti
0.595110 0.111974 0.490936 T T T Ti
0.091359 0.619455 0.489529 T T T Ti
0.623587 0.590032 0.500051 T T T Ti
0.125183 0.874881 0.737568 F F F Ti
0.624977 0.874958 0.737514 F F F Ti
0.375017 0.625022 0.737511 F F F Ti
0.874810 0.625097 0.737568 F F F Ti
0.124975 0.374969 0.737649 F F F Ti
0.624990 0.374965 0.737597 F F F Ti
0.375002 0.125014 0.737597 F F F Ti
0.875016 0.125007 0.737650 F F F Ti
0.500000 0.750000 0.360815 T T T Al

0.000000 0.000000 0.000000
0.000000 0.000000 0.000000
0.000000 0.000000 0.000000
0.000000 0.000000 0.000000
0.000000 0.000000 0.000000
0.000000 0.000000 0.000000
0.000000 0.000000 0.000000
0.000000 0.000000 0.000000
0.000000 0.000000 0.000000
0.000000 0.000000 0.000000
0.000000 0.000000 0.000000
0.000000 0.000000 0.000000
0.000000 0.000000 0.000000
0.000000 0.000000 0.000000
0.000000 0.000000 0.000000
0.000000 0.000000 0.000000
0.000000 0.000000 0.000000
0.000000 0.000000 0.000000
0.000000 0.000000 0.000000
0.000000 0.000000 0.000000
0.000000 0.000000 0.000000
0.000000 0.000000 0.000000
0.000000 0.000000 0.000000
0.000000 0.000000 0.000000
0.000000 0.000000 0.000000
0.000000 0.000000 0.000000
0.000000 0.000000 0.000000
0.000000 0.000000 0.000000
0.000000 0.000000 0.000000
0.000000 0.000000 0.000000
0.000000 0.000000 0.000000
0.000000 0.000000 0.000000
0.000000 0.000000 0.000000
0.000000 0.000000 0.000000
0.000000 0.000000 0.000000
0.000000 0.000000 0.000000
0.000000 0.000000 0.000000
0.000000 0.000000 0.000000
0.000000 0.000000 0.000000
0.000000 0.000000 0.000000
0.000000 0.000000 0.000000
0.000000 0.000000 0.000000
0.000000 0.000000 0.000000
0.000000 0.000000 0.000000
0.000000 0.000000 0.000000
0.000000 0.000000 0.000000
0.000000 0.000000 0.000000
0.000000 0.000000 0.000000
0.000000 0.000000 0.000000
0.000000 0.000000 0.000000
0.000000 0.000000 0.000000
0.000000 0.000000 0.000000
0.000000 0.000000 0.000000
0.000000 0.000000 0.000000
0.000000 0.000000 0.000000
0.000000 0.000000 0.000000
0.000000 0.000000 0.000000
0.000000 0.000000 0.000000
0.000000 0.000000 0.000000
0.000000 0.000000 0.000000
0.000000 0.000000 0.000000
0.000000 0.000000 0.000000
0.000000 0.000000 0.000000
0.000000 0.000000 0.000000
0.000000 0.000000 0.000000
0.000000 0.000000 0.000000
0.000000 0.000000 0.000000
0.000000 0.000000 0.000000
0.000000 0.000000 0.000000
0.000000 0.000000 0.000000
0.000000 0.000000 0.000000
0.000000 0.000000 0.000000
0.000000 0.000000 0.000000
0.000000 0.000000 0.000000
0.000000 0.000000 0.000000
0.000000 0.000000 0.000000
0.000000 0.000000 0.000000
0.000000 0.000000 0.000000
0.000000 0.000000 0.000000
0.000000 0.000000 0.000000
0.000000 0.000000 0.000000
0.000000 0.000000 0.000000
0.000000 0.000000 0.000000
0.000000 0.000000 0.000000
0.000000 0.000000 0.000000
0.000000 0.000000 0.000000
0.000000 0.000000 0.000000
0.000000 0.000000 0.000000
0.000000 0.000000 0.000000
0.000000 0.000000 0.000000
0.000000 0.000000 0.000000
0.000000 0.000000 0.000000
0.000000 0.000000 0.000000
0.000000 0.000000 0.000000
0.000000 0.000000 0.000000
0.000000 0.000000 0.000000
0.000000 0.000000 0.000000
