alpha_Ti
1.0
4.756512 0.000000 0.000000
0.000000 4.675432 0.000000
0.000000 0.000000 35.211800
Ti
12
direct
0.333333 0.750000 0.204608 Ti
0.333333 0.750000 0.122765 Ti
0.333333 0.750000 0.040922 Ti
0.833334 0.750000 0.163686 Ti
0.833334 0.750000 0.081843 Ti
0.833334 0.750000 -0.000000 Ti
0.166666 0.250000 0.163686 Ti
0.166666 0.250000 0.081843 Ti
0.166666 0.250000 -0.000000 Ti
0.666667 0.250000 0.204608 Ti
0.666667 0.250000 0.122765 Ti
0.666667 0.250000 0.040922 Ti
