Ti36
1.0
8.805261 0.000000 0.000000
-4.402630 7.625580 0.000000
0.000000 0.000000 16.288801
Ti
36
direct
0.222214 0.944436 0.484500 Ti
0.222214 0.444436 0.484500 Ti
0.722214 0.944436 0.484500 Ti
0.722214 0.444436 0.484500 Ti
0.388880 0.277769 0.881844 Ti
0.388880 0.777769 0.881844 Ti
0.888880 0.277769 0.881844 Ti
0.888880 0.777769 0.881844 Ti
0.555547 0.111102 0.938607 Ti
0.555547 0.611103 0.938607 Ti
0.055556 0.111102 0.938607 Ti
0.055556 0.611103 0.938607 Ti
0.388880 0.277769 0.541264 Ti
0.388880 0.777769 0.541264 Ti
0.888880 0.277769 0.541264 Ti
0.888880 0.777769 0.541264 Ti
0.555547 0.111102 0.598027 Ti
0.555547 0.611103 0.598027 Ti
0.055556 0.111102 0.598027 Ti
0.055556 0.611103 0.598027 Ti
0.222214 0.944436 0.654790 Ti
0.222214 0.444436 0.654790 Ti
0.722214 0.944436 0.654790 Ti
0.722214 0.444436 0.654790 Ti
0.388880 0.277769 0.711554 Ti
0.388880 0.777769 0.711554 Ti
0.888880 0.277769 0.711554 Ti
0.888880 0.777769 0.711554 Ti
0.555547 0.111102 0.768317 Ti
0.555547 0.611103 0.768317 Ti
0.055556 0.111102 0.768317 Ti
0.055556 0.611103 0.768317 Ti
0.222214 0.944436 0.825080 Ti
0.222214 0.444436 0.825080 Ti
0.722214 0.944436 0.825080 Ti
0.722214 0.444436 0.825080 Ti
