Ti36
1.0
8.805261 0.000000 0.000000
-4.402630 7.625579 0.000000
0.000000 0.000000 15.288801
Ti
36
direct
0.000000 0.000000 0.483487 Ti
1.000000 0.500000 0.483487 Ti
0.500000 0.000000 0.483487 Ti
0.500000 0.500000 0.483487 Ti
0.166667 0.333333 0.906819 Ti
0.166667 0.833333 0.906819 Ti
0.666667 0.333333 0.906819 Ti
0.666667 0.833333 0.906819 Ti
0.333333 0.166667 0.967295 Ti
0.333333 0.666667 0.967295 Ti
0.833333 0.166667 0.967295 Ti
0.833333 0.666667 0.967295 Ti
0.166667 0.333333 0.543963 Ti
0.166667 0.833333 0.543963 Ti
0.666667 0.333333 0.543963 Ti
0.666667 0.833333 0.543963 Ti
0.333333 0.166667 0.604439 Ti
0.333333 0.666667 0.604439 Ti
0.833333 0.166667 0.604439 Ti
0.833333 0.666667 0.604439 Ti
0.000000 0.000000 0.664915 Ti
1.000000 0.500000 0.664915 Ti
0.500000 0.000000 0.664915 Ti
0.500000 0.500000 0.664915 Ti
0.166667 0.333333 0.725391 Ti
0.166667 0.833333 0.725391 Ti
0.666667 0.333333 0.725391 Ti
0.666667 0.833333 0.725391 Ti
0.333333 0.166667 0.785867 Ti
0.333333 0.666667 0.785867 Ti
0.833333 0.166667 0.785867 Ti
0.833333 0.666667 0.785867 Ti
0.000000 0.000000 0.846343 Ti
1.000000 0.500000 0.846343 Ti
0.500000 0.000000 0.846343 Ti
0.500000 0.500000 0.846343 Ti

0.000000 0.000000 0.000000
0.000000 0.000000 0.000000
0.000000 0.000000 0.000000
0.000000 0.000000 0.000000
0.000000 0.000000 0.000000
0.000000 0.000000 0.000000
0.000000 0.000000 0.000000
0.000000 0.000000 0.000000
0.000000 0.000000 0.000000
0.000000 0.000000 0.000000
0.000000 0.000000 0.000000
0.000000 0.000000 0.000000
0.000000 0.000000 0.000000
0.000000 0.000000 0.000000
0.000000 0.000000 0.000000
0.000000 0.000000 0.000000
0.000000 0.000000 0.000000
0.000000 0.000000 0.000000
0.000000 0.000000 0.000000
0.000000 0.000000 0.000000
0.000000 0.000000 0.000000
0.000000 0.000000 0.000000
0.000000 0.000000 0.000000
0.000000 0.000000 0.000000
0.000000 0.000000 0.000000
0.000000 0.000000 0.000000
0.000000 0.000000 0.000000
0.000000 0.000000 0.000000
0.000000 0.000000 0.000000
0.000000 0.000000 0.000000
0.000000 0.000000 0.000000
0.000000 0.000000 0.000000
0.000000 0.000000 0.000000
0.000000 0.000000 0.000000
0.000000 0.000000 0.000000
0.000000 0.000000 0.000000
