Ti36
1.0
8.805261 0.000000 0.000000
-4.402630 7.625580 0.000000
0.000000 0.000000 24.288801
Ti
36
direct
0.967272 0.027818 0.489605 Ti
0.967272 0.527818 0.489605 Ti
0.467272 0.027818 0.489605 Ti
0.467272 0.527818 0.489605 Ti
0.133938 0.361151 0.756076 Ti
0.133938 0.861151 0.756076 Ti
0.633938 0.361151 0.756076 Ti
0.633938 0.861151 0.756076 Ti
0.300605 0.194485 0.794143 Ti
0.300605 0.694485 0.794143 Ti
0.800605 0.194485 0.794143 Ti
0.800605 0.694485 0.794143 Ti
0.133938 0.361151 0.527673 Ti
0.133938 0.861151 0.527673 Ti
0.633938 0.361151 0.527673 Ti
0.633938 0.861151 0.527673 Ti
0.300605 0.194485 0.565740 Ti
0.300605 0.694485 0.565740 Ti
0.800605 0.194485 0.565740 Ti
0.800605 0.694485 0.565740 Ti
0.967272 0.027818 0.603807 Ti
0.967272 0.527818 0.603807 Ti
0.467272 0.027818 0.603807 Ti
0.467272 0.527818 0.603807 Ti
0.133938 0.361151 0.641874 Ti
0.133938 0.861151 0.641874 Ti
0.633938 0.361151 0.641874 Ti
0.633938 0.861151 0.641874 Ti
0.300605 0.194485 0.679941 Ti
0.300605 0.694485 0.679941 Ti
0.800605 0.194485 0.679941 Ti
0.800605 0.694485 0.679941 Ti
0.967272 0.027818 0.718009 Ti
0.967272 0.527818 0.718009 Ti
0.467272 0.027818 0.718009 Ti
0.467272 0.527818 0.718009 Ti
