Ti66 Cr1
1.0
6.309760 0.000000 0.000000
0.000000 9.464640 0.000000
0.000000 0.000000 18.918326
Ti Cr
66 1
Selective dynamics
direct
0.110183 0.035147 0.500408 F F F Ti
0.637153 0.035651 0.500257 F F F Ti
0.124503 0.042158 0.658883 F F F Ti
0.623792 0.042300 0.659113 F F F Ti
0.125087 0.042180 0.817473 F F F Ti
0.624668 0.042239 0.817487 F F F Ti
0.085352 0.388749 0.503256 F F F Ti
0.673835 0.398059 0.503677 F F F Ti
0.124969 0.375568 0.658729 F F F Ti
0.624404 0.376272 0.659550 F F F Ti
0.125144 0.375132 0.817376 F F F Ti
0.624616 0.375144 0.817559 F F F Ti
0.124320 0.709543 0.500339 F F F Ti
0.622478 0.711490 0.500385 F F F Ti
0.126832 0.709878 0.659769 F F F Ti
0.622016 0.710222 0.659973 F F F Ti
0.125205 0.708742 0.817746 F F F Ti
0.624495 0.708787 0.817792 F F F Ti
0.870583 0.207574 0.580908 F F F Ti
0.374637 0.208871 0.737710 F F F Ti
0.874876 0.208731 0.738378 F F F Ti
0.374936 0.208489 0.896542 F F F Ti
0.874939 0.208527 0.896643 F F F Ti
0.374460 0.543038 0.579598 F F F Ti
0.875238 0.550204 0.583633 F F F Ti
0.374782 0.541936 0.738349 F F F Ti
0.875033 0.542428 0.738990 F F F Ti
0.374996 0.541655 0.896682 F F F Ti
0.875101 0.541688 0.896769 F F F Ti
0.374185 0.876165 0.579571 F F F Ti
0.873622 0.873660 0.580881 F F F Ti
0.374525 0.876092 0.738437 F F F Ti
0.874699 0.875696 0.738632 F F F Ti
0.375006 0.875387 0.896714 F F F Ti
0.874919 0.875324 0.896752 F F F Ti
0.125428 0.623940 0.356957 F F F Ti
0.623445 0.625163 0.356443 F F F Ti
0.125220 0.624825 0.118941 F F F Ti
0.624813 0.624829 0.118890 F F F Ti
0.118242 0.122014 0.355545 F F F Ti
0.634304 0.120831 0.354328 F F F Ti
0.125202 0.124851 0.118768 F F F Ti
0.624643 0.124840 0.118665 F F F Ti
0.125175 0.374924 0.039774 F F F Ti
0.624795 0.374986 0.039749 F F F Ti
0.125069 0.874998 0.039660 F F F Ti
0.624763 0.874932 0.039623 F F F Ti
0.125707 0.374288 0.277582 F F F Ti
0.624386 0.374756 0.276820 F F F Ti
0.124501 0.873879 0.277093 F F F Ti
0.624749 0.873402 0.276739 F F F Ti
0.374816 0.874632 0.158361 F F F Ti
0.874900 0.874479 0.158197 F F F Ti
0.374863 0.374727 0.158564 F F F Ti
0.875393 0.374965 0.158370 F F F Ti
0.870519 0.375129 0.394014 F F F Ti
0.374106 0.874003 0.396102 F F F Ti
0.873666 0.871716 0.395735 F F F Ti
0.374539 0.624354 0.237838 F F F Ti
0.875191 0.624414 0.237622 F F F Ti
0.374952 0.624814 0.000235 F F F Ti
0.875191 0.624894 0.000240 F F F Ti
0.374765 0.124347 0.237648 F F F Ti
0.874888 0.124461 0.236699 F F F Ti
0.374934 0.125162 0.000143 F F F Ti
0.874793 0.125094 0.000132 F F F Ti
0.391452 0.260537 0.470479 T T T Cr

0.000000 0.000000 0.000000
0.000000 0.000000 0.000000
0.000000 0.000000 0.000000
0.000000 0.000000 0.000000
0.000000 0.000000 0.000000
0.000000 0.000000 0.000000
0.000000 0.000000 0.000000
0.000000 0.000000 0.000000
0.000000 0.000000 0.000000
0.000000 0.000000 0.000000
0.000000 0.000000 0.000000
0.000000 0.000000 0.000000
0.000000 0.000000 0.000000
0.000000 0.000000 0.000000
0.000000 0.000000 0.000000
0.000000 0.000000 0.000000
0.000000 0.000000 0.000000
0.000000 0.000000 0.000000
0.000000 0.000000 0.000000
0.000000 0.000000 0.000000
0.000000 0.000000 0.000000
0.000000 0.000000 0.000000
0.000000 0.000000 0.000000
0.000000 0.000000 0.000000
0.000000 0.000000 0.000000
0.000000 0.000000 0.000000
0.000000 0.000000 0.000000
0.000000 0.000000 0.000000
0.000000 0.000000 0.000000
0.000000 0.000000 0.000000
0.000000 0.000000 0.000000
0.000000 0.000000 0.000000
0.000000 0.000000 0.000000
0.000000 0.000000 0.000000
0.000000 0.000000 0.000000
0.000000 0.000000 0.000000
0.000000 0.000000 0.000000
0.000000 0.000000 0.000000
0.000000 0.000000 0.000000
0.000000 0.000000 0.000000
0.000000 0.000000 0.000000
0.000000 0.000000 0.000000
0.000000 0.000000 0.000000
0.000000 0.000000 0.000000
0.000000 0.000000 0.000000
0.000000 0.000000 0.000000
0.000000 0.000000 0.000000
0.000000 0.000000 0.000000
0.000000 0.000000 0.000000
0.000000 0.000000 0.000000
0.000000 0.000000 0.000000
0.000000 0.000000 0.000000
0.000000 0.000000 0.000000
0.000000 0.000000 0.000000
0.000000 0.000000 0.000000
0.000000 0.000000 0.000000
0.000000 0.000000 0.000000
0.000000 0.000000 0.000000
0.000000 0.000000 0.000000
0.000000 0.000000 0.000000
0.000000 0.000000 0.000000
0.000000 0.000000 0.000000
0.000000 0.000000 0.000000
0.000000 0.000000 0.000000
0.000000 0.000000 0.000000
0.000000 0.000000 0.000000
0.000000 0.000000 0.000000
