beta_Ti
1.0
4.756510 0.000000 0.000000
0.000000 4.675430 0.000000
0.000000 0.000000 19.211761
Ti
12
direct
0.750000 0.750000 0.895900 Ti
0.250000 0.250000 0.895900 Ti
0.250000 0.750000 0.812543 Ti
0.750000 0.250000 0.812543 Ti
0.750000 0.750000 0.729185 Ti
0.250000 0.250000 0.729185 Ti
0.250000 0.750000 0.645828 Ti
0.750000 0.250000 0.645828 Ti
0.750000 0.750000 0.562469 Ti
0.250000 0.250000 0.562469 Ti
0.250000 0.750000 0.479112 Ti
0.750000 0.250000 0.479112 Ti
