Ti66 Sn1
1.0
6.309760 0.000000 0.000000
0.000000 9.464640 0.000000
0.000000 0.000000 18.918326
Ti Sn
66 1
Selective dynamics
direct
0.124140 0.040687 0.500566 F F F Ti
0.625765 0.040806 0.500239 F F F Ti
0.124807 0.041330 0.658768 F F F Ti
0.624804 0.041318 0.658749 F F F Ti
0.124963 0.041565 0.817210 F F F Ti
0.624953 0.041567 0.817210 F F F Ti
0.118550 0.376108 0.501960 F F F Ti
0.625356 0.374880 0.500808 F F F Ti
0.124561 0.374932 0.658960 F F F Ti
0.624636 0.374892 0.658905 F F F Ti
0.124936 0.374980 0.817240 F F F Ti
0.624906 0.374974 0.817244 F F F Ti
0.125318 0.707210 0.499865 F F F Ti
0.623905 0.707552 0.499861 F F F Ti
0.124965 0.708216 0.658671 F F F Ti
0.624515 0.708315 0.658701 F F F Ti
0.124966 0.708329 0.817196 F F F Ti
0.624893 0.708344 0.817202 F F F Ti
0.374606 0.207991 0.579700 F F F Ti
0.873868 0.207707 0.579806 F F F Ti
0.374913 0.208183 0.738008 F F F Ti
0.874788 0.208172 0.738045 F F F Ti
0.374983 0.208287 0.896404 F F F Ti
0.874946 0.208294 0.896403 F F F Ti
0.374722 0.541502 0.579560 F F F Ti
0.873646 0.542232 0.579811 F F F Ti
0.374924 0.541654 0.738001 F F F Ti
0.874780 0.541712 0.738043 F F F Ti
0.374978 0.541676 0.896413 F F F Ti
0.874928 0.541679 0.896409 F F F Ti
0.374923 0.874562 0.579366 F F F Ti
0.874782 0.874309 0.579406 F F F Ti
0.374906 0.874885 0.737953 F F F Ti
0.874884 0.874839 0.737957 F F F Ti
0.375003 0.874975 0.896425 F F F Ti
0.874952 0.874972 0.896422 F F F Ti
0.123804 0.625335 0.356596 F F F Ti
0.623974 0.624829 0.356598 F F F Ti
0.124952 0.625203 0.118689 F F F Ti
0.624824 0.625135 0.118706 F F F Ti
0.635792 0.121306 0.355843 F F F Ti
0.125176 0.124933 0.118672 F F F Ti
0.625154 0.124844 0.118631 F F F Ti
0.125064 0.375016 0.039393 F F F Ti
0.624806 0.375006 0.039351 F F F Ti
0.125002 0.875035 0.039509 F F F Ti
0.624974 0.874986 0.039501 F F F Ti
0.118933 0.377074 0.275256 F F F Ti
0.626823 0.374885 0.276571 F F F Ti
0.125255 0.875241 0.277450 F F F Ti
0.625313 0.874216 0.277240 F F F Ti
0.375017 0.874859 0.158411 F F F Ti
0.875162 0.874951 0.158354 F F F Ti
0.375093 0.375042 0.158187 F F F Ti
0.873968 0.375141 0.157750 F F F Ti
0.868985 0.376361 0.396558 F F F Ti
0.375307 0.874759 0.396417 F F F Ti
0.875848 0.874007 0.396549 F F F Ti
0.374719 0.625050 0.237662 F F F Ti
0.874155 0.625680 0.237505 F F F Ti
0.374948 0.625093 -0.000105 F F F Ti
0.874916 0.625101 -0.000122 F F F Ti
0.376010 0.124565 0.237344 F F F Ti
0.875901 0.124710 0.237229 F F F Ti
0.375006 0.124904 -0.000114 F F F Ti
0.874985 0.124901 -0.000127 F F F Ti
0.313560 0.296770 0.385134 T T T Sn

0.000000 0.000000 0.000000
0.000000 0.000000 0.000000
0.000000 0.000000 0.000000
0.000000 0.000000 0.000000
0.000000 0.000000 0.000000
0.000000 0.000000 0.000000
0.000000 0.000000 0.000000
0.000000 0.000000 0.000000
0.000000 0.000000 0.000000
0.000000 0.000000 0.000000
0.000000 0.000000 0.000000
0.000000 0.000000 0.000000
0.000000 0.000000 0.000000
0.000000 0.000000 0.000000
0.000000 0.000000 0.000000
0.000000 0.000000 0.000000
0.000000 0.000000 0.000000
0.000000 0.000000 0.000000
0.000000 0.000000 0.000000
0.000000 0.000000 0.000000
0.000000 0.000000 0.000000
0.000000 0.000000 0.000000
0.000000 0.000000 0.000000
0.000000 0.000000 0.000000
0.000000 0.000000 0.000000
0.000000 0.000000 0.000000
0.000000 0.000000 0.000000
0.000000 0.000000 0.000000
0.000000 0.000000 0.000000
0.000000 0.000000 0.000000
0.000000 0.000000 0.000000
0.000000 0.000000 0.000000
0.000000 0.000000 0.000000
0.000000 0.000000 0.000000
0.000000 0.000000 0.000000
0.000000 0.000000 0.000000
0.000000 0.000000 0.000000
0.000000 0.000000 0.000000
0.000000 0.000000 0.000000
0.000000 0.000000 0.000000
0.000000 0.000000 0.000000
0.000000 0.000000 0.000000
0.000000 0.000000 0.000000
0.000000 0.000000 0.000000
0.000000 0.000000 0.000000
0.000000 0.000000 0.000000
0.000000 0.000000 0.000000
0.000000 0.000000 0.000000
0.000000 0.000000 0.000000
0.000000 0.000000 0.000000
0.000000 0.000000 0.000000
0.000000 0.000000 0.000000
0.000000 0.000000 0.000000
0.000000 0.000000 0.000000
0.000000 0.000000 0.000000
0.000000 0.000000 0.000000
0.000000 0.000000 0.000000
0.000000 0.000000 0.000000
0.000000 0.000000 0.000000
0.000000 0.000000 0.000000
0.000000 0.000000 0.000000
0.000000 0.000000 0.000000
0.000000 0.000000 0.000000
0.000000 0.000000 0.000000
0.000000 0.000000 0.000000
0.000000 0.000000 0.000000
0.000000 0.000000 0.000000
