total_Ti
1.0
9.445957 0.000000 0.000000
0.000000 9.093951 0.000000
0.000000 0.000000 16.211864
Ti
96
direct
0.166666 0.375000 0.444402 Ti
0.666666 0.375000 0.444402 Ti
0.166666 0.875000 0.444402 Ti
0.666666 0.875000 0.444402 Ti
0.166666 0.375000 0.266642 Ti
0.666666 0.375000 0.266642 Ti
0.166666 0.875000 0.266642 Ti
0.666666 0.875000 0.266642 Ti
0.166666 0.375000 0.088881 Ti
0.666666 0.375000 0.088881 Ti
0.166666 0.875000 0.088881 Ti
0.666666 0.875000 0.088881 Ti
0.416667 0.375000 0.355523 Ti
0.916667 0.375000 0.355523 Ti
0.416667 0.875000 0.355523 Ti
0.916667 0.875000 0.355523 Ti
0.416667 0.375000 0.177761 Ti
0.916667 0.375000 0.177761 Ti
0.416667 0.875000 0.177761 Ti
0.916667 0.875000 0.177761 Ti
0.416667 0.375000 -0.000000 Ti
0.916667 0.375000 -0.000000 Ti
0.416667 0.875000 -0.000000 Ti
0.916667 0.875000 -0.000000 Ti
0.083333 0.125000 0.355522 Ti
0.583333 0.125000 0.355522 Ti
0.083333 0.625000 0.355522 Ti
0.583333 0.625000 0.355522 Ti
0.083333 0.125000 0.177761 Ti
0.583333 0.125000 0.177761 Ti
0.083333 0.625000 0.177761 Ti
0.583333 0.625000 0.177761 Ti
0.083333 0.125000 -0.000000 Ti
0.583333 0.125000 -0.000000 Ti
0.083333 0.625000 -0.000000 Ti
0.583333 0.625000 -0.000000 Ti
0.333333 0.125000 0.444402 Ti
0.833333 0.125000 0.444402 Ti
0.333333 0.625000 0.444402 Ti
0.833333 0.625000 0.444402 Ti
0.333333 0.125000 0.266642 Ti
0.833333 0.125000 0.266642 Ti
0.333333 0.625000 0.266642 Ti
0.833333 0.625000 0.266642 Ti
0.333333 0.125000 0.088881 Ti
0.833333 0.125000 0.088881 Ti
0.333333 0.625000 0.088881 Ti
0.833333 0.625000 0.088881 Ti
0.375000 0.375000 0.870374 Ti
0.875000 0.375000 0.870374 Ti
0.375000 0.875000 0.870374 Ti
0.875000 0.875000 0.870374 Ti
0.125000 0.125000 0.870374 Ti
0.625000 0.125000 0.870374 Ti
0.125000 0.625000 0.870374 Ti
0.625000 0.625000 0.870374 Ti
0.125000 0.375000 0.969157 Ti
0.625000 0.375000 0.969157 Ti
0.125000 0.875000 0.969157 Ti
0.625000 0.875000 0.969157 Ti
0.375000 0.125000 0.969157 Ti
0.875000 0.125000 0.969157 Ti
0.375000 0.625000 0.969157 Ti
0.875000 0.625000 0.969157 Ti
0.375000 0.375000 0.672809 Ti
0.875000 0.375000 0.672809 Ti
0.375000 0.875000 0.672809 Ti
0.875000 0.875000 0.672809 Ti
0.125000 0.125000 0.672809 Ti
0.625000 0.125000 0.672809 Ti
0.125000 0.625000 0.672809 Ti
0.625000 0.625000 0.672809 Ti
0.125000 0.375000 0.574027 Ti
0.625000 0.375000 0.574027 Ti
0.125000 0.875000 0.574027 Ti
0.625000 0.875000 0.574027 Ti
0.375000 0.125000 0.574027 Ti
0.875000 0.125000 0.574027 Ti
0.375000 0.625000 0.574027 Ti
0.875000 0.625000 0.574027 Ti
0.375000 0.375000 0.475244 Ti
0.875000 0.375000 0.475244 Ti
0.375000 0.875000 0.475244 Ti
0.875000 0.875000 0.475244 Ti
0.125000 0.125000 0.475244 Ti
0.625000 0.125000 0.475244 Ti
0.125000 0.625000 0.475244 Ti
0.625000 0.625000 0.475244 Ti
0.125000 0.875000 0.771592 Ti
0.625000 0.875000 0.771592 Ti
0.375000 0.625000 0.771592 Ti
0.875000 0.625000 0.771592 Ti
0.125000 0.375000 0.771592 Ti
0.625000 0.375000 0.771592 Ti
0.375000 0.125000 0.771592 Ti
0.875000 0.125000 0.771592 Ti
