beta_Ti
1.0
9.445957 0.000000 0.000000
0.000000 9.093951 0.000000
0.000000 0.000000 16.211864
Ti
48
direct
0.375000 0.375000 0.870374 Ti
0.875000 0.375000 0.870374 Ti
0.375000 0.875000 0.870374 Ti
0.875000 0.875000 0.870374 Ti
0.125000 0.125000 0.870374 Ti
0.625000 0.125000 0.870374 Ti
0.125000 0.625000 0.870374 Ti
0.625000 0.625000 0.870374 Ti
0.125000 0.375000 0.969157 Ti
0.625000 0.375000 0.969157 Ti
0.125000 0.875000 0.969157 Ti
0.625000 0.875000 0.969157 Ti
0.375000 0.125000 0.969157 Ti
0.875000 0.125000 0.969157 Ti
0.375000 0.625000 0.969157 Ti
0.875000 0.625000 0.969157 Ti
0.375000 0.375000 0.672809 Ti
0.875000 0.375000 0.672809 Ti
0.375000 0.875000 0.672809 Ti
0.875000 0.875000 0.672809 Ti
0.125000 0.125000 0.672809 Ti
0.625000 0.125000 0.672809 Ti
0.125000 0.625000 0.672809 Ti
0.625000 0.625000 0.672809 Ti
0.125000 0.375000 0.574027 Ti
0.625000 0.375000 0.574027 Ti
0.125000 0.875000 0.574027 Ti
0.625000 0.875000 0.574027 Ti
0.375000 0.125000 0.574027 Ti
0.875000 0.125000 0.574027 Ti
0.375000 0.625000 0.574027 Ti
0.875000 0.625000 0.574027 Ti
0.375000 0.375000 0.475244 Ti
0.875000 0.375000 0.475244 Ti
0.375000 0.875000 0.475244 Ti
0.875000 0.875000 0.475244 Ti
0.125000 0.125000 0.475244 Ti
0.625000 0.125000 0.475244 Ti
0.125000 0.625000 0.475244 Ti
0.625000 0.625000 0.475244 Ti
0.125000 0.875000 0.771592 Ti
0.625000 0.875000 0.771592 Ti
0.375000 0.625000 0.771592 Ti
0.875000 0.625000 0.771592 Ti
0.125000 0.375000 0.771592 Ti
0.625000 0.375000 0.771592 Ti
0.375000 0.125000 0.771592 Ti
0.875000 0.125000 0.771592 Ti
