Ti67
1.0
6.309760 0.000000 0.000000
0.000000 9.464640 0.000000
0.000000 0.000000 18.918326
Ti
67
Selective dynamics
direct
0.124316 0.041270 0.499320 F F F Ti
0.625082 0.041579 0.499929 F F F Ti
0.626646 0.041407 0.658712 F F F Ti
0.125021 0.041678 0.817192 F F F Ti
0.625175 0.041611 0.817228 F F F Ti
0.124932 0.375099 0.499956 F F F Ti
0.624814 0.375083 0.499960 F F F Ti
0.124614 0.375984 0.658705 F F F Ti
0.625064 0.375145 0.658614 F F F Ti
0.124944 0.375105 0.817222 F F F Ti
0.625172 0.375146 0.817240 F F F Ti
0.124938 0.708195 0.499944 F F F Ti
0.625150 0.708182 0.499925 F F F Ti
0.125009 0.708315 0.658576 F F F Ti
0.625153 0.708225 0.658605 F F F Ti
0.124997 0.708349 0.817171 F F F Ti
0.625055 0.708336 0.817186 F F F Ti
0.872979 0.208999 0.578982 F F F Ti
0.376161 0.209013 0.738482 F F F Ti
0.874784 0.208528 0.737970 F F F Ti
0.375023 0.208355 0.896499 F F F Ti
0.874997 0.208345 0.896465 F F F Ti
0.375035 0.541653 0.579279 F F F Ti
0.874895 0.541775 0.579263 F F F Ti
0.375073 0.541787 0.737907 F F F Ti
0.874914 0.541776 0.737913 F F F Ti
0.375007 0.541702 0.896464 F F F Ti
0.874997 0.541698 0.896465 F F F Ti
0.376050 0.873802 0.579001 F F F Ti
0.874826 0.874803 0.579207 F F F Ti
0.375273 0.874827 0.737951 F F F Ti
0.875174 0.874989 0.737875 F F F Ti
0.375009 0.874993 0.896460 F F F Ti
0.875019 0.874995 0.896452 F F F Ti
0.125001 0.625018 0.356798 F F F Ti
0.624959 0.625006 0.356788 F F F Ti
0.125001 0.625012 0.118922 F F F Ti
0.624991 0.625011 0.118924 F F F Ti
0.124997 0.125029 0.356721 F F F Ti
0.624975 0.125006 0.356773 F F F Ti
0.125000 0.125001 0.118919 F F F Ti
0.624989 0.125001 0.118923 F F F Ti
0.124995 0.375008 0.039651 F F F Ti
0.625004 0.375009 0.039654 F F F Ti
0.124996 0.875000 0.039646 F F F Ti
0.625003 0.874998 0.039648 F F F Ti
0.124999 0.375013 0.277497 F F F Ti
0.624990 0.375005 0.277498 F F F Ti
0.124996 0.874990 0.277487 F F F Ti
0.624992 0.874996 0.277488 F F F Ti
0.375002 0.874998 0.158570 F F F Ti
0.874995 0.874998 0.158570 F F F Ti
0.375000 0.375005 0.158574 F F F Ti
0.874999 0.375006 0.158573 F F F Ti
0.374992 0.374995 0.396426 F F F Ti
0.874955 0.375029 0.396408 F F F Ti
0.375068 0.874941 0.396383 F F F Ti
0.874894 0.874924 0.396376 F F F Ti
0.374996 0.625005 0.237863 F F F Ti
0.875000 0.625003 0.237862 F F F Ti
0.374996 0.625020 0.000004 F F F Ti
0.875004 0.625018 0.000003 F F F Ti
0.375009 0.125003 0.237851 F F F Ti
0.874985 0.125004 0.237849 F F F Ti
0.375002 0.124993 0.000018 F F F Ti
0.874995 0.124999 0.000009 F F F Ti
0.209122 0.100378 0.629214 T T T Ti

0.000000 0.000000 0.000000
0.000000 0.000000 0.000000
0.000000 0.000000 0.000000
0.000000 0.000000 0.000000
0.000000 0.000000 0.000000
0.000000 0.000000 0.000000
0.000000 0.000000 0.000000
0.000000 0.000000 0.000000
0.000000 0.000000 0.000000
0.000000 0.000000 0.000000
0.000000 0.000000 0.000000
0.000000 0.000000 0.000000
0.000000 0.000000 0.000000
0.000000 0.000000 0.000000
0.000000 0.000000 0.000000
0.000000 0.000000 0.000000
0.000000 0.000000 0.000000
0.000000 0.000000 0.000000
0.000000 0.000000 0.000000
0.000000 0.000000 0.000000
0.000000 0.000000 0.000000
0.000000 0.000000 0.000000
0.000000 0.000000 0.000000
0.000000 0.000000 0.000000
0.000000 0.000000 0.000000
0.000000 0.000000 0.000000
0.000000 0.000000 0.000000
0.000000 0.000000 0.000000
0.000000 0.000000 0.000000
0.000000 0.000000 0.000000
0.000000 0.000000 0.000000
0.000000 0.000000 0.000000
0.000000 0.000000 0.000000
0.000000 0.000000 0.000000
0.000000 0.000000 0.000000
0.000000 0.000000 0.000000
0.000000 0.000000 0.000000
0.000000 0.000000 0.000000
0.000000 0.000000 0.000000
0.000000 0.000000 0.000000
0.000000 0.000000 0.000000
0.000000 0.000000 0.000000
0.000000 0.000000 0.000000
0.000000 0.000000 0.000000
0.000000 0.000000 0.000000
0.000000 0.000000 0.000000
0.000000 0.000000 0.000000
0.000000 0.000000 0.000000
0.000000 0.000000 0.000000
0.000000 0.000000 0.000000
0.000000 0.000000 0.000000
0.000000 0.000000 0.000000
0.000000 0.000000 0.000000
0.000000 0.000000 0.000000
0.000000 0.000000 0.000000
0.000000 0.000000 0.000000
0.000000 0.000000 0.000000
0.000000 0.000000 0.000000
0.000000 0.000000 0.000000
0.000000 0.000000 0.000000
0.000000 0.000000 0.000000
0.000000 0.000000 0.000000
0.000000 0.000000 0.000000
0.000000 0.000000 0.000000
0.000000 0.000000 0.000000
0.000000 0.000000 0.000000
0.000000 0.000000 0.000000
