total_Ti
1.0
8.805261 0.000000 0.000000
-4.402631 7.625580 0.000000
0.000000 0.000000 23.883422
Ti
90
direct
0.222214 0.944436 0.585618 Ti
0.222214 0.444436 0.585618 Ti
0.722214 0.944436 0.585618 Ti
0.722214 0.444436 0.585618 Ti
0.388880 0.277769 0.856611 Ti
0.388880 0.777769 0.856611 Ti
0.888880 0.277769 0.856611 Ti
0.888880 0.777769 0.856611 Ti
0.555547 0.111102 0.895324 Ti
0.555547 0.611102 0.895324 Ti
0.055556 0.111102 0.895324 Ti
0.055556 0.611102 0.895324 Ti
0.388880 0.277769 0.624331 Ti
0.388880 0.777769 0.624331 Ti
0.888880 0.277769 0.624331 Ti
0.888880 0.777769 0.624331 Ti
0.555547 0.111102 0.663044 Ti
0.555547 0.611102 0.663044 Ti
0.055556 0.111102 0.663044 Ti
0.055556 0.611102 0.663044 Ti
0.222214 0.944436 0.701757 Ti
0.222214 0.444436 0.701757 Ti
0.722214 0.944436 0.701757 Ti
0.722214 0.444436 0.701757 Ti
0.388880 0.277769 0.740471 Ti
0.388880 0.777769 0.740471 Ti
0.888880 0.277769 0.740471 Ti
0.888880 0.777769 0.740471 Ti
0.555547 0.111102 0.779184 Ti
0.555547 0.611102 0.779184 Ti
0.055556 0.111102 0.779184 Ti
0.055556 0.611102 0.779184 Ti
0.222214 0.944436 0.817897 Ti
0.222214 0.444436 0.817897 Ti
0.722214 0.944436 0.817897 Ti
0.722214 0.444436 0.817897 Ti
0.166666 0.833342 -0.000000 Ti
0.166666 0.833342 0.384754 Ti
0.166666 0.500009 -0.000000 Ti
0.277778 0.722231 0.096188 Ti
0.166666 0.500009 0.384754 Ti
0.500000 0.833342 -0.000000 Ti
0.166666 0.166675 -0.000000 Ti
0.277778 0.722231 0.480942 Ti
0.277778 0.388897 0.096188 Ti
0.500000 0.833342 0.384754 Ti
0.166666 0.166675 0.384754 Ti
0.500000 0.500009 -0.000000 Ti
0.277778 0.388897 0.480942 Ti
0.611111 0.722231 0.096188 Ti
0.277778 0.055564 0.096188 Ti
0.500000 0.500009 0.384754 Ti
0.833333 0.833342 -0.000000 Ti
0.500000 0.166675 -0.000000 Ti
0.611111 0.722231 0.480942 Ti
0.277778 0.055564 0.480942 Ti
0.611111 0.388897 0.096188 Ti
0.833333 0.833342 0.384754 Ti
0.500000 0.166675 0.384754 Ti
0.833333 0.500009 -0.000000 Ti
0.611111 0.388897 0.480942 Ti
0.944444 0.722231 0.096188 Ti
0.611111 0.055564 0.096188 Ti
0.833333 0.500009 0.384754 Ti
0.833333 0.166675 -0.000000 Ti
0.944444 0.722231 0.480942 Ti
0.611111 0.055564 0.480942 Ti
0.944444 0.388897 0.096188 Ti
0.833333 0.166675 0.384754 Ti
0.944444 0.388897 0.480942 Ti
0.944445 0.055564 0.096188 Ti
0.944445 0.055564 0.480942 Ti
0.166666 0.833342 0.192377 Ti
0.166666 0.500009 0.192377 Ti
0.277778 0.722231 0.288565 Ti
0.500000 0.833342 0.192377 Ti
0.166666 0.166675 0.192377 Ti
0.277778 0.388897 0.288565 Ti
0.500000 0.500009 0.192377 Ti
0.611111 0.722231 0.288565 Ti
0.277778 0.055564 0.288565 Ti
0.833333 0.833342 0.192377 Ti
0.500000 0.166675 0.192377 Ti
0.611111 0.388897 0.288565 Ti
0.833333 0.500009 0.192377 Ti
0.944444 0.722231 0.288565 Ti
0.611111 0.055564 0.288565 Ti
0.833333 0.166675 0.192377 Ti
0.944444 0.388897 0.288565 Ti
0.944445 0.055564 0.288565 Ti
