beta_Ti
1.0
6.309760 0.000000 0.000000
0.000000 9.464640 0.000000
0.000000 0.000000 30.000004
Ti
36
direct
0.875000 0.041667 0.500000 Ti
0.375000 0.041667 0.500000 Ti
0.875000 0.041667 0.600000 Ti
0.375000 0.041667 0.600000 Ti
0.875000 0.041667 0.700000 Ti
0.375000 0.041667 0.700000 Ti
0.875000 0.375000 0.500000 Ti
0.375000 0.375000 0.500000 Ti
0.875000 0.375000 0.600000 Ti
0.375000 0.375000 0.600000 Ti
0.875000 0.375000 0.700000 Ti
0.375000 0.375000 0.700000 Ti
0.875000 0.708333 0.500000 Ti
0.375000 0.708333 0.500000 Ti
0.875000 0.708333 0.600000 Ti
0.375000 0.708333 0.600000 Ti
0.875000 0.708333 0.700000 Ti
0.375000 0.708333 0.700000 Ti
0.125000 0.208333 0.550000 Ti
0.625000 0.208333 0.550000 Ti
0.125000 0.208333 0.650000 Ti
0.625000 0.208333 0.650000 Ti
0.125000 0.208333 0.750000 Ti
0.625000 0.208333 0.750000 Ti
0.125000 0.541667 0.550000 Ti
0.625000 0.541667 0.550000 Ti
0.125000 0.541667 0.650000 Ti
0.625000 0.541667 0.650000 Ti
0.125000 0.541667 0.750000 Ti
0.625000 0.541667 0.750000 Ti
0.125000 0.875000 0.550000 Ti
0.625000 0.875000 0.550000 Ti
0.125000 0.875000 0.650000 Ti
0.625000 0.875000 0.650000 Ti
0.125000 0.875000 0.750000 Ti
0.625000 0.875000 0.750000 Ti
