Ti66 Nb1
1.0
6.309760 0.000000 0.000000
0.000000 9.464640 0.000000
0.000000 0.000000 18.918326
Ti Nb
66 1
Selective dynamics
direct
0.126780 0.025832 0.505110 F F F Ti
0.629154 0.040454 0.500432 F F F Ti
0.125636 0.039409 0.659610 F F F Ti
0.625232 0.039719 0.659330 F F F Ti
0.125146 0.040981 0.817445 F F F Ti
0.625027 0.041020 0.817447 F F F Ti
0.630191 0.374130 0.501066 F F F Ti
0.125370 0.373427 0.658700 F F F Ti
0.625675 0.374016 0.659109 F F F Ti
0.125194 0.374422 0.817288 F F F Ti
0.625197 0.374484 0.817377 F F F Ti
0.125031 0.701253 0.499577 F F F Ti
0.622854 0.707154 0.500018 F F F Ti
0.125353 0.705738 0.658726 F F F Ti
0.624416 0.706058 0.659078 F F F Ti
0.125083 0.707547 0.817316 F F F Ti
0.624944 0.707559 0.817391 F F F Ti
0.378314 0.205867 0.580373 F F F Ti
0.873245 0.205481 0.581236 F F F Ti
0.375402 0.207453 0.738238 F F F Ti
0.875158 0.207383 0.738374 F F F Ti
0.375093 0.208039 0.896473 F F F Ti
0.875108 0.208024 0.896490 F F F Ti
0.375642 0.539101 0.579340 F F F Ti
0.874707 0.540151 0.579675 F F F Ti
0.375042 0.540434 0.738122 F F F Ti
0.875327 0.540570 0.738181 F F F Ti
0.375033 0.541252 0.896454 F F F Ti
0.875110 0.541273 0.896453 F F F Ti
0.377859 0.871156 0.580342 F F F Ti
0.873017 0.870538 0.580490 F F F Ti
0.375279 0.873571 0.738351 F F F Ti
0.874966 0.873490 0.738352 F F F Ti
0.375067 0.874720 0.896524 F F F Ti
0.875004 0.874718 0.896519 F F F Ti
0.126081 0.627948 0.355796 F F F Ti
0.623643 0.633209 0.355067 F F F Ti
0.125289 0.626081 0.118415 F F F Ti
0.625057 0.626105 0.118324 F F F Ti
0.631443 0.126909 0.356722 F F F Ti
0.125635 0.125713 0.118898 F F F Ti
0.625115 0.125654 0.118831 F F F Ti
0.125339 0.375255 0.039266 F F F Ti
0.625082 0.375237 0.039288 F F F Ti
0.125081 0.875581 0.039516 F F F Ti
0.624953 0.875613 0.039506 F F F Ti
0.125611 0.378499 0.276736 F F F Ti
0.625236 0.377128 0.274477 F F F Ti
0.125123 0.877647 0.277583 F F F Ti
0.625288 0.878458 0.277123 F F F Ti
0.375004 0.876522 0.158426 F F F Ti
0.875398 0.876434 0.158321 F F F Ti
0.374543 0.375936 0.157878 F F F Ti
0.876172 0.376063 0.157652 F F F Ti
0.400159 0.388561 0.393422 F F F Ti
0.842855 0.395331 0.391719 F F F Ti
0.374862 0.877276 0.396676 F F F Ti
0.875974 0.875342 0.396697 F F F Ti
0.375203 0.627443 0.236913 F F F Ti
0.875357 0.627641 0.236847 F F F Ti
0.375040 0.625350 -0.000196 F F F Ti
0.875065 0.625365 -0.000200 F F F Ti
0.374937 0.126925 0.238245 F F F Ti
0.876364 0.126843 0.237646 F F F Ti
0.375091 0.125062 -0.000007 F F F Ti
0.875165 0.125068 0.000017 F F F Ti
0.103177 0.245839 0.435552 T T T Nb

0.000000 0.000000 0.000000
0.000000 0.000000 0.000000
0.000000 0.000000 0.000000
0.000000 0.000000 0.000000
0.000000 0.000000 0.000000
0.000000 0.000000 0.000000
0.000000 0.000000 0.000000
0.000000 0.000000 0.000000
0.000000 0.000000 0.000000
0.000000 0.000000 0.000000
0.000000 0.000000 0.000000
0.000000 0.000000 0.000000
0.000000 0.000000 0.000000
0.000000 0.000000 0.000000
0.000000 0.000000 0.000000
0.000000 0.000000 0.000000
0.000000 0.000000 0.000000
0.000000 0.000000 0.000000
0.000000 0.000000 0.000000
0.000000 0.000000 0.000000
0.000000 0.000000 0.000000
0.000000 0.000000 0.000000
0.000000 0.000000 0.000000
0.000000 0.000000 0.000000
0.000000 0.000000 0.000000
0.000000 0.000000 0.000000
0.000000 0.000000 0.000000
0.000000 0.000000 0.000000
0.000000 0.000000 0.000000
0.000000 0.000000 0.000000
0.000000 0.000000 0.000000
0.000000 0.000000 0.000000
0.000000 0.000000 0.000000
0.000000 0.000000 0.000000
0.000000 0.000000 0.000000
0.000000 0.000000 0.000000
0.000000 0.000000 0.000000
0.000000 0.000000 0.000000
0.000000 0.000000 0.000000
0.000000 0.000000 0.000000
0.000000 0.000000 0.000000
0.000000 0.000000 0.000000
0.000000 0.000000 0.000000
0.000000 0.000000 0.000000
0.000000 0.000000 0.000000
0.000000 0.000000 0.000000
0.000000 0.000000 0.000000
0.000000 0.000000 0.000000
0.000000 0.000000 0.000000
0.000000 0.000000 0.000000
0.000000 0.000000 0.000000
0.000000 0.000000 0.000000
0.000000 0.000000 0.000000
0.000000 0.000000 0.000000
0.000000 0.000000 0.000000
0.000000 0.000000 0.000000
0.000000 0.000000 0.000000
0.000000 0.000000 0.000000
0.000000 0.000000 0.000000
0.000000 0.000000 0.000000
0.000000 0.000000 0.000000
0.000000 0.000000 0.000000
0.000000 0.000000 0.000000
0.000000 0.000000 0.000000
0.000000 0.000000 0.000000
0.000000 0.000000 0.000000
0.000000 0.000000 0.000000
