Ti66 Sn1
1.0
6.309760 0.000000 0.000000
0.000000 9.464640 0.000000
0.000000 0.000000 18.918326
Ti Sn
66 1
Selective dynamics
direct
0.152352 -0.012006 0.473984 T T T Ti
0.371059 0.027305 0.582844 T T T Ti
0.596801 0.034548 0.664015 T T T Ti
0.226999 0.044625 0.748282 F F F Ti
0.543157 0.042063 0.824563 F F F Ti
-0.068036 0.192751 0.632077 T T T Ti
0.651295 0.379131 0.485384 T T T Ti
0.199319 0.396830 0.655768 T T T Ti
0.664703 0.350889 0.643728 T T T Ti
0.154016 0.386812 0.820689 F F F Ti
0.659743 0.381622 0.821124 F F F Ti
0.130032 0.662665 0.488808 T T T Ti
0.647002 0.673306 0.483608 T T T Ti
0.144458 0.721049 0.641664 T T T Ti
0.656667 0.709738 0.655076 T T T Ti
0.140551 0.706609 0.819300 F F F Ti
0.656195 0.710142 0.821227 F F F Ti
0.423496 0.207925 0.539370 T T T Ti
0.854244 0.158128 0.543116 T T T Ti
0.434797 0.244481 0.739344 F F F Ti
0.921294 0.211515 0.740288 F F F Ti
0.382715 0.219303 0.900140 F F F Ti
0.896748 0.201007 0.891703 F F F Ti
0.412351 0.533718 0.578769 T T T Ti
0.889215 0.533960 0.580392 T T T Ti
0.414494 0.551281 0.742798 F F F Ti
0.899464 0.548364 0.740506 F F F Ti
0.399674 0.545320 0.899897 F F F Ti
0.893732 0.543526 0.898856 F F F Ti
0.435857 0.841352 0.548783 T T T Ti
0.867255 0.875926 0.556929 T T T Ti
0.412541 0.840527 0.737983 F F F Ti
0.905467 0.882534 0.736105 F F F Ti
0.376131 0.868223 0.900012 F F F Ti
0.892360 0.884473 0.892256 F F F Ti
0.129274 0.633110 0.359615 T T T Ti
0.628213 0.620379 0.357295 T T T Ti
0.127264 0.621371 0.119123 F F F Ti
0.629210 0.621561 0.118854 F F F Ti
0.636283 0.127749 0.372409 T T T Ti
0.127806 0.120892 0.118584 F F F Ti
0.629932 0.120492 0.118786 F F F Ti
0.128108 0.372948 0.038978 F F F Ti
0.634417 0.371965 0.039014 F F F Ti
0.128424 0.874246 0.039801 F F F Ti
0.631531 0.874820 0.039710 F F F Ti
0.130474 0.395044 0.269402 T T T Ti
0.623601 0.373849 0.273334 T T T Ti
0.126935 0.890719 0.284683 T T T Ti
0.629333 0.875680 0.275217 T T T Ti
0.375958 0.871577 0.159005 F F F Ti
0.880862 0.871563 0.158600 F F F Ti
0.377455 0.367769 0.156790 F F F Ti
0.880111 0.368016 0.156949 F F F Ti
0.374855 0.385574 0.384515 T T T Ti
0.884245 0.392920 0.379844 T T T Ti
0.419746 0.869632 0.397356 T T T Ti
0.851131 0.871943 0.400058 T T T Ti
0.379626 0.626195 0.242431 T T T Ti
0.877100 0.626337 0.242272 T T T Ti
0.380517 0.624274 0.002896 F F F Ti
0.880833 0.628053 0.000608 F F F Ti
0.376816 0.127264 0.249664 T T T Ti
0.880948 0.127639 0.248610 T T T Ti
0.379243 0.123492 0.000910 F F F Ti
0.882239 0.123638 -0.002868 F F F Ti
0.100435 0.224760 0.430485 T T T Sn

0.000000 0.000000 0.000000
0.000000 0.000000 0.000000
0.000000 0.000000 0.000000
0.000000 0.000000 0.000000
0.000000 0.000000 0.000000
0.000000 0.000000 0.000000
0.000000 0.000000 0.000000
0.000000 0.000000 0.000000
0.000000 0.000000 0.000000
0.000000 0.000000 0.000000
0.000000 0.000000 0.000000
0.000000 0.000000 0.000000
0.000000 0.000000 0.000000
0.000000 0.000000 0.000000
0.000000 0.000000 0.000000
0.000000 0.000000 0.000000
0.000000 0.000000 0.000000
0.000000 0.000000 0.000000
0.000000 0.000000 0.000000
0.000000 0.000000 0.000000
0.000000 0.000000 0.000000
0.000000 0.000000 0.000000
0.000000 0.000000 0.000000
0.000000 0.000000 0.000000
0.000000 0.000000 0.000000
0.000000 0.000000 0.000000
0.000000 0.000000 0.000000
0.000000 0.000000 0.000000
0.000000 0.000000 0.000000
0.000000 0.000000 0.000000
0.000000 0.000000 0.000000
0.000000 0.000000 0.000000
0.000000 0.000000 0.000000
0.000000 0.000000 0.000000
0.000000 0.000000 0.000000
0.000000 0.000000 0.000000
0.000000 0.000000 0.000000
0.000000 0.000000 0.000000
0.000000 0.000000 0.000000
0.000000 0.000000 0.000000
0.000000 0.000000 0.000000
0.000000 0.000000 0.000000
0.000000 0.000000 0.000000
0.000000 0.000000 0.000000
0.000000 0.000000 0.000000
0.000000 0.000000 0.000000
0.000000 0.000000 0.000000
0.000000 0.000000 0.000000
0.000000 0.000000 0.000000
0.000000 0.000000 0.000000
0.000000 0.000000 0.000000
0.000000 0.000000 0.000000
0.000000 0.000000 0.000000
0.000000 0.000000 0.000000
0.000000 0.000000 0.000000
0.000000 0.000000 0.000000
0.000000 0.000000 0.000000
0.000000 0.000000 0.000000
0.000000 0.000000 0.000000
0.000000 0.000000 0.000000
0.000000 0.000000 0.000000
0.000000 0.000000 0.000000
0.000000 0.000000 0.000000
0.000000 0.000000 0.000000
0.000000 0.000000 0.000000
0.000000 0.000000 0.000000
0.000000 0.000000 0.000000
