Zr1 Ti96
1.0
9.513020 0.000000 0.000000
0.000000 9.350860 0.000000
0.000000 0.000000 18.547230
Ti Zr
96 1
Selective dynamics
direct
0.144992 0.370225 0.405884 T T T Ti
0.638016 0.341478 0.407696 T T T Ti
0.141379 0.852049 0.399535 T T T Ti
0.688324 0.902621 0.396339 T T T Ti
0.155061 0.370763 0.237799 T T T Ti
0.659035 0.369234 0.235438 T T T Ti
0.161046 0.872795 0.233497 T T T Ti
0.668104 0.879870 0.233417 T T T Ti
0.166647 0.375051 0.077536 F F F Ti
0.666717 0.374929 0.077499 F F F Ti
0.166680 0.875005 0.077512 F F F Ti
0.666608 0.874997 0.077538 F F F Ti
0.407989 0.380775 0.315234 T T T Ti
0.896738 0.373759 0.323959 T T T Ti
0.382696 0.905288 0.323931 T T T Ti
0.916773 0.881481 0.313148 T T T Ti
0.416720 0.375060 0.155101 F F F Ti
0.916660 0.374831 0.155078 F F F Ti
0.416595 0.874920 0.155300 F F F Ti
0.916695 0.875226 0.154979 F F F Ti
0.416677 0.375024 -0.000083 F F F Ti
0.916645 0.374980 -0.000106 F F F Ti
0.416677 0.874975 -0.000040 F F F Ti
0.916659 0.875004 -0.000144 F F F Ti
0.103262 0.126242 0.323958 T T T Ti
0.592011 0.119226 0.315233 T T T Ti
0.083227 0.618521 0.313147 T T T Ti
0.617304 0.594714 0.323931 T T T Ti
0.083340 0.125185 0.155076 F F F Ti
0.583281 0.124957 0.155102 F F F Ti
0.083304 0.624798 0.154981 F F F Ti
0.583406 0.625091 0.155298 F F F Ti
0.083358 0.125021 -0.000107 F F F Ti
0.583323 0.124980 -0.000082 F F F Ti
0.083341 0.625007 -0.000143 F F F Ti
0.583325 0.625030 -0.000041 F F F Ti
0.361983 0.158522 0.407696 T T T Ti
0.855007 0.129775 0.405884 T T T Ti
0.311675 0.597379 0.396339 T T T Ti
0.858620 0.647951 0.399535 T T T Ti
0.340964 0.130770 0.235438 T T T Ti
0.844939 0.129241 0.237799 T T T Ti
0.331895 0.620133 0.233417 T T T Ti
0.838953 0.627209 0.233496 T T T Ti
0.333283 0.125081 0.077499 F F F Ti
0.833352 0.124960 0.077537 F F F Ti
0.333391 0.625017 0.077537 F F F Ti
0.833320 0.625010 0.077512 F F F Ti
0.374961 0.375048 0.823828 F F F Ti
0.874958 0.375018 0.823887 F F F Ti
0.375004 0.874875 0.823749 F F F Ti
0.875039 0.875027 0.823696 F F F Ti
0.125051 0.124973 0.823888 F F F Ti
0.625039 0.124941 0.823828 F F F Ti
0.124966 0.624967 0.823698 F F F Ti
0.625004 0.625122 0.823748 F F F Ti
0.125045 0.375098 0.910075 F F F Ti
0.624971 0.375098 0.910059 F F F Ti
0.125069 0.874917 0.910024 F F F Ti
0.624976 0.874952 0.909997 F F F Ti
0.375037 0.124896 0.910060 F F F Ti
0.874961 0.124895 0.910076 F F F Ti
0.375028 0.625047 0.909997 F F F Ti
0.874935 0.625081 0.910022 F F F Ti
0.392972 0.387929 0.655078 T T T Ti
0.895118 0.369873 0.650822 T T T Ti
0.395594 0.891626 0.648184 T T T Ti
0.883043 0.883814 0.667803 T T T Ti
0.104879 0.130122 0.650822 T T T Ti
0.607026 0.112068 0.655077 T T T Ti
0.116956 0.616180 0.667804 T T T Ti
0.604404 0.608369 0.648185 T T T Ti
0.149357 0.381116 0.569508 T T T Ti
0.649629 0.342181 0.573098 T T T Ti
0.125768 0.865117 0.586138 T T T Ti
0.654494 0.858224 0.576847 T T T Ti
0.350371 0.157818 0.573098 T T T Ti
0.850642 0.118883 0.569507 T T T Ti
0.345505 0.641774 0.576847 T T T Ti
0.874231 0.634880 0.586138 T T T Ti
0.409009 0.404259 0.495942 T T T Ti
0.899489 0.372454 0.487245 T T T Ti
0.333912 0.926208 0.497192 T T T Ti
0.909903 0.878344 0.489630 T T T Ti
0.100511 0.127546 0.487245 T T T Ti
0.590990 0.095741 0.495942 T T T Ti
0.090096 0.621655 0.489630 T T T Ti
0.666088 0.573792 0.497192 T T T Ti
0.125017 0.874790 0.737582 F F F Ti
0.625370 0.875179 0.737498 F F F Ti
0.374625 0.624809 0.737504 F F F Ti
0.874974 0.625193 0.737579 F F F Ti
0.124994 0.374997 0.737681 F F F Ti
0.624936 0.375006 0.737724 F F F Ti
0.375052 0.124962 0.737723 F F F Ti
0.874995 0.124976 0.737681 F F F Ti
0.500000 0.750000 0.420383 T T T Zr

0.000000 0.000000 0.000000
0.000000 0.000000 0.000000
0.000000 0.000000 0.000000
0.000000 0.000000 0.000000
0.000000 0.000000 0.000000
0.000000 0.000000 0.000000
0.000000 0.000000 0.000000
0.000000 0.000000 0.000000
0.000000 0.000000 0.000000
0.000000 0.000000 0.000000
0.000000 0.000000 0.000000
0.000000 0.000000 0.000000
0.000000 0.000000 0.000000
0.000000 0.000000 0.000000
0.000000 0.000000 0.000000
0.000000 0.000000 0.000000
0.000000 0.000000 0.000000
0.000000 0.000000 0.000000
0.000000 0.000000 0.000000
0.000000 0.000000 0.000000
0.000000 0.000000 0.000000
0.000000 0.000000 0.000000
0.000000 0.000000 0.000000
0.000000 0.000000 0.000000
0.000000 0.000000 0.000000
0.000000 0.000000 0.000000
0.000000 0.000000 0.000000
0.000000 0.000000 0.000000
0.000000 0.000000 0.000000
0.000000 0.000000 0.000000
0.000000 0.000000 0.000000
0.000000 0.000000 0.000000
0.000000 0.000000 0.000000
0.000000 0.000000 0.000000
0.000000 0.000000 0.000000
0.000000 0.000000 0.000000
0.000000 0.000000 0.000000
0.000000 0.000000 0.000000
0.000000 0.000000 0.000000
0.000000 0.000000 0.000000
0.000000 0.000000 0.000000
0.000000 0.000000 0.000000
0.000000 0.000000 0.000000
0.000000 0.000000 0.000000
0.000000 0.000000 0.000000
0.000000 0.000000 0.000000
0.000000 0.000000 0.000000
0.000000 0.000000 0.000000
0.000000 0.000000 0.000000
0.000000 0.000000 0.000000
0.000000 0.000000 0.000000
0.000000 0.000000 0.000000
0.000000 0.000000 0.000000
0.000000 0.000000 0.000000
0.000000 0.000000 0.000000
0.000000 0.000000 0.000000
0.000000 0.000000 0.000000
0.000000 0.000000 0.000000
0.000000 0.000000 0.000000
0.000000 0.000000 0.000000
0.000000 0.000000 0.000000
0.000000 0.000000 0.000000
0.000000 0.000000 0.000000
0.000000 0.000000 0.000000
0.000000 0.000000 0.000000
0.000000 0.000000 0.000000
0.000000 0.000000 0.000000
0.000000 0.000000 0.000000
0.000000 0.000000 0.000000
0.000000 0.000000 0.000000
0.000000 0.000000 0.000000
0.000000 0.000000 0.000000
0.000000 0.000000 0.000000
0.000000 0.000000 0.000000
0.000000 0.000000 0.000000
0.000000 0.000000 0.000000
0.000000 0.000000 0.000000
0.000000 0.000000 0.000000
0.000000 0.000000 0.000000
0.000000 0.000000 0.000000
0.000000 0.000000 0.000000
0.000000 0.000000 0.000000
0.000000 0.000000 0.000000
0.000000 0.000000 0.000000
0.000000 0.000000 0.000000
0.000000 0.000000 0.000000
0.000000 0.000000 0.000000
0.000000 0.000000 0.000000
0.000000 0.000000 0.000000
0.000000 0.000000 0.000000
0.000000 0.000000 0.000000
0.000000 0.000000 0.000000
0.000000 0.000000 0.000000
0.000000 0.000000 0.000000
0.000000 0.000000 0.000000
0.000000 0.000000 0.000000
0.000000 0.000000 0.000000
