Ti97
1.0
9.513020 0.000000 0.000000
0.000000 9.350860 0.000000
0.000000 0.000000 18.547230
Ti
97
Selective dynamics
direct
0.150576 0.374767 0.402151 T T T Ti
0.658962 0.355812 0.392543 T T T Ti
0.146444 0.866342 0.397930 T T T Ti
0.658190 0.862611 0.407469 T T T Ti
0.162160 0.370844 0.236272 T T T Ti
0.658475 0.374179 0.234932 T T T Ti
0.161645 0.873891 0.235792 T T T Ti
0.660152 0.872542 0.235357 T T T Ti
0.166658 0.375012 0.077675 F F F Ti
0.666674 0.374996 0.077669 F F F Ti
0.166664 0.875005 0.077688 F F F Ti
0.666670 0.875000 0.077688 F F F Ti
0.407772 0.384715 0.317231 T T T Ti
0.910070 0.376817 0.318180 T T T Ti
0.404145 0.877782 0.320373 T T T Ti
0.905512 0.877867 0.315820 T T T Ti
0.416665 0.374979 0.155307 F F F Ti
0.916676 0.374989 0.155318 F F F Ti
0.416668 0.875041 0.155329 F F F Ti
0.916679 0.874984 0.155336 F F F Ti
0.416660 0.375012 0.000001 F F F Ti
0.916661 0.375010 -0.000004 F F F Ti
0.416664 0.875001 -0.000012 F F F Ti
0.916664 0.874992 -0.000010 F F F Ti
0.089930 0.123183 0.318179 T T T Ti
0.592228 0.115286 0.317230 T T T Ti
0.094488 0.622133 0.315819 T T T Ti
0.595855 0.622218 0.320372 T T T Ti
0.083323 0.125014 0.155318 F F F Ti
0.583335 0.125025 0.155307 F F F Ti
0.083320 0.625020 0.155336 F F F Ti
0.583332 0.624964 0.155330 F F F Ti
0.083340 0.124993 -0.000005 F F F Ti
0.583340 0.124992 0.000000 F F F Ti
0.083336 0.625013 -0.000009 F F F Ti
0.583337 0.625005 -0.000011 F F F Ti
0.341037 0.144188 0.392543 T T T Ti
0.849423 0.125233 0.402151 T T T Ti
0.341809 0.637389 0.407469 T T T Ti
0.853555 0.633658 0.397930 T T T Ti
0.341524 0.125822 0.234932 T T T Ti
0.837839 0.129156 0.236272 T T T Ti
0.339847 0.627459 0.235358 T T T Ti
0.838354 0.626110 0.235792 T T T Ti
0.333325 0.125007 0.077669 F F F Ti
0.833341 0.124991 0.077675 F F F Ti
0.333329 0.625005 0.077689 F F F Ti
0.833335 0.624999 0.077689 F F F Ti
0.374993 0.374994 0.823866 F F F Ti
0.874983 0.374951 0.823828 F F F Ti
0.375048 0.875070 0.823780 F F F Ti
0.874936 0.874999 0.823777 F F F Ti
0.125022 0.125046 0.823827 F F F Ti
0.625010 0.125007 0.823866 F F F Ti
0.125063 0.625000 0.823778 F F F Ti
0.624954 0.624927 0.823782 F F F Ti
0.125012 0.375028 0.910123 F F F Ti
0.625006 0.375005 0.910146 F F F Ti
0.125031 0.874995 0.910094 F F F Ti
0.624991 0.874993 0.910114 F F F Ti
0.374995 0.124994 0.910145 F F F Ti
0.874992 0.124973 0.910122 F F F Ti
0.375011 0.625007 0.910114 F F F Ti
0.874972 0.625005 0.910094 F F F Ti
0.384335 0.372313 0.667633 T T T Ti
0.884749 0.388073 0.647712 T T T Ti
0.376396 0.889160 0.662192 T T T Ti
0.902118 0.880233 0.653924 T T T Ti
0.115250 0.111926 0.647711 T T T Ti
0.615665 0.127686 0.667633 T T T Ti
0.097881 0.619765 0.653925 T T T Ti
0.623603 0.610837 0.662193 T T T Ti
0.141659 0.361532 0.571725 T T T Ti
0.634156 0.361011 0.576475 T T T Ti
0.159203 0.854279 0.566759 T T T Ti
0.672849 0.913063 0.573609 T T T Ti
0.365844 0.138989 0.576475 T T T Ti
0.858340 0.138468 0.571725 T T T Ti
0.327151 0.586936 0.573609 T T T Ti
0.840797 0.645720 0.566759 T T T Ti
0.399831 0.373760 0.480652 T T T Ti
0.887793 0.381297 0.488662 T T T Ti
0.376330 0.921186 0.475710 T T T Ti
0.913086 0.885519 0.486160 T T T Ti
0.112207 0.118703 0.488662 T T T Ti
0.600169 0.126240 0.480652 T T T Ti
0.086914 0.614481 0.486160 T T T Ti
0.623670 0.578813 0.475710 T T T Ti
0.125428 0.875158 0.737530 F F F Ti
0.625152 0.875129 0.737553 F F F Ti
0.374843 0.624862 0.737556 F F F Ti
0.874570 0.624836 0.737536 F F F Ti
0.125051 0.374926 0.737548 F F F Ti
0.625044 0.374785 0.737624 F F F Ti
0.374949 0.125202 0.737621 F F F Ti
0.874947 0.125066 0.737547 F F F Ti
0.500000 0.750000 0.549225 T T T Ti

0.000000 0.000000 0.000000
0.000000 0.000000 0.000000
0.000000 0.000000 0.000000
0.000000 0.000000 0.000000
0.000000 0.000000 0.000000
0.000000 0.000000 0.000000
0.000000 0.000000 0.000000
0.000000 0.000000 0.000000
0.000000 0.000000 0.000000
0.000000 0.000000 0.000000
0.000000 0.000000 0.000000
0.000000 0.000000 0.000000
0.000000 0.000000 0.000000
0.000000 0.000000 0.000000
0.000000 0.000000 0.000000
0.000000 0.000000 0.000000
0.000000 0.000000 0.000000
0.000000 0.000000 0.000000
0.000000 0.000000 0.000000
0.000000 0.000000 0.000000
0.000000 0.000000 0.000000
0.000000 0.000000 0.000000
0.000000 0.000000 0.000000
0.000000 0.000000 0.000000
0.000000 0.000000 0.000000
0.000000 0.000000 0.000000
0.000000 0.000000 0.000000
0.000000 0.000000 0.000000
0.000000 0.000000 0.000000
0.000000 0.000000 0.000000
0.000000 0.000000 0.000000
0.000000 0.000000 0.000000
0.000000 0.000000 0.000000
0.000000 0.000000 0.000000
0.000000 0.000000 0.000000
0.000000 0.000000 0.000000
0.000000 0.000000 0.000000
0.000000 0.000000 0.000000
0.000000 0.000000 0.000000
0.000000 0.000000 0.000000
0.000000 0.000000 0.000000
0.000000 0.000000 0.000000
0.000000 0.000000 0.000000
0.000000 0.000000 0.000000
0.000000 0.000000 0.000000
0.000000 0.000000 0.000000
0.000000 0.000000 0.000000
0.000000 0.000000 0.000000
0.000000 0.000000 0.000000
0.000000 0.000000 0.000000
0.000000 0.000000 0.000000
0.000000 0.000000 0.000000
0.000000 0.000000 0.000000
0.000000 0.000000 0.000000
0.000000 0.000000 0.000000
0.000000 0.000000 0.000000
0.000000 0.000000 0.000000
0.000000 0.000000 0.000000
0.000000 0.000000 0.000000
0.000000 0.000000 0.000000
0.000000 0.000000 0.000000
0.000000 0.000000 0.000000
0.000000 0.000000 0.000000
0.000000 0.000000 0.000000
0.000000 0.000000 0.000000
0.000000 0.000000 0.000000
0.000000 0.000000 0.000000
0.000000 0.000000 0.000000
0.000000 0.000000 0.000000
0.000000 0.000000 0.000000
0.000000 0.000000 0.000000
0.000000 0.000000 0.000000
0.000000 0.000000 0.000000
0.000000 0.000000 0.000000
0.000000 0.000000 0.000000
0.000000 0.000000 0.000000
0.000000 0.000000 0.000000
0.000000 0.000000 0.000000
0.000000 0.000000 0.000000
0.000000 0.000000 0.000000
0.000000 0.000000 0.000000
0.000000 0.000000 0.000000
0.000000 0.000000 0.000000
0.000000 0.000000 0.000000
0.000000 0.000000 0.000000
0.000000 0.000000 0.000000
0.000000 0.000000 0.000000
0.000000 0.000000 0.000000
0.000000 0.000000 0.000000
0.000000 0.000000 0.000000
0.000000 0.000000 0.000000
0.000000 0.000000 0.000000
0.000000 0.000000 0.000000
0.000000 0.000000 0.000000
0.000000 0.000000 0.000000
0.000000 0.000000 0.000000
0.000000 0.000000 0.000000
