Ti66 Nb1
1.0
6.309760 0.000000 0.000000
0.000000 9.464640 0.000000
0.000000 0.000000 18.918326
Ti Nb
66 1
Selective dynamics
direct
0.123575 0.040328 0.501300 F F F Ti
0.626968 0.040824 0.500470 F F F Ti
0.124749 0.041269 0.658950 F F F Ti
0.624775 0.041231 0.658886 F F F Ti
0.124945 0.041538 0.817268 F F F Ti
0.624935 0.041535 0.817264 F F F Ti
0.116507 0.377539 0.502944 F F F Ti
0.625828 0.375238 0.501205 F F F Ti
0.124377 0.375066 0.659214 F F F Ti
0.624521 0.374996 0.659140 F F F Ti
0.124893 0.375043 0.817314 F F F Ti
0.624861 0.375035 0.817324 F F F Ti
0.125833 0.706658 0.499707 F F F Ti
0.623253 0.707590 0.499726 F F F Ti
0.125029 0.708238 0.658715 F F F Ti
0.624225 0.708449 0.658764 F F F Ti
0.124947 0.708392 0.817235 F F F Ti
0.624823 0.708425 0.817245 F F F Ti
0.374704 0.208150 0.580019 F F F Ti
0.873453 0.207786 0.580153 F F F Ti
0.374895 0.208179 0.738133 F F F Ti
0.874671 0.208162 0.738185 F F F Ti
0.374985 0.208321 0.896383 F F F Ti
0.874922 0.208328 0.896388 F F F Ti
0.374832 0.541649 0.579734 F F F Ti
0.873020 0.542749 0.580085 F F F Ti
0.374896 0.541742 0.738105 F F F Ti
0.874648 0.541841 0.738161 F F F Ti
0.374961 0.541771 0.896418 F F F Ti
0.874889 0.541779 0.896417 F F F Ti
0.375006 0.874682 0.579351 F F F Ti
0.874868 0.874091 0.579460 F F F Ti
0.374854 0.874897 0.738001 F F F Ti
0.874854 0.874806 0.738008 F F F Ti
0.375014 0.875022 0.896441 F F F Ti
0.874938 0.875014 0.896439 F F F Ti
0.124271 0.625997 0.356530 F F F Ti
0.623275 0.625704 0.356552 F F F Ti
0.125032 0.625677 0.118595 F F F Ti
0.624832 0.625584 0.118621 F F F Ti
0.644514 0.120920 0.355335 F F F Ti
0.125546 0.125254 0.118497 F F F Ti
0.625608 0.125057 0.118395 F F F Ti
0.125180 0.375221 0.039239 F F F Ti
0.624774 0.375211 0.039157 F F F Ti
0.125083 0.875268 0.039501 F F F Ti
0.625018 0.875164 0.039489 F F F Ti
0.116987 0.379640 0.273989 F F F Ti
0.628162 0.375672 0.276194 F F F Ti
0.126196 0.877009 0.277656 F F F Ti
0.625530 0.874935 0.277291 F F F Ti
0.375170 0.875320 0.158446 F F F Ti
0.875623 0.875434 0.158394 F F F Ti
0.375488 0.375532 0.157937 F F F Ti
0.873627 0.375695 0.157315 F F F Ti
0.866575 0.378492 0.396683 F F F Ti
0.375483 0.877396 0.396424 F F F Ti
0.877739 0.874808 0.396623 F F F Ti
0.374863 0.625760 0.237605 F F F Ti
0.874031 0.626751 0.237422 F F F Ti
0.374935 0.625324 -0.000144 F F F Ti
0.874914 0.625330 -0.000159 F F F Ti
0.377881 0.125069 0.236841 F F F Ti
0.877060 0.125374 0.236803 F F F Ti
0.375106 0.124958 -0.000187 F F F Ti
0.875080 0.124955 -0.000195 F F F Ti
0.278718 0.267549 0.383100 T T T Nb

0.000000 0.000000 0.000000
0.000000 0.000000 0.000000
0.000000 0.000000 0.000000
0.000000 0.000000 0.000000
0.000000 0.000000 0.000000
0.000000 0.000000 0.000000
0.000000 0.000000 0.000000
0.000000 0.000000 0.000000
0.000000 0.000000 0.000000
0.000000 0.000000 0.000000
0.000000 0.000000 0.000000
0.000000 0.000000 0.000000
0.000000 0.000000 0.000000
0.000000 0.000000 0.000000
0.000000 0.000000 0.000000
0.000000 0.000000 0.000000
0.000000 0.000000 0.000000
0.000000 0.000000 0.000000
0.000000 0.000000 0.000000
0.000000 0.000000 0.000000
0.000000 0.000000 0.000000
0.000000 0.000000 0.000000
0.000000 0.000000 0.000000
0.000000 0.000000 0.000000
0.000000 0.000000 0.000000
0.000000 0.000000 0.000000
0.000000 0.000000 0.000000
0.000000 0.000000 0.000000
0.000000 0.000000 0.000000
0.000000 0.000000 0.000000
0.000000 0.000000 0.000000
0.000000 0.000000 0.000000
0.000000 0.000000 0.000000
0.000000 0.000000 0.000000
0.000000 0.000000 0.000000
0.000000 0.000000 0.000000
0.000000 0.000000 0.000000
0.000000 0.000000 0.000000
0.000000 0.000000 0.000000
0.000000 0.000000 0.000000
0.000000 0.000000 0.000000
0.000000 0.000000 0.000000
0.000000 0.000000 0.000000
0.000000 0.000000 0.000000
0.000000 0.000000 0.000000
0.000000 0.000000 0.000000
0.000000 0.000000 0.000000
0.000000 0.000000 0.000000
0.000000 0.000000 0.000000
0.000000 0.000000 0.000000
0.000000 0.000000 0.000000
0.000000 0.000000 0.000000
0.000000 0.000000 0.000000
0.000000 0.000000 0.000000
0.000000 0.000000 0.000000
0.000000 0.000000 0.000000
0.000000 0.000000 0.000000
0.000000 0.000000 0.000000
0.000000 0.000000 0.000000
0.000000 0.000000 0.000000
0.000000 0.000000 0.000000
0.000000 0.000000 0.000000
0.000000 0.000000 0.000000
0.000000 0.000000 0.000000
0.000000 0.000000 0.000000
0.000000 0.000000 0.000000
0.000000 0.000000 0.000000
