alpha_Ti
1.0
6.391540 0.000000 0.000000
0.000000 9.587310 0.000000
0.000000 0.000000 37.750000
Ti
48
direct
0.125000 0.166667 0.238411 Ti
0.625000 0.166667 0.238411 Ti
0.125000 0.666667 0.238411 Ti
0.625000 0.666667 0.238411 Ti
0.125000 0.166667 -0.000000 Ti
0.625000 0.166667 -0.000000 Ti
0.125000 0.666667 -0.000000 Ti
0.625000 0.666667 -0.000000 Ti
0.125000 0.833333 0.059603 Ti
0.625000 0.833333 0.059603 Ti
0.125000 0.833333 0.298013 Ti
0.625000 0.833333 0.298013 Ti
0.125000 0.333333 0.059603 Ti
0.625000 0.333333 0.059603 Ti
0.125000 0.333333 0.298013 Ti
0.625000 0.333333 0.298013 Ti
0.375000 0.583333 0.298013 Ti
0.875000 0.583333 0.298013 Ti
0.374999 0.583333 0.059603 Ti
0.874999 0.583333 0.059603 Ti
0.375000 0.083333 0.059603 Ti
0.875000 0.083333 0.059603 Ti
0.375000 0.083333 0.298013 Ti
0.875000 0.083333 0.298013 Ti
0.375000 0.416667 0.238411 Ti
0.875000 0.416667 0.238411 Ti
0.375000 0.916667 0.238411 Ti
0.875000 0.916667 0.238411 Ti
0.375000 0.416667 -0.000000 Ti
0.875000 0.416667 -0.000000 Ti
0.375000 0.916667 -0.000000 Ti
0.875000 0.916667 -0.000000 Ti
0.375000 0.083333 0.178808 Ti
0.875000 0.083333 0.178808 Ti
0.125000 0.166667 0.119205 Ti
0.625000 0.166667 0.119205 Ti
0.125000 0.333333 0.178808 Ti
0.625000 0.333333 0.178808 Ti
0.375000 0.416667 0.119205 Ti
0.875000 0.416667 0.119205 Ti
0.374999 0.583333 0.178808 Ti
0.874999 0.583333 0.178808 Ti
0.125000 0.666667 0.119205 Ti
0.625000 0.666667 0.119205 Ti
0.125000 0.833333 0.178808 Ti
0.625000 0.833333 0.178808 Ti
0.375000 0.916667 0.119205 Ti
0.875000 0.916667 0.119205 Ti
