Ti66 Mo1
1.0
6.309760 0.000000 0.000000
0.000000 9.464640 0.000000
0.000000 0.000000 18.918326
Ti Mo
66 1
Selective dynamics
direct
0.140811 0.021216 0.493086 T T T Ti
0.607842 0.017294 0.492355 T T T Ti
0.116648 0.054479 0.644531 T T T Ti
0.632518 0.053491 0.645182 T T T Ti
0.125339 0.040914 0.817185 F F F Ti
0.624745 0.040817 0.817238 F F F Ti
0.162231 0.385720 0.468597 T T T Ti
0.588260 0.393474 0.466667 T T T Ti
0.122203 0.356268 0.639447 T T T Ti
0.627589 0.357714 0.640508 T T T Ti
0.125049 0.373312 0.817211 F F F Ti
0.624939 0.373346 0.817329 F F F Ti
0.139785 0.706194 0.488434 T T T Ti
0.608262 0.706779 0.488376 T T T Ti
0.101025 0.689765 0.651659 T T T Ti
0.648187 0.690192 0.651846 T T T Ti
0.125490 0.707539 0.817733 F F F Ti
0.624692 0.707634 0.817746 F F F Ti
0.865581 0.214843 0.535767 T T T Ti
0.374772 0.205748 0.737437 F F F Ti
0.874856 0.205518 0.737923 F F F Ti
0.375080 0.207585 0.896214 F F F Ti
0.874944 0.207551 0.896329 F F F Ti
0.374548 0.541570 0.570505 T T T Ti
0.873327 0.518644 0.549430 T T T Ti
0.374910 0.539311 0.738697 F F F Ti
0.875110 0.539539 0.738990 F F F Ti
0.375016 0.540679 0.896468 F F F Ti
0.875022 0.540753 0.896527 F F F Ti
0.374156 0.854767 0.582532 T T T Ti
0.873863 0.864919 0.565617 T T T Ti
0.374505 0.874285 0.738082 F F F Ti
0.875354 0.874123 0.738766 F F F Ti
0.375066 0.874905 0.896565 F F F Ti
0.875038 0.874868 0.896656 F F F Ti
0.132993 0.624875 0.363647 T T T Ti
0.616129 0.625935 0.363240 T T T Ti
0.125395 0.626335 0.118050 F F F Ti
0.624606 0.626341 0.118028 F F F Ti
0.133655 0.140492 0.368402 T T T Ti
0.616044 0.140389 0.367869 T T T Ti
0.125465 0.126142 0.118530 F F F Ti
0.624423 0.126176 0.118535 F F F Ti
0.125119 0.375246 0.039160 F F F Ti
0.624822 0.375293 0.039179 F F F Ti
0.125150 0.875811 0.039364 F F F Ti
0.624644 0.875783 0.039361 F F F Ti
0.146859 0.380659 0.281850 T T T Ti
0.603037 0.380887 0.281577 T T T Ti
0.103614 0.882717 0.279433 T T T Ti
0.645722 0.882744 0.279282 T T T Ti
0.375074 0.877223 0.158079 F F F Ti
0.875055 0.876935 0.157816 F F F Ti
0.375002 0.376172 0.157720 F F F Ti
0.875270 0.376389 0.157462 F F F Ti
0.874967 0.379691 0.390963 T T T Ti
0.373788 0.878027 0.389414 T T T Ti
0.873915 0.878880 0.406355 T T T Ti
0.374865 0.637534 0.244557 T T T Ti
0.875034 0.619771 0.246158 T T T Ti
0.375002 0.625278 -0.000374 F F F Ti
0.875106 0.625354 -0.000326 F F F Ti
0.374557 0.120949 0.247151 T T T Ti
0.874945 0.139113 0.248941 T T T Ti
0.375038 0.125256 -0.000253 F F F Ti
0.874757 0.125191 -0.000162 F F F Ti
0.398183 0.218358 0.515369 T T T Mo

0.000000 0.000000 0.000000
0.000000 0.000000 0.000000
0.000000 0.000000 0.000000
0.000000 0.000000 0.000000
0.000000 0.000000 0.000000
0.000000 0.000000 0.000000
0.000000 0.000000 0.000000
0.000000 0.000000 0.000000
0.000000 0.000000 0.000000
0.000000 0.000000 0.000000
0.000000 0.000000 0.000000
0.000000 0.000000 0.000000
0.000000 0.000000 0.000000
0.000000 0.000000 0.000000
0.000000 0.000000 0.000000
0.000000 0.000000 0.000000
0.000000 0.000000 0.000000
0.000000 0.000000 0.000000
0.000000 0.000000 0.000000
0.000000 0.000000 0.000000
0.000000 0.000000 0.000000
0.000000 0.000000 0.000000
0.000000 0.000000 0.000000
0.000000 0.000000 0.000000
0.000000 0.000000 0.000000
0.000000 0.000000 0.000000
0.000000 0.000000 0.000000
0.000000 0.000000 0.000000
0.000000 0.000000 0.000000
0.000000 0.000000 0.000000
0.000000 0.000000 0.000000
0.000000 0.000000 0.000000
0.000000 0.000000 0.000000
0.000000 0.000000 0.000000
0.000000 0.000000 0.000000
0.000000 0.000000 0.000000
0.000000 0.000000 0.000000
0.000000 0.000000 0.000000
0.000000 0.000000 0.000000
0.000000 0.000000 0.000000
0.000000 0.000000 0.000000
0.000000 0.000000 0.000000
0.000000 0.000000 0.000000
0.000000 0.000000 0.000000
0.000000 0.000000 0.000000
0.000000 0.000000 0.000000
0.000000 0.000000 0.000000
0.000000 0.000000 0.000000
0.000000 0.000000 0.000000
0.000000 0.000000 0.000000
0.000000 0.000000 0.000000
0.000000 0.000000 0.000000
0.000000 0.000000 0.000000
0.000000 0.000000 0.000000
0.000000 0.000000 0.000000
0.000000 0.000000 0.000000
0.000000 0.000000 0.000000
0.000000 0.000000 0.000000
0.000000 0.000000 0.000000
0.000000 0.000000 0.000000
0.000000 0.000000 0.000000
0.000000 0.000000 0.000000
0.000000 0.000000 0.000000
0.000000 0.000000 0.000000
0.000000 0.000000 0.000000
0.000000 0.000000 0.000000
0.000000 0.000000 0.000000
