total_Ti
1.0
9.445957 0.000000 0.000000
0.000000 9.093951 0.000000
0.000000 0.000000 18.211864
Ti
96
direct
0.166666 0.375000 0.395599 Ti
0.666666 0.375000 0.395599 Ti
0.166666 0.875000 0.395599 Ti
0.666666 0.875000 0.395599 Ti
0.166666 0.375000 0.237360 Ti
0.666666 0.375000 0.237360 Ti
0.166666 0.875000 0.237360 Ti
0.666666 0.875000 0.237360 Ti
0.166666 0.375000 0.079120 Ti
0.666666 0.375000 0.079120 Ti
0.166666 0.875000 0.079120 Ti
0.666666 0.875000 0.079120 Ti
0.416667 0.375000 0.316480 Ti
0.916667 0.375000 0.316480 Ti
0.416667 0.875000 0.316480 Ti
0.916667 0.875000 0.316480 Ti
0.416667 0.375000 0.158240 Ti
0.916667 0.375000 0.158240 Ti
0.416667 0.875000 0.158240 Ti
0.916667 0.875000 0.158240 Ti
0.416667 0.375000 -0.000000 Ti
0.916667 0.375000 -0.000000 Ti
0.416667 0.875000 -0.000000 Ti
0.916667 0.875000 -0.000000 Ti
0.083333 0.125000 0.316479 Ti
0.583333 0.125000 0.316479 Ti
0.083333 0.625000 0.316479 Ti
0.583333 0.625000 0.316479 Ti
0.083333 0.125000 0.158240 Ti
0.583333 0.125000 0.158240 Ti
0.083333 0.625000 0.158240 Ti
0.583333 0.625000 0.158240 Ti
0.083333 0.125000 -0.000000 Ti
0.583333 0.125000 -0.000000 Ti
0.083333 0.625000 -0.000000 Ti
0.583333 0.625000 -0.000000 Ti
0.333333 0.125000 0.395599 Ti
0.833333 0.125000 0.395599 Ti
0.333333 0.625000 0.395599 Ti
0.833333 0.625000 0.395599 Ti
0.333333 0.125000 0.237360 Ti
0.833333 0.125000 0.237360 Ti
0.333333 0.625000 0.237360 Ti
0.833333 0.625000 0.237360 Ti
0.333333 0.125000 0.079120 Ti
0.833333 0.125000 0.079120 Ti
0.333333 0.625000 0.079120 Ti
0.833333 0.625000 0.079120 Ti
0.375000 0.375000 0.829700 Ti
0.875000 0.375000 0.829700 Ti
0.375000 0.875000 0.829700 Ti
0.875000 0.875000 0.829700 Ti
0.125000 0.125000 0.829700 Ti
0.625000 0.125000 0.829700 Ti
0.125000 0.625000 0.829700 Ti
0.625000 0.625000 0.829700 Ti
0.125000 0.375000 0.917635 Ti
0.625000 0.375000 0.917635 Ti
0.125000 0.875000 0.917635 Ti
0.625000 0.875000 0.917635 Ti
0.375000 0.125000 0.917635 Ti
0.875000 0.125000 0.917635 Ti
0.375000 0.625000 0.917635 Ti
0.875000 0.625000 0.917635 Ti
0.375000 0.375000 0.653831 Ti
0.875000 0.375000 0.653831 Ti
0.375000 0.875000 0.653831 Ti
0.875000 0.875000 0.653831 Ti
0.125000 0.125000 0.653831 Ti
0.625000 0.125000 0.653831 Ti
0.125000 0.625000 0.653831 Ti
0.625000 0.625000 0.653831 Ti
0.125000 0.375000 0.565897 Ti
0.625000 0.375000 0.565897 Ti
0.125000 0.875000 0.565897 Ti
0.625000 0.875000 0.565897 Ti
0.375000 0.125000 0.565897 Ti
0.875000 0.125000 0.565897 Ti
0.375000 0.625000 0.565897 Ti
0.875000 0.625000 0.565897 Ti
0.375000 0.375000 0.477963 Ti
0.875000 0.375000 0.477963 Ti
0.375000 0.875000 0.477963 Ti
0.875000 0.875000 0.477963 Ti
0.125000 0.125000 0.477963 Ti
0.625000 0.125000 0.477963 Ti
0.125000 0.625000 0.477963 Ti
0.625000 0.625000 0.477963 Ti
0.125000 0.875000 0.741766 Ti
0.625000 0.875000 0.741766 Ti
0.375000 0.625000 0.741766 Ti
0.875000 0.625000 0.741766 Ti
0.125000 0.375000 0.741766 Ti
0.625000 0.375000 0.741766 Ti
0.375000 0.125000 0.741766 Ti
0.875000 0.125000 0.741766 Ti
