beta_Ti
1.0
6.391540 0.000000 0.000000
0.000000 9.587310 0.000000
0.000000 0.000000 23.950000
Ti
36
direct
0.125000 0.083333 0.578288 Ti
0.625000 0.083333 0.578288 Ti
0.125000 0.083333 0.703549 Ti
0.625000 0.083333 0.703549 Ti
0.125000 0.083333 0.828810 Ti
0.625000 0.083333 0.828810 Ti
0.125000 0.416667 0.578288 Ti
0.625000 0.416667 0.578288 Ti
0.125000 0.416667 0.703549 Ti
0.625000 0.416667 0.703549 Ti
0.125000 0.416667 0.828810 Ti
0.625000 0.416667 0.828810 Ti
0.125000 0.750000 0.578288 Ti
0.625000 0.750000 0.578288 Ti
0.125000 0.750000 0.703549 Ti
0.625000 0.750000 0.703549 Ti
0.125000 0.750000 0.828810 Ti
0.625000 0.750000 0.828810 Ti
0.375000 0.250000 0.640919 Ti
0.875000 0.250000 0.640919 Ti
0.375000 0.250000 0.766180 Ti
0.875000 0.250000 0.766180 Ti
0.375000 0.250000 0.891441 Ti
0.875000 0.250000 0.891441 Ti
0.375000 0.583333 0.640919 Ti
0.875000 0.583333 0.640919 Ti
0.375000 0.583333 0.766180 Ti
0.875000 0.583333 0.766180 Ti
0.375000 0.583333 0.891441 Ti
0.875000 0.583333 0.891441 Ti
0.375000 0.916667 0.640919 Ti
0.875000 0.916667 0.640919 Ti
0.375000 0.916667 0.766180 Ti
0.875000 0.916667 0.766180 Ti
0.375000 0.916667 0.891441 Ti
0.875000 0.916667 0.891441 Ti
