Zr1 Ti96
1.0
9.513020 0.000000 0.000000
0.000000 9.350860 0.000000
0.000000 0.000000 18.547230
Ti Zr
96 1
Selective dynamics
direct
0.143516 0.364532 0.406575 T T T Ti
0.630114 0.344816 0.407040 T T T Ti
0.151259 0.845594 0.390554 T T T Ti
0.684499 0.910460 0.392156 T T T Ti
0.153677 0.370758 0.237565 T T T Ti
0.663633 0.373544 0.233823 T T T Ti
0.163077 0.876484 0.234611 T T T Ti
0.662569 0.870086 0.235271 T T T Ti
0.166666 0.375000 0.077689 F F F Ti
0.666666 0.375000 0.077689 F F F Ti
0.166666 0.875000 0.077689 F F F Ti
0.666666 0.875000 0.077689 F F F Ti
0.405473 0.374560 0.308778 T T T Ti
0.888154 0.382576 0.329051 T T T Ti
0.409776 0.887946 0.320253 T T T Ti
0.917333 0.885975 0.310664 T T T Ti
0.416667 0.375000 0.155379 F F F Ti
0.916667 0.375000 0.155379 F F F Ti
0.416667 0.875000 0.155379 F F F Ti
0.916667 0.875000 0.155379 F F F Ti
0.416667 0.375000 0.000000 F F F Ti
0.916667 0.375000 0.000000 F F F Ti
0.416667 0.875000 -0.000000 F F F Ti
0.916667 0.875000 -0.000000 F F F Ti
0.111846 0.117424 0.329050 T T T Ti
0.594527 0.125440 0.308777 T T T Ti
0.082667 0.614025 0.310663 T T T Ti
0.590224 0.612054 0.320252 T T T Ti
0.083333 0.125000 0.155379 F F F Ti
0.583333 0.125000 0.155379 F F F Ti
0.083333 0.625000 0.155379 F F F Ti
0.583333 0.625000 0.155379 F F F Ti
0.083333 0.125000 0.000000 F F F Ti
0.583333 0.125000 0.000000 F F F Ti
0.083333 0.625000 -0.000000 F F F Ti
0.583333 0.625000 -0.000000 F F F Ti
0.369885 0.155184 0.407040 T T T Ti
0.856483 0.135468 0.406575 T T T Ti
0.315500 0.589540 0.392156 T T T Ti
0.848740 0.654406 0.390554 T T T Ti
0.336366 0.126456 0.233823 T T T Ti
0.846322 0.129242 0.237565 T T T Ti
0.337430 0.629914 0.235271 T T T Ti
0.836922 0.623516 0.234611 T T T Ti
0.333333 0.125000 0.077689 F F F Ti
0.833333 0.125000 0.077689 F F F Ti
0.333333 0.625000 0.077689 F F F Ti
0.833333 0.625000 0.077689 F F F Ti
0.375000 0.375000 0.823738 F F F Ti
0.875000 0.375000 0.823738 F F F Ti
0.375000 0.875000 0.823738 F F F Ti
0.875000 0.875000 0.823738 F F F Ti
0.125000 0.125000 0.823738 F F F Ti
0.625000 0.125000 0.823738 F F F Ti
0.125000 0.625000 0.823738 F F F Ti
0.625000 0.625000 0.823738 F F F Ti
0.125000 0.375000 0.910084 F F F Ti
0.625000 0.375000 0.910084 F F F Ti
0.125000 0.875000 0.910084 F F F Ti
0.625000 0.875000 0.910084 F F F Ti
0.375000 0.125000 0.910084 F F F Ti
0.875000 0.125000 0.910084 F F F Ti
0.375000 0.625000 0.910084 F F F Ti
0.875000 0.625000 0.910084 F F F Ti
0.390696 0.390835 0.656822 T T T Ti
0.894818 0.366609 0.648308 T T T Ti
0.394420 0.894337 0.644394 T T T Ti
0.880564 0.883642 0.671386 T T T Ti
0.105182 0.133391 0.648308 T T T Ti
0.609304 0.109165 0.656822 T T T Ti
0.119436 0.616358 0.671386 T T T Ti
0.605580 0.605663 0.644394 T T T Ti
0.151230 0.389079 0.566566 T T T Ti
0.647131 0.335523 0.573951 T T T Ti
0.117928 0.861087 0.587643 T T T Ti
0.656903 0.857328 0.577422 T T T Ti
0.352869 0.164477 0.573951 T T T Ti
0.848770 0.110921 0.566566 T T T Ti
0.343097 0.642672 0.577422 T T T Ti
0.882072 0.638913 0.587643 T T T Ti
0.415355 0.410036 0.496194 T T T Ti
0.899408 0.371565 0.488384 T T T Ti
0.312372 0.936412 0.497305 T T T Ti
0.913648 0.874966 0.482676 T T T Ti
0.100592 0.128435 0.488384 T T T Ti
0.584645 0.089964 0.496194 T T T Ti
0.086352 0.625034 0.482676 T T T Ti
0.687628 0.563588 0.497305 T T T Ti
0.125000 0.875000 0.737395 F F F Ti
0.625000 0.875000 0.737395 F F F Ti
0.375000 0.625000 0.737395 F F F Ti
0.875000 0.625000 0.737395 F F F Ti
0.125000 0.375000 0.737395 F F F Ti
0.625000 0.375000 0.737395 F F F Ti
0.375000 0.125000 0.737395 F F F Ti
0.875000 0.125000 0.737395 F F F Ti
0.500000 0.750000 0.457144 T T T Zr

0.000000 0.000000 0.000000
0.000000 0.000000 0.000000
0.000000 0.000000 0.000000
0.000000 0.000000 0.000000
0.000000 0.000000 0.000000
0.000000 0.000000 0.000000
0.000000 0.000000 0.000000
0.000000 0.000000 0.000000
0.000000 0.000000 0.000000
0.000000 0.000000 0.000000
0.000000 0.000000 0.000000
0.000000 0.000000 0.000000
0.000000 0.000000 0.000000
0.000000 0.000000 0.000000
0.000000 0.000000 0.000000
0.000000 0.000000 0.000000
0.000000 0.000000 0.000000
0.000000 0.000000 0.000000
0.000000 0.000000 0.000000
0.000000 0.000000 0.000000
0.000000 0.000000 0.000000
0.000000 0.000000 0.000000
0.000000 0.000000 0.000000
0.000000 0.000000 0.000000
0.000000 0.000000 0.000000
0.000000 0.000000 0.000000
0.000000 0.000000 0.000000
0.000000 0.000000 0.000000
0.000000 0.000000 0.000000
0.000000 0.000000 0.000000
0.000000 0.000000 0.000000
0.000000 0.000000 0.000000
0.000000 0.000000 0.000000
0.000000 0.000000 0.000000
0.000000 0.000000 0.000000
0.000000 0.000000 0.000000
0.000000 0.000000 0.000000
0.000000 0.000000 0.000000
0.000000 0.000000 0.000000
0.000000 0.000000 0.000000
0.000000 0.000000 0.000000
0.000000 0.000000 0.000000
0.000000 0.000000 0.000000
0.000000 0.000000 0.000000
0.000000 0.000000 0.000000
0.000000 0.000000 0.000000
0.000000 0.000000 0.000000
0.000000 0.000000 0.000000
0.000000 0.000000 0.000000
0.000000 0.000000 0.000000
0.000000 0.000000 0.000000
0.000000 0.000000 0.000000
0.000000 0.000000 0.000000
0.000000 0.000000 0.000000
0.000000 0.000000 0.000000
0.000000 0.000000 0.000000
0.000000 0.000000 0.000000
0.000000 0.000000 0.000000
0.000000 0.000000 0.000000
0.000000 0.000000 0.000000
0.000000 0.000000 0.000000
0.000000 0.000000 0.000000
0.000000 0.000000 0.000000
0.000000 0.000000 0.000000
0.000000 0.000000 0.000000
0.000000 0.000000 0.000000
0.000000 0.000000 0.000000
0.000000 0.000000 0.000000
0.000000 0.000000 0.000000
0.000000 0.000000 0.000000
0.000000 0.000000 0.000000
0.000000 0.000000 0.000000
0.000000 0.000000 0.000000
0.000000 0.000000 0.000000
0.000000 0.000000 0.000000
0.000000 0.000000 0.000000
0.000000 0.000000 0.000000
0.000000 0.000000 0.000000
0.000000 0.000000 0.000000
0.000000 0.000000 0.000000
0.000000 0.000000 0.000000
0.000000 0.000000 0.000000
0.000000 0.000000 0.000000
0.000000 0.000000 0.000000
0.000000 0.000000 0.000000
0.000000 0.000000 0.000000
0.000000 0.000000 0.000000
0.000000 0.000000 0.000000
0.000000 0.000000 0.000000
0.000000 0.000000 0.000000
0.000000 0.000000 0.000000
0.000000 0.000000 0.000000
0.000000 0.000000 0.000000
0.000000 0.000000 0.000000
0.000000 0.000000 0.000000
0.000000 0.000000 0.000000
0.000000 0.000000 0.000000
