Ti16 Fe1
1.0
5.878318 0.000000 0.000000
-2.939159 5.090773 0.000000
0.000000 0.000000 9.282342
Ti Fe
16 1
direct
0.166666 0.333333 0.125000 Ti
0.166666 0.333333 0.625000 Ti
0.166666 0.833333 0.125000 Ti
0.166666 0.833333 0.625000 Ti
0.666666 0.333333 0.125000 Ti
0.666666 0.333333 0.625000 Ti
0.666666 0.833333 0.125000 Ti
0.666666 0.833333 0.625000 Ti
0.333333 0.166666 0.375000 Ti
0.333333 0.166666 0.875000 Ti
0.333333 0.666666 0.375000 Ti
0.333333 0.666666 0.875000 Ti
0.833333 0.166666 0.375000 Ti
0.833333 0.166666 0.875000 Ti
0.833333 0.666666 0.375000 Ti
0.833333 0.666666 0.875000 Ti
0.821429 0.178571 0.239130 Fe
