total_Ti
1.0
4.756510 0.000000 0.000000
0.000000 4.675430 0.000000
0.000000 0.000000 22.211761
Ti
24
direct
0.333333 0.750000 0.324359 Ti
0.333333 0.750000 0.194616 Ti
0.333333 0.750000 0.064872 Ti
0.833334 0.750000 0.259488 Ti
0.833334 0.750000 0.129744 Ti
0.833334 0.750000 -0.000000 Ti
0.166666 0.250000 0.259487 Ti
0.166666 0.250000 0.129744 Ti
0.166666 0.250000 -0.000000 Ti
0.666667 0.250000 0.324359 Ti
0.666667 0.250000 0.194616 Ti
0.666667 0.250000 0.064872 Ti
0.750000 0.750000 0.842429 Ti
0.250000 0.250000 0.842429 Ti
0.250000 0.750000 0.770330 Ti
0.750000 0.250000 0.770330 Ti
0.750000 0.750000 0.698230 Ti
0.250000 0.250000 0.698230 Ti
0.250000 0.750000 0.626132 Ti
0.750000 0.250000 0.626132 Ti
0.750000 0.750000 0.554032 Ti
0.250000 0.250000 0.554032 Ti
0.250000 0.750000 0.481933 Ti
0.750000 0.250000 0.481933 Ti
