Ti66 Mo1
1.0
6.309760 0.000000 0.000000
0.000000 9.464640 0.000000
0.000000 0.000000 18.918326
Ti Mo
66 1
Selective dynamics
direct
0.124663 0.040407 0.500186 F F F Ti
0.626001 0.041120 0.500164 F F F Ti
0.125274 0.041472 0.658777 F F F Ti
0.625425 0.041469 0.658824 F F F Ti
0.125065 0.041650 0.817237 F F F Ti
0.625060 0.041656 0.817246 F F F Ti
0.636454 0.375336 0.501952 F F F Ti
0.125424 0.374990 0.658573 F F F Ti
0.625745 0.375030 0.658949 F F F Ti
0.125038 0.375002 0.817181 F F F Ti
0.625090 0.375008 0.817241 F F F Ti
0.124777 0.709278 0.500153 F F F Ti
0.625741 0.708931 0.500142 F F F Ti
0.125245 0.708474 0.658727 F F F Ti
0.625330 0.708549 0.658803 F F F Ti
0.125035 0.708339 0.817216 F F F Ti
0.625045 0.708345 0.817238 F F F Ti
0.376547 0.207658 0.579850 F F F Ti
0.876343 0.207637 0.579644 F F F Ti
0.375106 0.208309 0.737993 F F F Ti
0.875236 0.208293 0.737982 F F F Ti
0.375008 0.208348 0.896440 F F F Ti
0.875053 0.208344 0.896438 F F F Ti
0.376457 0.542320 0.579814 F F F Ti
0.876416 0.542382 0.579643 F F F Ti
0.375092 0.541696 0.737989 F F F Ti
0.875235 0.541703 0.737981 F F F Ti
0.375002 0.541649 0.896441 F F F Ti
0.875052 0.541649 0.896440 F F F Ti
0.375351 0.875121 0.579435 F F F Ti
0.875001 0.874962 0.579526 F F F Ti
0.375090 0.874997 0.737991 F F F Ti
0.875102 0.874977 0.738011 F F F Ti
0.375023 0.874980 0.896462 F F F Ti
0.875021 0.874980 0.896463 F F F Ti
0.122248 0.627530 0.356027 F F F Ti
0.625005 0.625958 0.356594 F F F Ti
0.124956 0.625032 0.118838 F F F Ti
0.624783 0.625032 0.118815 F F F Ti
0.122111 0.122465 0.355984 F F F Ti
0.625312 0.124138 0.356576 F F F Ti
0.124964 0.124998 0.118827 F F F Ti
0.624793 0.125001 0.118802 F F F Ti
0.124980 0.375006 0.039582 F F F Ti
0.624891 0.375007 0.039565 F F F Ti
0.124983 0.875012 0.039579 F F F Ti
0.624926 0.875012 0.039568 F F F Ti
0.123242 0.375025 0.276926 F F F Ti
0.623594 0.375036 0.277172 F F F Ti
0.124780 0.875124 0.277189 F F F Ti
0.624582 0.875115 0.277330 F F F Ti
0.375007 0.875028 0.158450 F F F Ti
0.874797 0.875027 0.158391 F F F Ti
0.374809 0.375012 0.158483 F F F Ti
0.874535 0.375010 0.158351 F F F Ti
0.865163 0.375030 0.395117 F F F Ti
0.375080 0.875496 0.396423 F F F Ti
0.874333 0.875167 0.396418 F F F Ti
0.374810 0.625077 0.237759 F F F Ti
0.874173 0.625197 0.237513 F F F Ti
0.374974 0.625004 -0.000031 F F F Ti
0.874954 0.625011 -0.000039 F F F Ti
0.374823 0.124989 0.237748 F F F Ti
0.874165 0.124847 0.237495 F F F Ti
0.374973 0.124990 -0.000035 F F F Ti
0.874956 0.124988 -0.000041 F F F Ti
0.270861 0.373573 0.436337 T T T Mo

0.000000 0.000000 0.000000
0.000000 0.000000 0.000000
0.000000 0.000000 0.000000
0.000000 0.000000 0.000000
0.000000 0.000000 0.000000
0.000000 0.000000 0.000000
0.000000 0.000000 0.000000
0.000000 0.000000 0.000000
0.000000 0.000000 0.000000
0.000000 0.000000 0.000000
0.000000 0.000000 0.000000
0.000000 0.000000 0.000000
0.000000 0.000000 0.000000
0.000000 0.000000 0.000000
0.000000 0.000000 0.000000
0.000000 0.000000 0.000000
0.000000 0.000000 0.000000
0.000000 0.000000 0.000000
0.000000 0.000000 0.000000
0.000000 0.000000 0.000000
0.000000 0.000000 0.000000
0.000000 0.000000 0.000000
0.000000 0.000000 0.000000
0.000000 0.000000 0.000000
0.000000 0.000000 0.000000
0.000000 0.000000 0.000000
0.000000 0.000000 0.000000
0.000000 0.000000 0.000000
0.000000 0.000000 0.000000
0.000000 0.000000 0.000000
0.000000 0.000000 0.000000
0.000000 0.000000 0.000000
0.000000 0.000000 0.000000
0.000000 0.000000 0.000000
0.000000 0.000000 0.000000
0.000000 0.000000 0.000000
0.000000 0.000000 0.000000
0.000000 0.000000 0.000000
0.000000 0.000000 0.000000
0.000000 0.000000 0.000000
0.000000 0.000000 0.000000
0.000000 0.000000 0.000000
0.000000 0.000000 0.000000
0.000000 0.000000 0.000000
0.000000 0.000000 0.000000
0.000000 0.000000 0.000000
0.000000 0.000000 0.000000
0.000000 0.000000 0.000000
0.000000 0.000000 0.000000
0.000000 0.000000 0.000000
0.000000 0.000000 0.000000
0.000000 0.000000 0.000000
0.000000 0.000000 0.000000
0.000000 0.000000 0.000000
0.000000 0.000000 0.000000
0.000000 0.000000 0.000000
0.000000 0.000000 0.000000
0.000000 0.000000 0.000000
0.000000 0.000000 0.000000
0.000000 0.000000 0.000000
0.000000 0.000000 0.000000
0.000000 0.000000 0.000000
0.000000 0.000000 0.000000
0.000000 0.000000 0.000000
0.000000 0.000000 0.000000
0.000000 0.000000 0.000000
0.000000 0.000000 0.000000
