alpha_Ti
1.0
4.756510 0.000000 0.000000
0.000000 4.675430 0.000000
0.000000 0.000000 21.211761
Ti
12
direct
0.333333 0.750000 0.339651 Ti
0.333333 0.750000 0.203791 Ti
0.333333 0.750000 0.067930 Ti
0.833334 0.750000 0.271721 Ti
0.833334 0.750000 0.135861 Ti
0.833334 0.750000 -0.000000 Ti
0.166666 0.250000 0.271720 Ti
0.166666 0.250000 0.135861 Ti
0.166666 0.250000 -0.000000 Ti
0.666667 0.250000 0.339651 Ti
0.666667 0.250000 0.203791 Ti
0.666667 0.250000 0.067930 Ti
