Ti96 Al1
1.0
9.513020 0.000000 0.000000
0.000000 9.350860 0.000000
0.000000 0.000000 18.547230
Ti Al
96 1
Selective dynamics
direct
0.136150 0.367646 0.404942 T T T Ti
0.662062 0.358924 0.387776 T T T Ti
0.152426 0.865170 0.400578 T T T Ti
0.663905 0.875647 0.411512 T T T Ti
0.162981 0.373167 0.237471 T T T Ti
0.657211 0.372658 0.234006 T T T Ti
0.162050 0.874723 0.234778 T T T Ti
0.662532 0.872423 0.234391 T T T Ti
0.166676 0.375022 0.077606 F F F Ti
0.666651 0.374987 0.077607 F F F Ti
0.166691 0.875012 0.077618 F F F Ti
0.666645 0.874985 0.077622 F F F Ti
0.405506 0.389408 0.318178 T T T Ti
0.911440 0.379628 0.314582 T T T Ti
0.403601 0.875584 0.317486 T T T Ti
0.905583 0.876797 0.317122 T T T Ti
0.416694 0.374991 0.155228 F F F Ti
0.916641 0.374950 0.155220 F F F Ti
0.416674 0.874994 0.155266 F F F Ti
0.916701 0.875000 0.155212 F F F Ti
0.416685 0.375044 -0.000058 F F F Ti
0.916617 0.375020 -0.000035 F F F Ti
0.416664 0.874978 -0.000082 F F F Ti
0.916635 0.874986 -0.000054 F F F Ti
0.088560 0.120373 0.314581 T T T Ti
0.594494 0.110593 0.318177 T T T Ti
0.094417 0.623204 0.317121 T T T Ti
0.596399 0.624417 0.317485 T T T Ti
0.083359 0.125060 0.155220 F F F Ti
0.583307 0.125020 0.155228 F F F Ti
0.083299 0.625013 0.155212 F F F Ti
0.583327 0.625015 0.155266 F F F Ti
0.083384 0.124988 -0.000034 F F F Ti
0.583317 0.124967 -0.000056 F F F Ti
0.083365 0.625027 -0.000053 F F F Ti
0.583338 0.625035 -0.000081 F F F Ti
0.337937 0.141076 0.387776 T T T Ti
0.863849 0.132354 0.404942 T T T Ti
0.336094 0.624353 0.411512 T T T Ti
0.847573 0.634830 0.400578 T T T Ti
0.342788 0.127345 0.234006 T T T Ti
0.837018 0.126835 0.237471 T T T Ti
0.337467 0.627579 0.234391 T T T Ti
0.837949 0.625279 0.234778 T T T Ti
0.333349 0.125024 0.077607 F F F Ti
0.833324 0.124990 0.077606 F F F Ti
0.333355 0.625026 0.077623 F F F Ti
0.833309 0.625000 0.077619 F F F Ti
0.375036 0.375048 0.823828 F F F Ti
0.874975 0.374903 0.823898 F F F Ti
0.375003 0.874985 0.823759 F F F Ti
0.875010 0.874991 0.823875 F F F Ti
0.125027 0.125081 0.823898 F F F Ti
0.624975 0.124956 0.823830 F F F Ti
0.124993 0.625010 0.823877 F F F Ti
0.625003 0.625004 0.823761 F F F Ti
0.125001 0.375016 0.910136 F F F Ti
0.624998 0.374969 0.910088 F F F Ti
0.125045 0.874990 0.910102 F F F Ti
0.624969 0.874967 0.910068 F F F Ti
0.375007 0.125032 0.910089 F F F Ti
0.875004 0.124982 0.910135 F F F Ti
0.375035 0.625033 0.910068 F F F Ti
0.874962 0.625011 0.910103 F F F Ti
0.381801 0.377591 0.666862 T T T Ti
0.880120 0.393714 0.648809 T T T Ti
0.379502 0.885081 0.664724 T T T Ti
0.903652 0.881464 0.653548 T T T Ti
0.119879 0.106282 0.648808 T T T Ti
0.618197 0.122403 0.666862 T T T Ti
0.096345 0.618529 0.653548 T T T Ti
0.620497 0.614914 0.664724 T T T Ti
0.130496 0.358839 0.570923 T T T Ti
0.629534 0.358306 0.581727 T T T Ti
0.166454 0.849016 0.567664 T T T Ti
0.676051 0.920873 0.571840 T T T Ti
0.370465 0.141692 0.581727 T T T Ti
0.869503 0.141160 0.570923 T T T Ti
0.323948 0.579125 0.571840 T T T Ti
0.833545 0.650983 0.567665 T T T Ti
0.396220 0.360252 0.481053 T T T Ti
0.878422 0.387959 0.491638 T T T Ti
0.379474 0.937599 0.477231 T T T Ti
0.918205 0.886229 0.487740 T T T Ti
0.121578 0.112041 0.491638 T T T Ti
0.603779 0.139747 0.481053 T T T Ti
0.081794 0.613770 0.487740 T T T Ti
0.620526 0.562401 0.477231 T T T Ti
0.125313 0.875131 0.737671 F F F Ti
0.624910 0.874560 0.737630 F F F Ti
0.375079 0.625419 0.737622 F F F Ti
0.874677 0.624846 0.737677 F F F Ti
0.124858 0.374919 0.737727 F F F Ti
0.625305 0.374608 0.737597 F F F Ti
0.374689 0.125374 0.737594 F F F Ti
0.875129 0.125054 0.737723 F F F Ti
0.500000 0.750000 0.530669 T T T Al

0.000000 0.000000 0.000000
0.000000 0.000000 0.000000
0.000000 0.000000 0.000000
0.000000 0.000000 0.000000
0.000000 0.000000 0.000000
0.000000 0.000000 0.000000
0.000000 0.000000 0.000000
0.000000 0.000000 0.000000
0.000000 0.000000 0.000000
0.000000 0.000000 0.000000
0.000000 0.000000 0.000000
0.000000 0.000000 0.000000
0.000000 0.000000 0.000000
0.000000 0.000000 0.000000
0.000000 0.000000 0.000000
0.000000 0.000000 0.000000
0.000000 0.000000 0.000000
0.000000 0.000000 0.000000
0.000000 0.000000 0.000000
0.000000 0.000000 0.000000
0.000000 0.000000 0.000000
0.000000 0.000000 0.000000
0.000000 0.000000 0.000000
0.000000 0.000000 0.000000
0.000000 0.000000 0.000000
0.000000 0.000000 0.000000
0.000000 0.000000 0.000000
0.000000 0.000000 0.000000
0.000000 0.000000 0.000000
0.000000 0.000000 0.000000
0.000000 0.000000 0.000000
0.000000 0.000000 0.000000
0.000000 0.000000 0.000000
0.000000 0.000000 0.000000
0.000000 0.000000 0.000000
0.000000 0.000000 0.000000
0.000000 0.000000 0.000000
0.000000 0.000000 0.000000
0.000000 0.000000 0.000000
0.000000 0.000000 0.000000
0.000000 0.000000 0.000000
0.000000 0.000000 0.000000
0.000000 0.000000 0.000000
0.000000 0.000000 0.000000
0.000000 0.000000 0.000000
0.000000 0.000000 0.000000
0.000000 0.000000 0.000000
0.000000 0.000000 0.000000
0.000000 0.000000 0.000000
0.000000 0.000000 0.000000
0.000000 0.000000 0.000000
0.000000 0.000000 0.000000
0.000000 0.000000 0.000000
0.000000 0.000000 0.000000
0.000000 0.000000 0.000000
0.000000 0.000000 0.000000
0.000000 0.000000 0.000000
0.000000 0.000000 0.000000
0.000000 0.000000 0.000000
0.000000 0.000000 0.000000
0.000000 0.000000 0.000000
0.000000 0.000000 0.000000
0.000000 0.000000 0.000000
0.000000 0.000000 0.000000
0.000000 0.000000 0.000000
0.000000 0.000000 0.000000
0.000000 0.000000 0.000000
0.000000 0.000000 0.000000
0.000000 0.000000 0.000000
0.000000 0.000000 0.000000
0.000000 0.000000 0.000000
0.000000 0.000000 0.000000
0.000000 0.000000 0.000000
0.000000 0.000000 0.000000
0.000000 0.000000 0.000000
0.000000 0.000000 0.000000
0.000000 0.000000 0.000000
0.000000 0.000000 0.000000
0.000000 0.000000 0.000000
0.000000 0.000000 0.000000
0.000000 0.000000 0.000000
0.000000 0.000000 0.000000
0.000000 0.000000 0.000000
0.000000 0.000000 0.000000
0.000000 0.000000 0.000000
0.000000 0.000000 0.000000
0.000000 0.000000 0.000000
0.000000 0.000000 0.000000
0.000000 0.000000 0.000000
0.000000 0.000000 0.000000
0.000000 0.000000 0.000000
0.000000 0.000000 0.000000
0.000000 0.000000 0.000000
0.000000 0.000000 0.000000
0.000000 0.000000 0.000000
0.000000 0.000000 0.000000
0.000000 0.000000 0.000000
