Ti96 Sn1
1.0
9.513020 0.000000 0.000000
0.000000 9.350860 0.000000
0.000000 0.000000 18.547230
Ti Sn
96 1
Selective dynamics
direct
0.146303 0.381625 0.401056 T T T Ti
0.663105 0.346935 0.386244 T T T Ti
0.137536 0.862892 0.401478 T T T Ti
0.666993 0.858528 0.410972 T T T Ti
0.162409 0.370198 0.237315 T T T Ti
0.653686 0.372366 0.233540 T T T Ti
0.164074 0.874980 0.234106 T T T Ti
0.659735 0.871918 0.233410 T T T Ti
0.166662 0.375019 0.077677 F F F Ti
0.666674 0.374990 0.077651 F F F Ti
0.166659 0.875016 0.077680 F F F Ti
0.666660 0.875006 0.077665 F F F Ti
0.405146 0.400733 0.321065 T T T Ti
0.910348 0.381306 0.317041 T T T Ti
0.397792 0.878810 0.321670 T T T Ti
0.903877 0.876505 0.313401 T T T Ti
0.416668 0.374969 0.155268 F F F Ti
0.916685 0.374957 0.155292 F F F Ti
0.416662 0.875050 0.155278 F F F Ti
0.916675 0.874985 0.155298 F F F Ti
0.416658 0.375017 -0.000014 F F F Ti
0.916653 0.375007 -0.000007 F F F Ti
0.416660 0.874999 -0.000031 F F F Ti
0.916655 0.874994 -0.000019 F F F Ti
0.089652 0.118695 0.317040 T T T Ti
0.594854 0.099267 0.321064 T T T Ti
0.096123 0.623496 0.313400 T T T Ti
0.602208 0.621191 0.321669 T T T Ti
0.083314 0.125049 0.155291 F F F Ti
0.583333 0.125038 0.155267 F F F Ti
0.083325 0.625021 0.155298 F F F Ti
0.583338 0.624957 0.155278 F F F Ti
0.083348 0.124997 -0.000008 F F F Ti
0.583342 0.124988 -0.000014 F F F Ti
0.083345 0.625014 -0.000018 F F F Ti
0.583341 0.625008 -0.000030 F F F Ti
0.336894 0.153065 0.386244 T T T Ti
0.853696 0.118376 0.401056 T T T Ti
0.333006 0.641472 0.410972 T T T Ti
0.862463 0.637108 0.401478 T T T Ti
0.346313 0.127635 0.233540 T T T Ti
0.837590 0.129803 0.237315 T T T Ti
0.340264 0.628084 0.233411 T T T Ti
0.835925 0.625021 0.234106 T T T Ti
0.333326 0.125015 0.077651 F F F Ti
0.833337 0.124986 0.077677 F F F Ti
0.333339 0.625001 0.077665 F F F Ti
0.833340 0.624990 0.077680 F F F Ti
0.375026 0.375012 0.823884 F F F Ti
0.875000 0.374942 0.823874 F F F Ti
0.375041 0.875051 0.823798 F F F Ti
0.875040 0.875012 0.823815 F F F Ti
0.125006 0.125051 0.823872 F F F Ti
0.624980 0.124990 0.823883 F F F Ti
0.124962 0.624989 0.823816 F F F Ti
0.624962 0.624943 0.823800 F F F Ti
0.124979 0.375030 0.910122 F F F Ti
0.624994 0.375008 0.910124 F F F Ti
0.125007 0.875002 0.910086 F F F Ti
0.624976 0.875002 0.910075 F F F Ti
0.375008 0.124993 0.910124 F F F Ti
0.875025 0.124970 0.910121 F F F Ti
0.375026 0.625000 0.910075 F F F Ti
0.874998 0.624999 0.910087 F F F Ti
0.382242 0.370966 0.670826 T T T Ti
0.874065 0.398683 0.647051 T T T Ti
0.380483 0.888194 0.660812 T T T Ti
0.902034 0.878962 0.655375 T T T Ti
0.125934 0.101316 0.647050 T T T Ti
0.617757 0.129031 0.670825 T T T Ti
0.097964 0.621035 0.655375 T T T Ti
0.619517 0.611802 0.660813 T T T Ti
0.130158 0.355444 0.574982 T T T Ti
0.626092 0.350919 0.577470 T T T Ti
0.166245 0.847489 0.564955 T T T Ti
0.679554 0.931713 0.577876 T T T Ti
0.373908 0.149080 0.577470 T T T Ti
0.869842 0.144555 0.574982 T T T Ti
0.320446 0.568286 0.577876 T T T Ti
0.833754 0.652510 0.564955 T T T Ti
0.391470 0.369605 0.478739 T T T Ti
0.880592 0.380513 0.488369 T T T Ti
0.369000 0.950268 0.472381 T T T Ti
0.916941 0.893509 0.492395 T T T Ti
0.119408 0.119487 0.488369 T T T Ti
0.608530 0.130395 0.478739 T T T Ti
0.083059 0.606491 0.492395 T T T Ti
0.631000 0.549732 0.472381 T T T Ti
0.125294 0.875227 0.737597 F F F Ti
0.624990 0.875098 0.737614 F F F Ti
0.375003 0.624888 0.737616 F F F Ti
0.874701 0.624760 0.737603 F F F Ti
0.124823 0.374922 0.737612 F F F Ti
0.624998 0.374822 0.737674 F F F Ti
0.374994 0.125161 0.737671 F F F Ti
0.875172 0.125064 0.737609 F F F Ti
0.500000 0.750000 0.531490 T T T Sn

0.000000 0.000000 0.000000
0.000000 0.000000 0.000000
0.000000 0.000000 0.000000
0.000000 0.000000 0.000000
0.000000 0.000000 0.000000
0.000000 0.000000 0.000000
0.000000 0.000000 0.000000
0.000000 0.000000 0.000000
0.000000 0.000000 0.000000
0.000000 0.000000 0.000000
0.000000 0.000000 0.000000
0.000000 0.000000 0.000000
0.000000 0.000000 0.000000
0.000000 0.000000 0.000000
0.000000 0.000000 0.000000
0.000000 0.000000 0.000000
0.000000 0.000000 0.000000
0.000000 0.000000 0.000000
0.000000 0.000000 0.000000
0.000000 0.000000 0.000000
0.000000 0.000000 0.000000
0.000000 0.000000 0.000000
0.000000 0.000000 0.000000
0.000000 0.000000 0.000000
0.000000 0.000000 0.000000
0.000000 0.000000 0.000000
0.000000 0.000000 0.000000
0.000000 0.000000 0.000000
0.000000 0.000000 0.000000
0.000000 0.000000 0.000000
0.000000 0.000000 0.000000
0.000000 0.000000 0.000000
0.000000 0.000000 0.000000
0.000000 0.000000 0.000000
0.000000 0.000000 0.000000
0.000000 0.000000 0.000000
0.000000 0.000000 0.000000
0.000000 0.000000 0.000000
0.000000 0.000000 0.000000
0.000000 0.000000 0.000000
0.000000 0.000000 0.000000
0.000000 0.000000 0.000000
0.000000 0.000000 0.000000
0.000000 0.000000 0.000000
0.000000 0.000000 0.000000
0.000000 0.000000 0.000000
0.000000 0.000000 0.000000
0.000000 0.000000 0.000000
0.000000 0.000000 0.000000
0.000000 0.000000 0.000000
0.000000 0.000000 0.000000
0.000000 0.000000 0.000000
0.000000 0.000000 0.000000
0.000000 0.000000 0.000000
0.000000 0.000000 0.000000
0.000000 0.000000 0.000000
0.000000 0.000000 0.000000
0.000000 0.000000 0.000000
0.000000 0.000000 0.000000
0.000000 0.000000 0.000000
0.000000 0.000000 0.000000
0.000000 0.000000 0.000000
0.000000 0.000000 0.000000
0.000000 0.000000 0.000000
0.000000 0.000000 0.000000
0.000000 0.000000 0.000000
0.000000 0.000000 0.000000
0.000000 0.000000 0.000000
0.000000 0.000000 0.000000
0.000000 0.000000 0.000000
0.000000 0.000000 0.000000
0.000000 0.000000 0.000000
0.000000 0.000000 0.000000
0.000000 0.000000 0.000000
0.000000 0.000000 0.000000
0.000000 0.000000 0.000000
0.000000 0.000000 0.000000
0.000000 0.000000 0.000000
0.000000 0.000000 0.000000
0.000000 0.000000 0.000000
0.000000 0.000000 0.000000
0.000000 0.000000 0.000000
0.000000 0.000000 0.000000
0.000000 0.000000 0.000000
0.000000 0.000000 0.000000
0.000000 0.000000 0.000000
0.000000 0.000000 0.000000
0.000000 0.000000 0.000000
0.000000 0.000000 0.000000
0.000000 0.000000 0.000000
0.000000 0.000000 0.000000
0.000000 0.000000 0.000000
0.000000 0.000000 0.000000
0.000000 0.000000 0.000000
0.000000 0.000000 0.000000
0.000000 0.000000 0.000000
0.000000 0.000000 0.000000
