Ti97
1.0
9.513020 0.000000 0.000000
0.000000 9.350860 0.000000
0.000000 0.000000 18.547230
Ti
97
Selective dynamics
direct
0.143779 0.367469 0.406313 T T T Ti
0.645691 0.348293 0.406183 T T T Ti
0.154029 0.856699 0.396084 T T T Ti
0.675198 0.898647 0.396848 T T T Ti
0.159407 0.376223 0.235674 T T T Ti
0.664009 0.370799 0.231365 T T T Ti
0.160946 0.874247 0.234691 T T T Ti
0.655108 0.864617 0.241537 T T T Ti
0.166669 0.375002 0.077669 F F F Ti
0.666666 0.375007 0.077673 F F F Ti
0.166690 0.874991 0.077690 F F F Ti
0.666676 0.875019 0.077693 F F F Ti
0.404680 0.372607 0.312690 T T T Ti
0.897659 0.374326 0.320343 T T T Ti
0.400576 0.902860 0.320109 T T T Ti
0.914809 0.882689 0.315040 T T T Ti
0.416656 0.374992 0.155299 F F F Ti
0.916652 0.374982 0.155309 F F F Ti
0.416679 0.875019 0.155348 F F F Ti
0.916740 0.874995 0.155312 F F F Ti
0.416666 0.375001 -0.000006 F F F Ti
0.916660 0.375002 -0.000008 F F F Ti
0.416668 0.874995 0.000012 F F F Ti
0.916672 0.874998 -0.000000 F F F Ti
0.102341 0.125674 0.320342 T T T Ti
0.595320 0.127393 0.312689 T T T Ti
0.085191 0.617311 0.315039 T T T Ti
0.599424 0.597140 0.320108 T T T Ti
0.083348 0.125021 0.155309 F F F Ti
0.583344 0.125012 0.155299 F F F Ti
0.083260 0.625008 0.155312 F F F Ti
0.583321 0.624984 0.155348 F F F Ti
0.083340 0.124999 -0.000008 F F F Ti
0.583334 0.125000 -0.000006 F F F Ti
0.083327 0.625002 0.000000 F F F Ti
0.583333 0.625005 0.000012 F F F Ti
0.354308 0.151707 0.406183 T T T Ti
0.856220 0.132532 0.406313 T T T Ti
0.324801 0.601353 0.396848 T T T Ti
0.845970 0.643301 0.396084 T T T Ti
0.335990 0.129202 0.231365 T T T Ti
0.840592 0.123777 0.235674 T T T Ti
0.344891 0.635383 0.241537 T T T Ti
0.839053 0.625753 0.234691 T T T Ti
0.333333 0.124995 0.077673 F F F Ti
0.833330 0.125000 0.077669 F F F Ti
0.333323 0.624982 0.077693 F F F Ti
0.833309 0.625010 0.077690 F F F Ti
0.375008 0.375014 0.823789 F F F Ti
0.874997 0.374988 0.823789 F F F Ti
0.375001 0.874997 0.823788 F F F Ti
0.874999 0.875009 0.823779 F F F Ti
0.125003 0.125012 0.823789 F F F Ti
0.624993 0.124984 0.823789 F F F Ti
0.125002 0.624990 0.823779 F F F Ti
0.625000 0.625002 0.823788 F F F Ti
0.124999 0.375005 0.910098 F F F Ti
0.625001 0.375003 0.910100 F F F Ti
0.124998 0.875000 0.910100 F F F Ti
0.624998 0.875001 0.910100 F F F Ti
0.374999 0.124996 0.910100 F F F Ti
0.875002 0.124995 0.910098 F F F Ti
0.375003 0.624998 0.910100 F F F Ti
0.875002 0.624999 0.910100 F F F Ti
0.392741 0.391549 0.656480 T T T Ti
0.897367 0.373854 0.648588 T T T Ti
0.392654 0.888199 0.648178 T T T Ti
0.883074 0.884254 0.665918 T T T Ti
0.102633 0.126146 0.648588 T T T Ti
0.607259 0.108451 0.656480 T T T Ti
0.116925 0.615745 0.665918 T T T Ti
0.607346 0.611801 0.648178 T T T Ti
0.150769 0.379699 0.566900 T T T Ti
0.646021 0.344327 0.577673 T T T Ti
0.127154 0.859024 0.583556 T T T Ti
0.654257 0.860910 0.571745 T T T Ti
0.353979 0.155673 0.577673 T T T Ti
0.849231 0.120301 0.566900 T T T Ti
0.345743 0.639090 0.571745 T T T Ti
0.872846 0.640976 0.583556 T T T Ti
0.409693 0.396529 0.492169 T T T Ti
0.896999 0.377748 0.488815 T T T Ti
0.347237 0.922346 0.496371 T T T Ti
0.909939 0.876964 0.484960 T T T Ti
0.103001 0.122252 0.488815 T T T Ti
0.590307 0.103471 0.492169 T T T Ti
0.090061 0.623036 0.484960 T T T Ti
0.652763 0.577654 0.496371 T T T Ti
0.124959 0.875050 0.737478 F F F Ti
0.625012 0.874957 0.737464 F F F Ti
0.374987 0.625040 0.737464 F F F Ti
0.875039 0.624947 0.737478 F F F Ti
0.124978 0.375020 0.737472 F F F Ti
0.625019 0.374929 0.737488 F F F Ti
0.374979 0.125067 0.737488 F F F Ti
0.875021 0.124977 0.737472 F F F Ti
0.500000 0.750000 0.446496 T T T Ti

0.000000 0.000000 0.000000
0.000000 0.000000 0.000000
0.000000 0.000000 0.000000
0.000000 0.000000 0.000000
0.000000 0.000000 0.000000
0.000000 0.000000 0.000000
0.000000 0.000000 0.000000
0.000000 0.000000 0.000000
0.000000 0.000000 0.000000
0.000000 0.000000 0.000000
0.000000 0.000000 0.000000
0.000000 0.000000 0.000000
0.000000 0.000000 0.000000
0.000000 0.000000 0.000000
0.000000 0.000000 0.000000
0.000000 0.000000 0.000000
0.000000 0.000000 0.000000
0.000000 0.000000 0.000000
0.000000 0.000000 0.000000
0.000000 0.000000 0.000000
0.000000 0.000000 0.000000
0.000000 0.000000 0.000000
0.000000 0.000000 0.000000
0.000000 0.000000 0.000000
0.000000 0.000000 0.000000
0.000000 0.000000 0.000000
0.000000 0.000000 0.000000
0.000000 0.000000 0.000000
0.000000 0.000000 0.000000
0.000000 0.000000 0.000000
0.000000 0.000000 0.000000
0.000000 0.000000 0.000000
0.000000 0.000000 0.000000
0.000000 0.000000 0.000000
0.000000 0.000000 0.000000
0.000000 0.000000 0.000000
0.000000 0.000000 0.000000
0.000000 0.000000 0.000000
0.000000 0.000000 0.000000
0.000000 0.000000 0.000000
0.000000 0.000000 0.000000
0.000000 0.000000 0.000000
0.000000 0.000000 0.000000
0.000000 0.000000 0.000000
0.000000 0.000000 0.000000
0.000000 0.000000 0.000000
0.000000 0.000000 0.000000
0.000000 0.000000 0.000000
0.000000 0.000000 0.000000
0.000000 0.000000 0.000000
0.000000 0.000000 0.000000
0.000000 0.000000 0.000000
0.000000 0.000000 0.000000
0.000000 0.000000 0.000000
0.000000 0.000000 0.000000
0.000000 0.000000 0.000000
0.000000 0.000000 0.000000
0.000000 0.000000 0.000000
0.000000 0.000000 0.000000
0.000000 0.000000 0.000000
0.000000 0.000000 0.000000
0.000000 0.000000 0.000000
0.000000 0.000000 0.000000
0.000000 0.000000 0.000000
0.000000 0.000000 0.000000
0.000000 0.000000 0.000000
0.000000 0.000000 0.000000
0.000000 0.000000 0.000000
0.000000 0.000000 0.000000
0.000000 0.000000 0.000000
0.000000 0.000000 0.000000
0.000000 0.000000 0.000000
0.000000 0.000000 0.000000
0.000000 0.000000 0.000000
0.000000 0.000000 0.000000
0.000000 0.000000 0.000000
0.000000 0.000000 0.000000
0.000000 0.000000 0.000000
0.000000 0.000000 0.000000
0.000000 0.000000 0.000000
0.000000 0.000000 0.000000
0.000000 0.000000 0.000000
0.000000 0.000000 0.000000
0.000000 0.000000 0.000000
0.000000 0.000000 0.000000
0.000000 0.000000 0.000000
0.000000 0.000000 0.000000
0.000000 0.000000 0.000000
0.000000 0.000000 0.000000
0.000000 0.000000 0.000000
0.000000 0.000000 0.000000
0.000000 0.000000 0.000000
0.000000 0.000000 0.000000
0.000000 0.000000 0.000000
0.000000 0.000000 0.000000
0.000000 0.000000 0.000000
0.000000 0.000000 0.000000
