Ti66 Mo1
1.0
6.309760 0.000000 0.000000
0.000000 9.464640 0.000000
0.000000 0.000000 18.918326
Ti Mo
66 1
Selective dynamics
direct
0.127111 0.025111 0.505508 F F F Ti
0.629513 0.040412 0.500488 F F F Ti
0.125739 0.039148 0.659704 F F F Ti
0.625279 0.039414 0.659391 F F F Ti
0.125177 0.040833 0.817477 F F F Ti
0.625045 0.040862 0.817474 F F F Ti
0.630903 0.374000 0.501153 F F F Ti
0.125454 0.373232 0.658780 F F F Ti
0.625805 0.373858 0.659209 F F F Ti
0.125231 0.374327 0.817327 F F F Ti
0.625240 0.374394 0.817423 F F F Ti
0.124970 0.699905 0.499463 F F F Ti
0.622451 0.706986 0.499980 F F F Ti
0.125393 0.705382 0.658684 F F F Ti
0.624335 0.705850 0.659072 F F F Ti
0.125097 0.707426 0.817323 F F F Ti
0.624943 0.707455 0.817404 F F F Ti
0.378809 0.205674 0.580532 F F F Ti
0.873116 0.205225 0.581478 F F F Ti
0.375493 0.207287 0.738304 F F F Ti
0.875188 0.207205 0.738452 F F F Ti
0.375128 0.207964 0.896484 F F F Ti
0.875126 0.207946 0.896503 F F F Ti
0.375838 0.538757 0.579380 F F F Ti
0.874564 0.539956 0.579755 F F F Ti
0.375085 0.540281 0.738161 F F F Ti
0.875350 0.540439 0.738225 F F F Ti
0.375048 0.541217 0.896481 F F F Ti
0.875127 0.541242 0.896480 F F F Ti
0.377791 0.870916 0.580312 F F F Ti
0.873149 0.870238 0.580464 F F F Ti
0.375266 0.873368 0.738358 F F F Ti
0.875023 0.873278 0.738354 F F F Ti
0.375073 0.874646 0.896537 F F F Ti
0.875016 0.874644 0.896531 F F F Ti
0.126029 0.627423 0.355936 F F F Ti
0.622911 0.633927 0.355046 F F F Ti
0.125289 0.626250 0.118438 F F F Ti
0.625024 0.626303 0.118354 F F F Ti
0.632346 0.127258 0.356692 F F F Ti
0.125729 0.125829 0.118870 F F F Ti
0.625160 0.125749 0.118794 F F F Ti
0.125395 0.375324 0.039217 F F F Ti
0.625120 0.375315 0.039242 F F F Ti
0.125080 0.875657 0.039550 F F F Ti
0.624936 0.875682 0.039544 F F F Ti
0.125767 0.378913 0.276502 F F F Ti
0.625382 0.377438 0.274223 F F F Ti
0.125048 0.878201 0.277768 F F F Ti
0.625173 0.878904 0.277226 F F F Ti
0.374922 0.876726 0.158507 F F F Ti
0.875463 0.876620 0.158394 F F F Ti
0.374619 0.376130 0.157772 F F F Ti
0.876234 0.376292 0.157527 F F F Ti
0.402177 0.389368 0.393235 F F F Ti
0.840641 0.396919 0.391391 F F F Ti
0.374033 0.878331 0.396789 F F F Ti
0.876592 0.876049 0.396818 F F F Ti
0.374980 0.627680 0.236964 F F F Ti
0.875458 0.627909 0.236918 F F F Ti
0.375032 0.625424 -0.000179 F F F Ti
0.875072 0.625440 -0.000183 F F F Ti
0.375155 0.127200 0.238205 F F F Ti
0.876379 0.127114 0.237529 F F F Ti
0.375128 0.125054 -0.000006 F F F Ti
0.875192 0.125061 0.000020 F F F Ti
0.100656 0.244647 0.435076 T T T Mo

0.000000 0.000000 0.000000
0.000000 0.000000 0.000000
0.000000 0.000000 0.000000
0.000000 0.000000 0.000000
0.000000 0.000000 0.000000
0.000000 0.000000 0.000000
0.000000 0.000000 0.000000
0.000000 0.000000 0.000000
0.000000 0.000000 0.000000
0.000000 0.000000 0.000000
0.000000 0.000000 0.000000
0.000000 0.000000 0.000000
0.000000 0.000000 0.000000
0.000000 0.000000 0.000000
0.000000 0.000000 0.000000
0.000000 0.000000 0.000000
0.000000 0.000000 0.000000
0.000000 0.000000 0.000000
0.000000 0.000000 0.000000
0.000000 0.000000 0.000000
0.000000 0.000000 0.000000
0.000000 0.000000 0.000000
0.000000 0.000000 0.000000
0.000000 0.000000 0.000000
0.000000 0.000000 0.000000
0.000000 0.000000 0.000000
0.000000 0.000000 0.000000
0.000000 0.000000 0.000000
0.000000 0.000000 0.000000
0.000000 0.000000 0.000000
0.000000 0.000000 0.000000
0.000000 0.000000 0.000000
0.000000 0.000000 0.000000
0.000000 0.000000 0.000000
0.000000 0.000000 0.000000
0.000000 0.000000 0.000000
0.000000 0.000000 0.000000
0.000000 0.000000 0.000000
0.000000 0.000000 0.000000
0.000000 0.000000 0.000000
0.000000 0.000000 0.000000
0.000000 0.000000 0.000000
0.000000 0.000000 0.000000
0.000000 0.000000 0.000000
0.000000 0.000000 0.000000
0.000000 0.000000 0.000000
0.000000 0.000000 0.000000
0.000000 0.000000 0.000000
0.000000 0.000000 0.000000
0.000000 0.000000 0.000000
0.000000 0.000000 0.000000
0.000000 0.000000 0.000000
0.000000 0.000000 0.000000
0.000000 0.000000 0.000000
0.000000 0.000000 0.000000
0.000000 0.000000 0.000000
0.000000 0.000000 0.000000
0.000000 0.000000 0.000000
0.000000 0.000000 0.000000
0.000000 0.000000 0.000000
0.000000 0.000000 0.000000
0.000000 0.000000 0.000000
0.000000 0.000000 0.000000
0.000000 0.000000 0.000000
0.000000 0.000000 0.000000
0.000000 0.000000 0.000000
0.000000 0.000000 0.000000
