Ti96 Nb1
1.0
9.513020 0.000000 0.000000
0.000000 9.350860 0.000000
0.000000 0.000000 18.547230
Ti Nb
96 1
Selective dynamics
direct
0.147242 0.374305 0.404940 T T T Ti
0.649956 0.342296 0.400259 T T T Ti
0.131895 0.858616 0.393825 T T T Ti
0.669291 0.865649 0.396507 T T T Ti
0.162130 0.370590 0.234947 T T T Ti
0.658967 0.375331 0.234592 T T T Ti
0.163775 0.873889 0.235216 T T T Ti
0.656234 0.871511 0.235503 T T T Ti
0.166672 0.375032 0.077661 F F F Ti
0.666669 0.375011 0.077641 F F F Ti
0.166666 0.874984 0.077661 F F F Ti
0.666674 0.874983 0.077653 F F F Ti
0.405118 0.382803 0.315588 T T T Ti
0.901960 0.374003 0.319159 T T T Ti
0.404336 0.889154 0.326027 T T T Ti
0.909898 0.883558 0.310012 T T T Ti
0.416658 0.375004 0.155310 F F F Ti
0.916668 0.374991 0.155291 F F F Ti
0.416669 0.874986 0.155333 F F F Ti
0.916668 0.875002 0.155320 F F F Ti
0.416666 0.375031 -0.000026 F F F Ti
0.916642 0.375018 -0.000019 F F F Ti
0.416669 0.874983 -0.000041 F F F Ti
0.916646 0.874987 -0.000029 F F F Ti
0.098040 0.125997 0.319158 T T T Ti
0.594882 0.117197 0.315587 T T T Ti
0.090102 0.616442 0.310011 T T T Ti
0.595664 0.610846 0.326026 T T T Ti
0.083332 0.125014 0.155291 F F F Ti
0.583342 0.125000 0.155310 F F F Ti
0.083332 0.625003 0.155320 F F F Ti
0.583331 0.625019 0.155333 F F F Ti
0.083358 0.124987 -0.000018 F F F Ti
0.583335 0.124975 -0.000025 F F F Ti
0.083355 0.625020 -0.000029 F F F Ti
0.583332 0.625026 -0.000041 F F F Ti
0.350043 0.157704 0.400259 T T T Ti
0.852757 0.125695 0.404940 T T T Ti
0.330708 0.634351 0.396507 T T T Ti
0.868104 0.641384 0.393825 T T T Ti
0.341032 0.124670 0.234592 T T T Ti
0.837869 0.129410 0.234947 T T T Ti
0.343765 0.628490 0.235503 T T T Ti
0.836224 0.626112 0.235216 T T T Ti
0.333330 0.124995 0.077642 F F F Ti
0.833327 0.124973 0.077661 F F F Ti
0.333325 0.625023 0.077653 F F F Ti
0.833333 0.625022 0.077661 F F F Ti
0.375012 0.375017 0.823852 F F F Ti
0.874967 0.374962 0.823851 F F F Ti
0.375023 0.874957 0.823786 F F F Ti
0.875036 0.874978 0.823786 F F F Ti
0.125037 0.125034 0.823850 F F F Ti
0.624991 0.124983 0.823853 F F F Ti
0.124966 0.625023 0.823787 F F F Ti
0.624980 0.625038 0.823787 F F F Ti
0.124989 0.375021 0.910132 F F F Ti
0.625005 0.375001 0.910130 F F F Ti
0.125008 0.874976 0.910103 F F F Ti
0.625004 0.874976 0.910101 F F F Ti
0.374998 0.124998 0.910130 F F F Ti
0.875015 0.124979 0.910131 F F F Ti
0.374999 0.625024 0.910101 F F F Ti
0.874996 0.625025 0.910103 F F F Ti
0.389859 0.379698 0.662784 T T T Ti
0.887453 0.376710 0.646811 T T T Ti
0.387335 0.893314 0.649123 T T T Ti
0.888972 0.884427 0.665199 T T T Ti
0.112546 0.123289 0.646811 T T T Ti
0.610140 0.120299 0.662784 T T T Ti
0.111027 0.615570 0.665200 T T T Ti
0.612664 0.606684 0.649124 T T T Ti
0.146028 0.372142 0.568855 T T T Ti
0.635074 0.341565 0.571804 T T T Ti
0.131661 0.856050 0.580484 T T T Ti
0.665316 0.885441 0.578354 T T T Ti
0.364926 0.158434 0.571804 T T T Ti
0.853971 0.127858 0.568855 T T T Ti
0.334684 0.614558 0.578354 T T T Ti
0.868339 0.643950 0.580484 T T T Ti
0.408998 0.404169 0.483255 T T T Ti
0.896750 0.376433 0.488204 T T T Ti
0.329139 -0.070369 0.484583 T T T Ti
0.908237 0.880739 0.487666 T T T Ti
0.103250 0.123567 0.488204 T T T Ti
0.591002 0.095831 0.483255 T T T Ti
0.091763 0.619261 0.487667 T T T Ti
0.670861 0.570368 0.484583 T T T Ti
0.125290 0.874973 0.737579 F F F Ti
0.625116 0.874970 0.737594 F F F Ti
0.374878 0.625018 0.737595 F F F Ti
0.874705 0.625016 0.737582 F F F Ti
0.124877 0.374860 0.737626 F F F Ti
0.625048 0.374829 0.737640 F F F Ti
0.374946 0.125156 0.737638 F F F Ti
0.875117 0.125127 0.737623 F F F Ti
0.500000 0.750000 0.503110 T T T Nb

0.000000 0.000000 0.000000
0.000000 0.000000 0.000000
0.000000 0.000000 0.000000
0.000000 0.000000 0.000000
0.000000 0.000000 0.000000
0.000000 0.000000 0.000000
0.000000 0.000000 0.000000
0.000000 0.000000 0.000000
0.000000 0.000000 0.000000
0.000000 0.000000 0.000000
0.000000 0.000000 0.000000
0.000000 0.000000 0.000000
0.000000 0.000000 0.000000
0.000000 0.000000 0.000000
0.000000 0.000000 0.000000
0.000000 0.000000 0.000000
0.000000 0.000000 0.000000
0.000000 0.000000 0.000000
0.000000 0.000000 0.000000
0.000000 0.000000 0.000000
0.000000 0.000000 0.000000
0.000000 0.000000 0.000000
0.000000 0.000000 0.000000
0.000000 0.000000 0.000000
0.000000 0.000000 0.000000
0.000000 0.000000 0.000000
0.000000 0.000000 0.000000
0.000000 0.000000 0.000000
0.000000 0.000000 0.000000
0.000000 0.000000 0.000000
0.000000 0.000000 0.000000
0.000000 0.000000 0.000000
0.000000 0.000000 0.000000
0.000000 0.000000 0.000000
0.000000 0.000000 0.000000
0.000000 0.000000 0.000000
0.000000 0.000000 0.000000
0.000000 0.000000 0.000000
0.000000 0.000000 0.000000
0.000000 0.000000 0.000000
0.000000 0.000000 0.000000
0.000000 0.000000 0.000000
0.000000 0.000000 0.000000
0.000000 0.000000 0.000000
0.000000 0.000000 0.000000
0.000000 0.000000 0.000000
0.000000 0.000000 0.000000
0.000000 0.000000 0.000000
0.000000 0.000000 0.000000
0.000000 0.000000 0.000000
0.000000 0.000000 0.000000
0.000000 0.000000 0.000000
0.000000 0.000000 0.000000
0.000000 0.000000 0.000000
0.000000 0.000000 0.000000
0.000000 0.000000 0.000000
0.000000 0.000000 0.000000
0.000000 0.000000 0.000000
0.000000 0.000000 0.000000
0.000000 0.000000 0.000000
0.000000 0.000000 0.000000
0.000000 0.000000 0.000000
0.000000 0.000000 0.000000
0.000000 0.000000 0.000000
0.000000 0.000000 0.000000
0.000000 0.000000 0.000000
0.000000 0.000000 0.000000
0.000000 0.000000 0.000000
0.000000 0.000000 0.000000
0.000000 0.000000 0.000000
0.000000 0.000000 0.000000
0.000000 0.000000 0.000000
0.000000 0.000000 0.000000
0.000000 0.000000 0.000000
0.000000 0.000000 0.000000
0.000000 0.000000 0.000000
0.000000 0.000000 0.000000
0.000000 0.000000 0.000000
0.000000 0.000000 0.000000
0.000000 0.000000 0.000000
0.000000 0.000000 0.000000
0.000000 0.000000 0.000000
0.000000 0.000000 0.000000
0.000000 0.000000 0.000000
0.000000 0.000000 0.000000
0.000000 0.000000 0.000000
0.000000 0.000000 0.000000
0.000000 0.000000 0.000000
0.000000 0.000000 0.000000
0.000000 0.000000 0.000000
0.000000 0.000000 0.000000
0.000000 0.000000 0.000000
0.000000 0.000000 0.000000
0.000000 0.000000 0.000000
0.000000 0.000000 0.000000
0.000000 0.000000 0.000000
0.000000 0.000000 0.000000
