Ti96 Sn1
1.0
9.513020 0.000000 0.000000
0.000000 9.350860 0.000000
0.000000 0.000000 18.547230
Ti Sn
96 1
Selective dynamics
direct
0.151327 0.385215 0.404515 T T T Ti
0.646232 0.328166 0.411914 T T T Ti
0.120030 0.849398 0.415365 T T T Ti
0.671114 0.869757 0.408813 T T T Ti
0.148501 0.363390 0.239693 T T T Ti
0.658639 0.370181 0.235362 T T T Ti
0.162540 0.867833 0.233187 T T T Ti
0.679359 0.899822 0.231082 T T T Ti
0.166717 0.375110 0.077370 F F F Ti
0.666704 0.374970 0.077339 F F F Ti
0.166705 0.875040 0.077454 F F F Ti
0.666573 0.874913 0.077462 F F F Ti
0.412500 0.384717 0.320436 T T T Ti
0.898409 0.369838 0.325408 T T T Ti
0.335209 0.938638 0.340625 T T T Ti
0.917243 0.881823 0.313381 T T T Ti
0.416764 0.375091 0.154900 F F F Ti
0.916787 0.374797 0.154815 F F F Ti
0.416553 0.875135 0.155245 F F F Ti
0.916759 0.875000 0.154827 F F F Ti
0.416672 0.375043 -0.000186 F F F Ti
0.916652 0.374989 -0.000242 F F F Ti
0.416654 0.874978 -0.000084 F F F Ti
0.916655 0.874979 -0.000210 F F F Ti
0.101591 0.130164 0.325406 T T T Ti
0.587499 0.115285 0.320435 T T T Ti
0.082757 0.618181 0.313380 T T T Ti
0.664791 0.561364 0.340625 T T T Ti
0.083211 0.125239 0.154812 F F F Ti
0.583236 0.124942 0.154900 F F F Ti
0.083241 0.625034 0.154827 F F F Ti
0.583449 0.624879 0.155246 F F F Ti
0.083349 0.125022 -0.000243 F F F Ti
0.583331 0.124971 -0.000186 F F F Ti
0.083346 0.625030 -0.000210 F F F Ti
0.583349 0.625022 -0.000084 F F F Ti
0.353767 0.171835 0.411913 T T T Ti
0.848672 0.114786 0.404515 T T T Ti
0.328885 0.630244 0.408813 T T T Ti
0.879969 0.650602 0.415365 T T T Ti
0.341360 0.129826 0.235361 T T T Ti
0.851498 0.136618 0.239693 T T T Ti
0.320639 0.600186 0.231083 T T T Ti
0.837460 0.632176 0.233187 T T T Ti
0.333296 0.125055 0.077339 F F F Ti
0.833282 0.124916 0.077370 F F F Ti
0.333426 0.625108 0.077461 F F F Ti
0.833295 0.624981 0.077454 F F F Ti
0.375051 0.375105 0.823773 F F F Ti
0.874933 0.374949 0.823751 F F F Ti
0.375050 0.874969 0.823668 F F F Ti
0.874931 0.874973 0.823789 F F F Ti
0.125064 0.125025 0.823750 F F F Ti
0.624960 0.124886 0.823773 F F F Ti
0.125075 0.625013 0.823789 F F F Ti
0.624951 0.625011 0.823668 F F F Ti
0.125046 0.375078 0.910025 F F F Ti
0.624997 0.375095 0.910066 F F F Ti
0.125107 0.874965 0.910060 F F F Ti
0.624941 0.874894 0.910129 F F F Ti
0.375008 0.124889 0.910069 F F F Ti
0.874962 0.124911 0.910025 F F F Ti
0.375062 0.625080 0.910128 F F F Ti
0.874899 0.625016 0.910061 F F F Ti
0.394375 0.387134 0.656443 T T T Ti
0.895976 0.381909 0.652765 T T T Ti
0.394921 0.888509 0.649486 T T T Ti
0.887812 0.887500 0.661457 T T T Ti
0.104023 0.118085 0.652765 T T T Ti
0.605622 0.112858 0.656443 T T T Ti
0.112185 0.612491 0.661458 T T T Ti
0.605078 0.611486 0.649487 T T T Ti
0.149517 0.363170 0.574299 T T T Ti
0.645981 0.352124 0.576019 T T T Ti
0.138175 0.863205 0.583169 T T T Ti
0.652442 0.861716 0.573997 T T T Ti
0.354018 0.147874 0.576019 T T T Ti
0.850482 0.136828 0.574299 T T T Ti
0.347557 0.638282 0.573997 T T T Ti
0.861825 0.636792 0.583170 T T T Ti
0.403532 0.401521 0.493946 T T T Ti
0.898386 0.373964 0.485136 T T T Ti
0.365185 0.906623 0.491943 T T T Ti
0.904278 0.894362 0.501866 T T T Ti
0.101614 0.126035 0.485136 T T T Ti
0.596468 0.098479 0.493947 T T T Ti
0.095722 0.605637 0.501866 T T T Ti
0.634814 0.593376 0.491943 T T T Ti
0.125070 0.875280 0.737631 F F F Ti
0.624677 0.874830 0.737521 F F F Ti
0.375316 0.625146 0.737513 F F F Ti
0.874920 0.624687 0.737637 F F F Ti
0.124771 0.374877 0.737589 F F F Ti
0.625085 0.374898 0.737579 F F F Ti
0.374906 0.125075 0.737579 F F F Ti
0.875221 0.125098 0.737584 F F F Ti
0.500000 0.750001 0.335726 T T T Sn

0.000000 0.000000 0.000000
0.000000 0.000000 0.000000
0.000000 0.000000 0.000000
0.000000 0.000000 0.000000
0.000000 0.000000 0.000000
0.000000 0.000000 0.000000
0.000000 0.000000 0.000000
0.000000 0.000000 0.000000
0.000000 0.000000 0.000000
0.000000 0.000000 0.000000
0.000000 0.000000 0.000000
0.000000 0.000000 0.000000
0.000000 0.000000 0.000000
0.000000 0.000000 0.000000
0.000000 0.000000 0.000000
0.000000 0.000000 0.000000
0.000000 0.000000 0.000000
0.000000 0.000000 0.000000
0.000000 0.000000 0.000000
0.000000 0.000000 0.000000
0.000000 0.000000 0.000000
0.000000 0.000000 0.000000
0.000000 0.000000 0.000000
0.000000 0.000000 0.000000
0.000000 0.000000 0.000000
0.000000 0.000000 0.000000
0.000000 0.000000 0.000000
0.000000 0.000000 0.000000
0.000000 0.000000 0.000000
0.000000 0.000000 0.000000
0.000000 0.000000 0.000000
0.000000 0.000000 0.000000
0.000000 0.000000 0.000000
0.000000 0.000000 0.000000
0.000000 0.000000 0.000000
0.000000 0.000000 0.000000
0.000000 0.000000 0.000000
0.000000 0.000000 0.000000
0.000000 0.000000 0.000000
0.000000 0.000000 0.000000
0.000000 0.000000 0.000000
0.000000 0.000000 0.000000
0.000000 0.000000 0.000000
0.000000 0.000000 0.000000
0.000000 0.000000 0.000000
0.000000 0.000000 0.000000
0.000000 0.000000 0.000000
0.000000 0.000000 0.000000
0.000000 0.000000 0.000000
0.000000 0.000000 0.000000
0.000000 0.000000 0.000000
0.000000 0.000000 0.000000
0.000000 0.000000 0.000000
0.000000 0.000000 0.000000
0.000000 0.000000 0.000000
0.000000 0.000000 0.000000
0.000000 0.000000 0.000000
0.000000 0.000000 0.000000
0.000000 0.000000 0.000000
0.000000 0.000000 0.000000
0.000000 0.000000 0.000000
0.000000 0.000000 0.000000
0.000000 0.000000 0.000000
0.000000 0.000000 0.000000
0.000000 0.000000 0.000000
0.000000 0.000000 0.000000
0.000000 0.000000 0.000000
0.000000 0.000000 0.000000
0.000000 0.000000 0.000000
0.000000 0.000000 0.000000
0.000000 0.000000 0.000000
0.000000 0.000000 0.000000
0.000000 0.000000 0.000000
0.000000 0.000000 0.000000
0.000000 0.000000 0.000000
0.000000 0.000000 0.000000
0.000000 0.000000 0.000000
0.000000 0.000000 0.000000
0.000000 0.000000 0.000000
0.000000 0.000000 0.000000
0.000000 0.000000 0.000000
0.000000 0.000000 0.000000
0.000000 0.000000 0.000000
0.000000 0.000000 0.000000
0.000000 0.000000 0.000000
0.000000 0.000000 0.000000
0.000000 0.000000 0.000000
0.000000 0.000000 0.000000
0.000000 0.000000 0.000000
0.000000 0.000000 0.000000
0.000000 0.000000 0.000000
0.000000 0.000000 0.000000
0.000000 0.000000 0.000000
0.000000 0.000000 0.000000
0.000000 0.000000 0.000000
0.000000 0.000000 0.000000
0.000000 0.000000 0.000000
