Ti66 Al1
1.0
6.309760 0.000000 0.000000
0.000000 9.464640 0.000000
0.000000 0.000000 18.918326
Ti Al
66 1
Selective dynamics
direct
0.627083 0.041582 0.500007 F F F Ti
0.125054 0.041813 0.658497 F F F Ti
0.625048 0.041687 0.658602 F F F Ti
0.125028 0.041694 0.817141 F F F Ti
0.625007 0.041685 0.817162 F F F Ti
0.125300 0.377732 0.500303 F F F Ti
0.625555 0.375283 0.500066 F F F Ti
0.125159 0.375254 0.658706 F F F Ti
0.625021 0.375262 0.658740 F F F Ti
0.125025 0.375025 0.817188 F F F Ti
0.625001 0.375020 0.817199 F F F Ti
0.125075 0.708200 0.499997 F F F Ti
0.625035 0.708078 0.500122 F F F Ti
0.125109 0.708499 0.658632 F F F Ti
0.624945 0.708509 0.658684 F F F Ti
0.125018 0.708396 0.817178 F F F Ti
0.624993 0.708405 0.817189 F F F Ti
0.375796 0.208869 0.579472 F F F Ti
0.874282 0.209223 0.579755 F F F Ti
0.375036 0.208360 0.737890 F F F Ti
0.875034 0.208378 0.737930 F F F Ti
0.374989 0.208314 0.896423 F F F Ti
0.875031 0.208318 0.896427 F F F Ti
0.375477 0.542051 0.579474 F F F Ti
0.874752 0.542093 0.579508 F F F Ti
0.375044 0.541788 0.737950 F F F Ti
0.875017 0.541792 0.737959 F F F Ti
0.375004 0.541662 0.896437 F F F Ti
0.875014 0.541663 0.896438 F F F Ti
0.375176 0.875156 0.579207 F F F Ti
0.874945 0.874799 0.579402 F F F Ti
0.374969 0.875099 0.737856 F F F Ti
0.875059 0.875077 0.737888 F F F Ti
0.374985 0.875036 0.896413 F F F Ti
0.875032 0.875034 0.896417 F F F Ti
0.125230 0.624642 0.356623 F F F Ti
0.624931 0.624272 0.356555 F F F Ti
0.125040 0.624940 0.118857 F F F Ti
0.625002 0.624933 0.118839 F F F Ti
0.626451 0.124886 0.356731 F F F Ti
0.125072 0.124977 0.118928 F F F Ti
0.624997 0.124990 0.118911 F F F Ti
0.125015 0.374968 0.039626 F F F Ti
0.624991 0.374971 0.039621 F F F Ti
0.125027 0.875002 0.039599 F F F Ti
0.625002 0.875005 0.039593 F F F Ti
0.125062 0.374852 0.277518 F F F Ti
0.625093 0.374818 0.277410 F F F Ti
0.125116 0.874675 0.277381 F F F Ti
0.625089 0.874854 0.277098 F F F Ti
0.374977 0.874978 0.158482 F F F Ti
0.875096 0.874951 0.158459 F F F Ti
0.374992 0.374894 0.158553 F F F Ti
0.875060 0.374922 0.158526 F F F Ti
0.375816 0.375758 0.396421 F F F Ti
0.874372 0.376277 0.396371 F F F Ti
0.378308 0.872482 0.395893 F F F Ti
0.871173 0.871450 0.395693 F F F Ti
0.375065 0.624814 0.237707 F F F Ti
0.875020 0.624781 0.237691 F F F Ti
0.374997 0.624993 -0.000028 F F F Ti
0.875007 0.624993 -0.000027 F F F Ti
0.375013 0.124906 0.237936 F F F Ti
0.875212 0.124912 0.237810 F F F Ti
0.375002 0.124998 -0.000014 F F F Ti
0.875018 0.124997 -0.000013 F F F Ti
0.118650 0.078084 0.454832 T T T Al

0.000000 0.000000 0.000000
0.000000 0.000000 0.000000
0.000000 0.000000 0.000000
0.000000 0.000000 0.000000
0.000000 0.000000 0.000000
0.000000 0.000000 0.000000
0.000000 0.000000 0.000000
0.000000 0.000000 0.000000
0.000000 0.000000 0.000000
0.000000 0.000000 0.000000
0.000000 0.000000 0.000000
0.000000 0.000000 0.000000
0.000000 0.000000 0.000000
0.000000 0.000000 0.000000
0.000000 0.000000 0.000000
0.000000 0.000000 0.000000
0.000000 0.000000 0.000000
0.000000 0.000000 0.000000
0.000000 0.000000 0.000000
0.000000 0.000000 0.000000
0.000000 0.000000 0.000000
0.000000 0.000000 0.000000
0.000000 0.000000 0.000000
0.000000 0.000000 0.000000
0.000000 0.000000 0.000000
0.000000 0.000000 0.000000
0.000000 0.000000 0.000000
0.000000 0.000000 0.000000
0.000000 0.000000 0.000000
0.000000 0.000000 0.000000
0.000000 0.000000 0.000000
0.000000 0.000000 0.000000
0.000000 0.000000 0.000000
0.000000 0.000000 0.000000
0.000000 0.000000 0.000000
0.000000 0.000000 0.000000
0.000000 0.000000 0.000000
0.000000 0.000000 0.000000
0.000000 0.000000 0.000000
0.000000 0.000000 0.000000
0.000000 0.000000 0.000000
0.000000 0.000000 0.000000
0.000000 0.000000 0.000000
0.000000 0.000000 0.000000
0.000000 0.000000 0.000000
0.000000 0.000000 0.000000
0.000000 0.000000 0.000000
0.000000 0.000000 0.000000
0.000000 0.000000 0.000000
0.000000 0.000000 0.000000
0.000000 0.000000 0.000000
0.000000 0.000000 0.000000
0.000000 0.000000 0.000000
0.000000 0.000000 0.000000
0.000000 0.000000 0.000000
0.000000 0.000000 0.000000
0.000000 0.000000 0.000000
0.000000 0.000000 0.000000
0.000000 0.000000 0.000000
0.000000 0.000000 0.000000
0.000000 0.000000 0.000000
0.000000 0.000000 0.000000
0.000000 0.000000 0.000000
0.000000 0.000000 0.000000
0.000000 0.000000 0.000000
0.000000 0.000000 0.000000
0.000000 0.000000 0.000000
