Ti66 Sn1
1.0
6.309760 0.000000 0.000000
0.000000 9.464640 0.000000
0.000000 0.000000 18.918326
Ti Sn
66 1
Selective dynamics
direct
0.119675 0.038942 0.498125 F F F Ti
0.625980 0.040554 0.499591 F F F Ti
0.630943 0.039549 0.659625 F F F Ti
0.125000 0.041664 0.817253 F F F Ti
0.625490 0.041446 0.817482 F F F Ti
0.123481 0.375625 0.499747 F F F Ti
0.624135 0.375012 0.499988 F F F Ti
0.121668 0.378073 0.659482 F F F Ti
0.625662 0.375720 0.659014 F F F Ti
0.124744 0.375302 0.817464 F F F Ti
0.625439 0.375376 0.817523 F F F Ti
0.124657 0.707721 0.499840 F F F Ti
0.625149 0.707717 0.499796 F F F Ti
0.124896 0.708399 0.658637 F F F Ti
0.625207 0.707991 0.658729 F F F Ti
0.125075 0.708438 0.817296 F F F Ti
0.624997 0.708450 0.817348 F F F Ti
0.869862 0.208977 0.579021 F F F Ti
0.376539 0.209205 0.739429 F F F Ti
0.874920 0.208624 0.738164 F F F Ti
0.375015 0.208387 0.896668 F F F Ti
0.875007 0.208348 0.896575 F F F Ti
0.374767 0.541604 0.579362 F F F Ti
0.874210 0.542019 0.579239 F F F Ti
0.375122 0.542083 0.738123 F F F Ti
0.874444 0.542243 0.738223 F F F Ti
0.375004 0.541796 0.896580 F F F Ti
0.874975 0.541803 0.896606 F F F Ti
0.376125 0.872322 0.578955 F F F Ti
0.874827 0.874299 0.579217 F F F Ti
0.375226 0.874881 0.737986 F F F Ti
0.875931 0.874674 0.738080 F F F Ti
0.374976 0.874996 0.896542 F F F Ti
0.875127 0.874969 0.896561 F F F Ti
0.125000 0.624741 0.356758 F F F Ti
0.624716 0.624718 0.356745 F F F Ti
0.125007 0.624969 0.118970 F F F Ti
0.624961 0.624968 0.118969 F F F Ti
0.124870 0.125003 0.356510 F F F Ti
0.624818 0.124946 0.356666 F F F Ti
0.124987 0.124992 0.118964 F F F Ti
0.624959 0.124993 0.118961 F F F Ti
0.124971 0.375010 0.039694 F F F Ti
0.624995 0.375017 0.039704 F F F Ti
0.124985 0.874986 0.039675 F F F Ti
0.624999 0.874976 0.039683 F F F Ti
0.124943 0.374989 0.277459 F F F Ti
0.624875 0.374968 0.277457 F F F Ti
0.124966 0.874880 0.277400 F F F Ti
0.624882 0.874901 0.277387 F F F Ti
0.374996 0.874959 0.158553 F F F Ti
0.874964 0.874958 0.158548 F F F Ti
0.374996 0.374991 0.158575 F F F Ti
0.874990 0.374998 0.158569 F F F Ti
0.374771 0.374820 0.396428 F F F Ti
0.874452 0.374989 0.396304 F F F Ti
0.375115 0.874617 0.396221 F F F Ti
0.874348 0.874358 0.396068 F F F Ti
0.374980 0.624916 0.237855 F F F Ti
0.874964 0.624918 0.237845 F F F Ti
0.374993 0.625023 0.000079 F F F Ti
0.874997 0.625024 0.000090 F F F Ti
0.375009 0.124977 0.237814 F F F Ti
0.874884 0.124982 0.237791 F F F Ti
0.374990 0.124951 0.000110 F F F Ti
0.874974 0.124979 0.000079 F F F Ti
0.305329 0.161702 0.601002 T T T Sn

0.000000 0.000000 0.000000
0.000000 0.000000 0.000000
0.000000 0.000000 0.000000
0.000000 0.000000 0.000000
0.000000 0.000000 0.000000
0.000000 0.000000 0.000000
0.000000 0.000000 0.000000
0.000000 0.000000 0.000000
0.000000 0.000000 0.000000
0.000000 0.000000 0.000000
0.000000 0.000000 0.000000
0.000000 0.000000 0.000000
0.000000 0.000000 0.000000
0.000000 0.000000 0.000000
0.000000 0.000000 0.000000
0.000000 0.000000 0.000000
0.000000 0.000000 0.000000
0.000000 0.000000 0.000000
0.000000 0.000000 0.000000
0.000000 0.000000 0.000000
0.000000 0.000000 0.000000
0.000000 0.000000 0.000000
0.000000 0.000000 0.000000
0.000000 0.000000 0.000000
0.000000 0.000000 0.000000
0.000000 0.000000 0.000000
0.000000 0.000000 0.000000
0.000000 0.000000 0.000000
0.000000 0.000000 0.000000
0.000000 0.000000 0.000000
0.000000 0.000000 0.000000
0.000000 0.000000 0.000000
0.000000 0.000000 0.000000
0.000000 0.000000 0.000000
0.000000 0.000000 0.000000
0.000000 0.000000 0.000000
0.000000 0.000000 0.000000
0.000000 0.000000 0.000000
0.000000 0.000000 0.000000
0.000000 0.000000 0.000000
0.000000 0.000000 0.000000
0.000000 0.000000 0.000000
0.000000 0.000000 0.000000
0.000000 0.000000 0.000000
0.000000 0.000000 0.000000
0.000000 0.000000 0.000000
0.000000 0.000000 0.000000
0.000000 0.000000 0.000000
0.000000 0.000000 0.000000
0.000000 0.000000 0.000000
0.000000 0.000000 0.000000
0.000000 0.000000 0.000000
0.000000 0.000000 0.000000
0.000000 0.000000 0.000000
0.000000 0.000000 0.000000
0.000000 0.000000 0.000000
0.000000 0.000000 0.000000
0.000000 0.000000 0.000000
0.000000 0.000000 0.000000
0.000000 0.000000 0.000000
0.000000 0.000000 0.000000
0.000000 0.000000 0.000000
0.000000 0.000000 0.000000
0.000000 0.000000 0.000000
0.000000 0.000000 0.000000
0.000000 0.000000 0.000000
0.000000 0.000000 0.000000
