Ti96 Al1
1.0
9.513020 0.000000 0.000000
0.000000 9.350860 0.000000
0.000000 0.000000 18.547230
Ti Al
96 1
Selective dynamics
direct
0.149286 0.379271 0.405358 T T T Ti
0.647270 0.333925 0.411762 T T T Ti
0.126032 0.853529 0.399999 T T T Ti
0.679532 0.878494 0.389151 T T T Ti
0.154134 0.367040 0.236897 T T T Ti
0.660609 0.373559 0.234329 T T T Ti
0.166530 0.870950 0.235421 T T T Ti
0.661043 0.884132 0.235653 T T T Ti
0.166560 0.374967 0.077511 F F F Ti
0.666714 0.374985 0.077460 F F F Ti
0.166819 0.874956 0.077564 F F F Ti
0.666675 0.875076 0.077502 F F F Ti
0.406642 0.376538 0.316520 T T T Ti
0.895346 0.373033 0.324712 T T T Ti
0.383117 0.913247 0.335225 T T T Ti
0.916385 0.883889 0.308862 T T T Ti
0.416636 0.374618 0.155041 F F F Ti
0.916492 0.374965 0.155041 F F F Ti
0.416663 0.874803 0.155386 F F F Ti
0.917016 0.875260 0.154994 F F F Ti
0.416660 0.375003 -0.000122 F F F Ti
0.916623 0.374998 -0.000148 F F F Ti
0.416702 0.874969 -0.000034 F F F Ti
0.916693 0.875003 -0.000149 F F F Ti
0.104655 0.126969 0.324711 T T T Ti
0.593358 0.123463 0.316518 T T T Ti
0.083614 0.616112 0.308861 T T T Ti
0.616883 0.586754 0.335224 T T T Ti
0.083510 0.125050 0.155041 F F F Ti
0.583368 0.125403 0.155037 F F F Ti
0.082981 0.624761 0.154996 F F F Ti
0.583338 0.625203 0.155383 F F F Ti
0.083380 0.125004 -0.000149 F F F Ti
0.583340 0.125005 -0.000121 F F F Ti
0.083305 0.625006 -0.000149 F F F Ti
0.583300 0.625035 -0.000035 F F F Ti
0.352729 0.166075 0.411762 T T T Ti
0.850713 0.120729 0.405358 T T T Ti
0.320467 0.621507 0.389151 T T T Ti
0.873967 0.646471 0.399999 T T T Ti
0.339391 0.126444 0.234329 T T T Ti
0.845865 0.132963 0.236897 T T T Ti
0.338956 0.615872 0.235654 T T T Ti
0.833469 0.629054 0.235421 T T T Ti
0.333286 0.125026 0.077461 F F F Ti
0.833441 0.125044 0.077511 F F F Ti
0.333323 0.624939 0.077502 F F F Ti
0.833181 0.625056 0.077562 F F F Ti
0.375025 0.375114 0.823776 F F F Ti
0.874937 0.375055 0.823874 F F F Ti
0.375088 0.874861 0.823708 F F F Ti
0.874977 0.874969 0.823668 F F F Ti
0.125073 0.124936 0.823875 F F F Ti
0.624974 0.124880 0.823778 F F F Ti
0.125027 0.625024 0.823669 F F F Ti
0.624925 0.625140 0.823707 F F F Ti
0.125060 0.375118 0.910021 F F F Ti
0.624945 0.375120 0.910005 F F F Ti
0.125100 0.874902 0.909987 F F F Ti
0.624937 0.874937 0.909952 F F F Ti
0.375065 0.124879 0.910006 F F F Ti
0.874947 0.124883 0.910023 F F F Ti
0.375070 0.625064 0.909953 F F F Ti
0.874902 0.625098 0.909986 F F F Ti
0.393751 0.385155 0.659979 T T T Ti
0.893321 0.373880 0.648034 T T T Ti
0.393432 0.891863 0.644725 T T T Ti
0.885992 0.884921 0.667194 T T T Ti
0.106676 0.126114 0.648034 T T T Ti
0.606246 0.114840 0.659978 T T T Ti
0.114006 0.615072 0.667195 T T T Ti
0.606566 0.608131 0.644725 T T T Ti
0.154020 0.376229 0.570667 T T T Ti
0.639443 0.340689 0.572150 T T T Ti
0.127830 0.859571 0.585106 T T T Ti
0.657320 0.865585 0.579478 T T T Ti
0.360556 0.159309 0.572149 T T T Ti
0.845980 0.123769 0.570667 T T T Ti
0.342680 0.634413 0.579479 T T T Ti
0.872169 0.640427 0.585105 T T T Ti
0.411610 0.417761 0.488086 T T T Ti
0.904272 0.371901 0.487994 T T T Ti
0.327525 0.923192 0.492878 T T T Ti
0.906188 0.883850 0.492874 T T T Ti
0.095727 0.128098 0.487994 T T T Ti
0.588389 0.082239 0.488086 T T T Ti
0.093812 0.616149 0.492874 T T T Ti
0.672474 0.576807 0.492878 T T T Ti
0.125001 0.874741 0.737618 F F F Ti
0.625226 0.875111 0.737448 F F F Ti
0.374769 0.624876 0.737451 F F F Ti
0.874984 0.625236 0.737613 F F F Ti
0.125081 0.375141 0.737707 F F F Ti
0.624846 0.374977 0.737710 F F F Ti
0.375140 0.124988 0.737708 F F F Ti
0.874905 0.124828 0.737712 F F F Ti
0.500000 0.750000 0.431735 T T T Al

0.000000 0.000000 0.000000
0.000000 0.000000 0.000000
0.000000 0.000000 0.000000
0.000000 0.000000 0.000000
0.000000 0.000000 0.000000
0.000000 0.000000 0.000000
0.000000 0.000000 0.000000
0.000000 0.000000 0.000000
0.000000 0.000000 0.000000
0.000000 0.000000 0.000000
0.000000 0.000000 0.000000
0.000000 0.000000 0.000000
0.000000 0.000000 0.000000
0.000000 0.000000 0.000000
0.000000 0.000000 0.000000
0.000000 0.000000 0.000000
0.000000 0.000000 0.000000
0.000000 0.000000 0.000000
0.000000 0.000000 0.000000
0.000000 0.000000 0.000000
0.000000 0.000000 0.000000
0.000000 0.000000 0.000000
0.000000 0.000000 0.000000
0.000000 0.000000 0.000000
0.000000 0.000000 0.000000
0.000000 0.000000 0.000000
0.000000 0.000000 0.000000
0.000000 0.000000 0.000000
0.000000 0.000000 0.000000
0.000000 0.000000 0.000000
0.000000 0.000000 0.000000
0.000000 0.000000 0.000000
0.000000 0.000000 0.000000
0.000000 0.000000 0.000000
0.000000 0.000000 0.000000
0.000000 0.000000 0.000000
0.000000 0.000000 0.000000
0.000000 0.000000 0.000000
0.000000 0.000000 0.000000
0.000000 0.000000 0.000000
0.000000 0.000000 0.000000
0.000000 0.000000 0.000000
0.000000 0.000000 0.000000
0.000000 0.000000 0.000000
0.000000 0.000000 0.000000
0.000000 0.000000 0.000000
0.000000 0.000000 0.000000
0.000000 0.000000 0.000000
0.000000 0.000000 0.000000
0.000000 0.000000 0.000000
0.000000 0.000000 0.000000
0.000000 0.000000 0.000000
0.000000 0.000000 0.000000
0.000000 0.000000 0.000000
0.000000 0.000000 0.000000
0.000000 0.000000 0.000000
0.000000 0.000000 0.000000
0.000000 0.000000 0.000000
0.000000 0.000000 0.000000
0.000000 0.000000 0.000000
0.000000 0.000000 0.000000
0.000000 0.000000 0.000000
0.000000 0.000000 0.000000
0.000000 0.000000 0.000000
0.000000 0.000000 0.000000
0.000000 0.000000 0.000000
0.000000 0.000000 0.000000
0.000000 0.000000 0.000000
0.000000 0.000000 0.000000
0.000000 0.000000 0.000000
0.000000 0.000000 0.000000
0.000000 0.000000 0.000000
0.000000 0.000000 0.000000
0.000000 0.000000 0.000000
0.000000 0.000000 0.000000
0.000000 0.000000 0.000000
0.000000 0.000000 0.000000
0.000000 0.000000 0.000000
0.000000 0.000000 0.000000
0.000000 0.000000 0.000000
0.000000 0.000000 0.000000
0.000000 0.000000 0.000000
0.000000 0.000000 0.000000
0.000000 0.000000 0.000000
0.000000 0.000000 0.000000
0.000000 0.000000 0.000000
0.000000 0.000000 0.000000
0.000000 0.000000 0.000000
0.000000 0.000000 0.000000
0.000000 0.000000 0.000000
0.000000 0.000000 0.000000
0.000000 0.000000 0.000000
0.000000 0.000000 0.000000
0.000000 0.000000 0.000000
0.000000 0.000000 0.000000
0.000000 0.000000 0.000000
0.000000 0.000000 0.000000
