alpha_Ti
1.0
8.805261 0.000000 0.000000
-4.402631 7.625580 0.000000
0.000000 0.000000 23.383422
Ti
54
direct
0.166666 0.944444 -0.000000 Ti
0.166666 0.944444 0.392981 Ti
0.166666 0.611111 -0.000000 Ti
0.277778 0.833333 0.098245 Ti
0.166666 0.611111 0.392981 Ti
0.500000 0.944444 -0.000000 Ti
0.166666 0.277778 -0.000000 Ti
0.277778 0.833333 0.491226 Ti
0.277778 0.500000 0.098245 Ti
0.500000 0.944444 0.392981 Ti
0.166666 0.277778 0.392981 Ti
0.500000 0.611111 -0.000000 Ti
0.277778 0.500000 0.491226 Ti
0.611111 0.833333 0.098245 Ti
0.277778 0.166667 0.098245 Ti
0.500000 0.611111 0.392981 Ti
0.833333 0.944444 -0.000000 Ti
0.500000 0.277778 -0.000000 Ti
0.611111 0.833333 0.491226 Ti
0.277778 0.166667 0.491226 Ti
0.611111 0.500000 0.098245 Ti
0.833333 0.944444 0.392981 Ti
0.500000 0.277778 0.392981 Ti
0.833333 0.611111 -0.000000 Ti
0.611111 0.500000 0.491226 Ti
0.944444 0.833333 0.098245 Ti
0.611111 0.166667 0.098245 Ti
0.833333 0.611111 0.392981 Ti
0.833333 0.277778 -0.000000 Ti
0.944444 0.833333 0.491226 Ti
0.611111 0.166667 0.491226 Ti
0.944444 0.500000 0.098245 Ti
0.833333 0.277778 0.392981 Ti
0.944444 0.500000 0.491226 Ti
0.944444 0.166667 0.098245 Ti
0.944444 0.166667 0.491226 Ti
0.166666 0.944444 0.196490 Ti
0.166666 0.611111 0.196490 Ti
0.277778 0.833333 0.294736 Ti
0.500000 0.944444 0.196490 Ti
0.166666 0.277778 0.196490 Ti
0.277778 0.500000 0.294736 Ti
0.500000 0.611111 0.196490 Ti
0.611111 0.833333 0.294736 Ti
0.277778 0.166667 0.294736 Ti
0.833333 0.944444 0.196490 Ti
0.500000 0.277778 0.196490 Ti
0.611111 0.500000 0.294736 Ti
0.833333 0.611111 0.196490 Ti
0.944444 0.833333 0.294736 Ti
0.611111 0.166667 0.294736 Ti
0.833333 0.277778 0.196490 Ti
0.944444 0.500000 0.294736 Ti
0.944444 0.166667 0.294736 Ti
