Ti66 Cr1
1.0
6.309760 0.000000 0.000000
0.000000 9.464640 0.000000
0.000000 0.000000 18.918326
Ti Cr
66 1
Selective dynamics
direct
0.625758 0.062280 0.479210 T T T Ti
0.125049 0.047780 0.656067 T T T Ti
0.625034 0.046934 0.643118 T T T Ti
0.125005 0.041657 0.817180 F F F Ti
0.625004 0.041656 0.817175 F F F Ti
0.125126 0.404785 0.476323 T T T Ti
0.625319 0.366221 0.475905 T T T Ti
0.125020 0.379980 0.646050 T T T Ti
0.624978 0.353263 0.648758 T T T Ti
0.124996 0.375003 0.817202 F F F Ti
0.624993 0.374997 0.817198 F F F Ti
0.125106 0.700539 0.496097 T T T Ti
0.625044 0.728109 0.488599 T T T Ti
0.125019 0.713734 0.647357 T T T Ti
0.624977 0.724684 0.645690 T T T Ti
0.124993 0.708320 0.817169 F F F Ti
0.624995 0.708318 0.817174 F F F Ti
0.341925 0.205623 0.550288 T T T Ti
0.908120 0.205715 0.550355 T T T Ti
0.374963 0.208217 0.737962 F F F Ti
0.875043 0.208218 0.737965 F F F Ti
0.375002 0.208316 0.896446 F F F Ti
0.874997 0.208316 0.896447 F F F Ti
0.406768 0.533319 0.569409 T T T Ti
0.843270 0.533340 0.569415 T T T Ti
0.375002 0.541671 0.737931 F F F Ti
0.874999 0.541672 0.737931 F F F Ti
0.375004 0.541670 0.896447 F F F Ti
0.874993 0.541670 0.896447 F F F Ti
0.347499 0.902959 0.554483 T T T Ti
0.902520 0.902867 0.554531 T T T Ti
0.374993 0.874958 0.737906 F F F Ti
0.875013 0.874956 0.737908 F F F Ti
0.375004 0.874986 0.896438 F F F Ti
0.874996 0.874986 0.896439 F F F Ti
0.125139 0.618126 0.367117 T T T Ti
0.624864 0.577612 0.371006 T T T Ti
0.125015 0.625012 0.118871 F F F Ti
0.625010 0.624995 0.118860 F F F Ti
0.625397 0.061769 0.343186 T T T Ti
0.125004 0.124987 0.118857 F F F Ti
0.625002 0.124981 0.118847 F F F Ti
0.125000 0.375003 0.039608 F F F Ti
0.624999 0.375001 0.039604 F F F Ti
0.125003 0.874993 0.039612 F F F Ti
0.625001 0.874992 0.039614 F F F Ti
0.124989 0.383639 0.281943 T T T Ti
0.624949 0.356263 0.283241 T T T Ti
0.125117 0.882345 0.282939 T T T Ti
0.624779 0.826939 0.282065 T T T Ti
0.374933 0.874982 0.158483 F F F Ti
0.875064 0.874976 0.158488 F F F Ti
0.375024 0.375014 0.158458 F F F Ti
0.874982 0.375020 0.158457 F F F Ti
0.345722 0.238837 0.387566 T T T Ti
0.904231 0.239031 0.387510 T T T Ti
0.356983 0.871734 0.401861 T T T Ti
0.892925 0.871514 0.401814 T T T Ti
0.367187 0.618941 0.246031 T T T Ti
0.882799 0.618954 0.246038 T T T Ti
0.375002 0.625007 -0.000018 F F F Ti
0.874996 0.625007 -0.000017 F F F Ti
0.361427 0.128109 0.244786 T T T Ti
0.888615 0.128113 0.244762 T T T Ti
0.375005 0.124989 -0.000017 F F F Ti
0.874993 0.124989 -0.000017 F F F Ti
0.123318 0.061708 0.448337 T T T Cr

0.000000 0.000000 0.000000
0.000000 0.000000 0.000000
0.000000 0.000000 0.000000
0.000000 0.000000 0.000000
0.000000 0.000000 0.000000
0.000000 0.000000 0.000000
0.000000 0.000000 0.000000
0.000000 0.000000 0.000000
0.000000 0.000000 0.000000
0.000000 0.000000 0.000000
0.000000 0.000000 0.000000
0.000000 0.000000 0.000000
0.000000 0.000000 0.000000
0.000000 0.000000 0.000000
0.000000 0.000000 0.000000
0.000000 0.000000 0.000000
0.000000 0.000000 0.000000
0.000000 0.000000 0.000000
0.000000 0.000000 0.000000
0.000000 0.000000 0.000000
0.000000 0.000000 0.000000
0.000000 0.000000 0.000000
0.000000 0.000000 0.000000
0.000000 0.000000 0.000000
0.000000 0.000000 0.000000
0.000000 0.000000 0.000000
0.000000 0.000000 0.000000
0.000000 0.000000 0.000000
0.000000 0.000000 0.000000
0.000000 0.000000 0.000000
0.000000 0.000000 0.000000
0.000000 0.000000 0.000000
0.000000 0.000000 0.000000
0.000000 0.000000 0.000000
0.000000 0.000000 0.000000
0.000000 0.000000 0.000000
0.000000 0.000000 0.000000
0.000000 0.000000 0.000000
0.000000 0.000000 0.000000
0.000000 0.000000 0.000000
0.000000 0.000000 0.000000
0.000000 0.000000 0.000000
0.000000 0.000000 0.000000
0.000000 0.000000 0.000000
0.000000 0.000000 0.000000
0.000000 0.000000 0.000000
0.000000 0.000000 0.000000
0.000000 0.000000 0.000000
0.000000 0.000000 0.000000
0.000000 0.000000 0.000000
0.000000 0.000000 0.000000
0.000000 0.000000 0.000000
0.000000 0.000000 0.000000
0.000000 0.000000 0.000000
0.000000 0.000000 0.000000
0.000000 0.000000 0.000000
0.000000 0.000000 0.000000
0.000000 0.000000 0.000000
0.000000 0.000000 0.000000
0.000000 0.000000 0.000000
0.000000 0.000000 0.000000
0.000000 0.000000 0.000000
0.000000 0.000000 0.000000
0.000000 0.000000 0.000000
0.000000 0.000000 0.000000
0.000000 0.000000 0.000000
0.000000 0.000000 0.000000
