Ti96 Mo1
1.0
9.513020 0.000000 0.000000
0.000000 9.350860 0.000000
0.000000 0.000000 18.547230
Ti Mo
96 1
Selective dynamics
direct
0.147318 0.376549 0.408082 T T T Ti
0.660036 0.352348 0.420554 T T T Ti
0.153822 0.862231 0.411147 T T T Ti
0.657551 0.876263 0.402682 T T T Ti
0.145154 0.364987 0.240116 T T T Ti
0.662129 0.365816 0.231115 T T T Ti
0.166794 0.863355 0.238663 T T T Ti
0.677904 0.903141 0.242444 T T T Ti
0.166626 0.375058 0.077404 F F F Ti
0.666737 0.374977 0.077428 F F F Ti
0.166719 0.875049 0.077513 F F F Ti
0.666569 0.874902 0.077556 F F F Ti
0.396946 0.358449 0.324437 T T T Ti
0.893954 0.375296 0.326310 T T T Ti
0.381112 0.942579 0.334426 T T T Ti
0.919424 0.879871 0.321209 T T T Ti
0.416898 0.374930 0.154976 F F F Ti
0.916725 0.374801 0.154993 F F F Ti
0.416453 0.875120 0.155458 F F F Ti
0.917104 0.874985 0.154945 F F F Ti
0.416692 0.375042 -0.000136 F F F Ti
0.916633 0.374996 -0.000174 F F F Ti
0.416672 0.874966 -0.000014 F F F Ti
0.916662 0.874982 -0.000153 F F F Ti
0.106046 0.124705 0.326309 T T T Ti
0.603054 0.141552 0.324435 T T T Ti
0.080576 0.620131 0.321208 T T T Ti
0.618888 0.557422 0.334425 T T T Ti
0.083273 0.125221 0.154990 F F F Ti
0.583102 0.125094 0.154974 F F F Ti
0.082894 0.625038 0.154945 F F F Ti
0.583549 0.624880 0.155459 F F F Ti
0.083368 0.125008 -0.000175 F F F Ti
0.583308 0.124967 -0.000136 F F F Ti
0.083337 0.625023 -0.000152 F F F Ti
0.583330 0.625027 -0.000014 F F F Ti
0.339963 0.147652 0.420553 T T T Ti
0.852681 0.123451 0.408082 T T T Ti
0.342448 0.623738 0.402682 T T T Ti
0.846177 0.637769 0.411147 T T T Ti
0.337871 0.134187 0.231114 T T T Ti
0.854845 0.135017 0.240116 T T T Ti
0.322094 0.596863 0.242444 T T T Ti
0.833205 0.636650 0.238663 T T T Ti
0.333263 0.125038 0.077428 F F F Ti
0.833373 0.124958 0.077404 F F F Ti
0.333429 0.625108 0.077555 F F F Ti
0.833281 0.624963 0.077514 F F F Ti
0.375034 0.375064 0.823761 F F F Ti
0.874933 0.375028 0.823741 F F F Ti
0.375036 0.874964 0.823797 F F F Ti
0.874913 0.874969 0.823785 F F F Ti
0.125068 0.124961 0.823741 F F F Ti
0.624970 0.124929 0.823762 F F F Ti
0.125090 0.625017 0.823786 F F F Ti
0.624966 0.625020 0.823797 F F F Ti
0.124993 0.375013 0.909996 F F F Ti
0.625004 0.375010 0.910024 F F F Ti
0.125028 0.874990 0.910023 F F F Ti
0.624967 0.874963 0.910062 F F F Ti
0.374997 0.124983 0.910025 F F F Ti
0.875009 0.124980 0.909995 F F F Ti
0.375033 0.625020 0.910063 F F F Ti
0.874972 0.624998 0.910024 F F F Ti
0.395447 0.387325 0.654282 T T T Ti
0.900942 0.379892 0.653117 T T T Ti
0.398478 0.879170 0.652764 T T T Ti
0.894488 0.883225 0.654280 T T T Ti
0.099058 0.120105 0.653117 T T T Ti
0.604552 0.112672 0.654283 T T T Ti
0.105511 0.616772 0.654280 T T T Ti
0.601522 0.620828 0.652764 T T T Ti
0.153050 0.368624 0.570432 T T T Ti
0.650441 0.363964 0.579790 T T T Ti
0.149615 0.868923 0.576529 T T T Ti
0.655227 0.865807 0.569162 T T T Ti
0.349558 0.136035 0.579790 T T T Ti
0.846950 0.131375 0.570432 T T T Ti
0.344772 0.634193 0.569161 T T T Ti
0.850385 0.631076 0.576529 T T T Ti
0.405846 0.386153 0.492881 T T T Ti
0.904225 0.381364 0.491090 T T T Ti
0.396675 0.890374 0.495898 T T T Ti
0.907815 0.878448 0.491659 T T T Ti
0.095775 0.118636 0.491090 T T T Ti
0.594154 0.113847 0.492881 T T T Ti
0.092185 0.621552 0.491659 T T T Ti
0.603325 0.609625 0.495898 T T T Ti
0.124979 0.875001 0.737488 F F F Ti
0.624925 0.874904 0.737439 F F F Ti
0.375072 0.625083 0.737436 F F F Ti
0.875017 0.624984 0.737488 F F F Ti
0.124956 0.374960 0.737475 F F F Ti
0.624989 0.375005 0.737465 F F F Ti
0.375008 0.124984 0.737466 F F F Ti
0.875042 0.125029 0.737475 F F F Ti
0.500000 0.750001 0.300656 T T T Mo

0.000000 0.000000 0.000000
0.000000 0.000000 0.000000
0.000000 0.000000 0.000000
0.000000 0.000000 0.000000
0.000000 0.000000 0.000000
0.000000 0.000000 0.000000
0.000000 0.000000 0.000000
0.000000 0.000000 0.000000
0.000000 0.000000 0.000000
0.000000 0.000000 0.000000
0.000000 0.000000 0.000000
0.000000 0.000000 0.000000
0.000000 0.000000 0.000000
0.000000 0.000000 0.000000
0.000000 0.000000 0.000000
0.000000 0.000000 0.000000
0.000000 0.000000 0.000000
0.000000 0.000000 0.000000
0.000000 0.000000 0.000000
0.000000 0.000000 0.000000
0.000000 0.000000 0.000000
0.000000 0.000000 0.000000
0.000000 0.000000 0.000000
0.000000 0.000000 0.000000
0.000000 0.000000 0.000000
0.000000 0.000000 0.000000
0.000000 0.000000 0.000000
0.000000 0.000000 0.000000
0.000000 0.000000 0.000000
0.000000 0.000000 0.000000
0.000000 0.000000 0.000000
0.000000 0.000000 0.000000
0.000000 0.000000 0.000000
0.000000 0.000000 0.000000
0.000000 0.000000 0.000000
0.000000 0.000000 0.000000
0.000000 0.000000 0.000000
0.000000 0.000000 0.000000
0.000000 0.000000 0.000000
0.000000 0.000000 0.000000
0.000000 0.000000 0.000000
0.000000 0.000000 0.000000
0.000000 0.000000 0.000000
0.000000 0.000000 0.000000
0.000000 0.000000 0.000000
0.000000 0.000000 0.000000
0.000000 0.000000 0.000000
0.000000 0.000000 0.000000
0.000000 0.000000 0.000000
0.000000 0.000000 0.000000
0.000000 0.000000 0.000000
0.000000 0.000000 0.000000
0.000000 0.000000 0.000000
0.000000 0.000000 0.000000
0.000000 0.000000 0.000000
0.000000 0.000000 0.000000
0.000000 0.000000 0.000000
0.000000 0.000000 0.000000
0.000000 0.000000 0.000000
0.000000 0.000000 0.000000
0.000000 0.000000 0.000000
0.000000 0.000000 0.000000
0.000000 0.000000 0.000000
0.000000 0.000000 0.000000
0.000000 0.000000 0.000000
0.000000 0.000000 0.000000
0.000000 0.000000 0.000000
0.000000 0.000000 0.000000
0.000000 0.000000 0.000000
0.000000 0.000000 0.000000
0.000000 0.000000 0.000000
0.000000 0.000000 0.000000
0.000000 0.000000 0.000000
0.000000 0.000000 0.000000
0.000000 0.000000 0.000000
0.000000 0.000000 0.000000
0.000000 0.000000 0.000000
0.000000 0.000000 0.000000
0.000000 0.000000 0.000000
0.000000 0.000000 0.000000
0.000000 0.000000 0.000000
0.000000 0.000000 0.000000
0.000000 0.000000 0.000000
0.000000 0.000000 0.000000
0.000000 0.000000 0.000000
0.000000 0.000000 0.000000
0.000000 0.000000 0.000000
0.000000 0.000000 0.000000
0.000000 0.000000 0.000000
0.000000 0.000000 0.000000
0.000000 0.000000 0.000000
0.000000 0.000000 0.000000
0.000000 0.000000 0.000000
0.000000 0.000000 0.000000
0.000000 0.000000 0.000000
0.000000 0.000000 0.000000
0.000000 0.000000 0.000000
