Ti96 Al1
1.0
9.513020 0.000000 0.000000
0.000000 9.350860 0.000000
0.000000 0.000000 18.547230
Ti Al
96 1
Selective dynamics
direct
0.149990 0.380890 0.405373 T T T Ti
0.650027 0.333972 0.414940 T T T Ti
0.125844 0.854106 0.405496 T T T Ti
0.681299 0.878245 0.395816 T T T Ti
0.149951 0.364898 0.238516 T T T Ti
0.660083 0.371381 0.234183 T T T Ti
0.167411 0.869083 0.235389 T T T Ti
0.667941 0.892901 0.234801 T T T Ti
0.166614 0.375068 0.077397 F F F Ti
0.666731 0.374996 0.077349 F F F Ti
0.166643 0.875004 0.077513 F F F Ti
0.666572 0.874963 0.077548 F F F Ti
0.406315 0.375391 0.319355 T T T Ti
0.895442 0.372870 0.326176 T T T Ti
0.367321 0.930223 0.336995 T T T Ti
0.916692 0.882050 0.310537 T T T Ti
0.416755 0.375012 0.154877 F F F Ti
0.916738 0.374817 0.154846 F F F Ti
0.416594 0.874921 0.155425 F F F Ti
0.916797 0.875169 0.154860 F F F Ti
0.416661 0.375050 -0.000139 F F F Ti
0.916634 0.374992 -0.000201 F F F Ti
0.416655 0.874957 0.000013 F F F Ti
0.916640 0.874991 -0.000161 F F F Ti
0.104558 0.127132 0.326174 T T T Ti
0.593685 0.124610 0.319353 T T T Ti
0.083308 0.617953 0.310536 T T T Ti
0.632679 0.569779 0.336994 T T T Ti
0.083261 0.125217 0.154843 F F F Ti
0.583246 0.125023 0.154877 F F F Ti
0.083202 0.624864 0.154862 F F F Ti
0.583408 0.625087 0.155424 F F F Ti
0.083368 0.125017 -0.000202 F F F Ti
0.583340 0.124965 -0.000138 F F F Ti
0.083360 0.625017 -0.000161 F F F Ti
0.583347 0.625040 0.000012 F F F Ti
0.349972 0.166029 0.414940 T T T Ti
0.850009 0.119111 0.405373 T T T Ti
0.318700 0.621756 0.395816 T T T Ti
0.874155 0.645895 0.405496 T T T Ti
0.339917 0.128625 0.234183 T T T Ti
0.850048 0.135109 0.238516 T T T Ti
0.332057 0.607105 0.234802 T T T Ti
0.832588 0.630925 0.235389 T T T Ti
0.333269 0.125029 0.077350 F F F Ti
0.833386 0.124957 0.077397 F F F Ti
0.333426 0.625056 0.077547 F F F Ti
0.833357 0.625017 0.077513 F F F Ti
0.375064 0.375126 0.823802 F F F Ti
0.874911 0.375009 0.823846 F F F Ti
0.375095 0.874913 0.823705 F F F Ti
0.874910 0.874953 0.823774 F F F Ti
0.125088 0.124968 0.823846 F F F Ti
0.624940 0.124864 0.823803 F F F Ti
0.125092 0.625030 0.823774 F F F Ti
0.624909 0.625074 0.823705 F F F Ti
0.125089 0.375117 0.910119 F F F Ti
0.624967 0.375136 0.910165 F F F Ti
0.125151 0.874917 0.910172 F F F Ti
0.624925 0.874881 0.910254 F F F Ti
0.375040 0.124848 0.910168 F F F Ti
0.874917 0.124872 0.910120 F F F Ti
0.375078 0.625089 0.910253 F F F Ti
0.874853 0.625061 0.910172 F F F Ti
0.394216 0.385198 0.659149 T T T Ti
0.894870 0.375330 0.649679 T T T Ti
0.395072 0.889836 0.646768 T T T Ti
0.888561 0.884880 0.663956 T T T Ti
0.105128 0.124665 0.649679 T T T Ti
0.605783 0.114796 0.659149 T T T Ti
0.111437 0.615113 0.663957 T T T Ti
0.604928 0.610159 0.646769 T T T Ti
0.154731 0.372442 0.571280 T T T Ti
0.641262 0.346192 0.573335 T T T Ti
0.134272 0.862599 0.583359 T T T Ti
0.655856 0.865123 0.578229 T T T Ti
0.358737 0.153806 0.573335 T T T Ti
0.845269 0.127557 0.571280 T T T Ti
0.344144 0.634875 0.578229 T T T Ti
0.865728 0.637399 0.583359 T T T Ti
0.409576 0.412878 0.488979 T T T Ti
0.904001 0.373658 0.488433 T T T Ti
0.349419 0.909638 0.493264 T T T Ti
0.905681 0.884589 0.495714 T T T Ti
0.095999 0.126342 0.488433 T T T Ti
0.590424 0.087122 0.488979 T T T Ti
0.094319 0.615411 0.495714 T T T Ti
0.650581 0.590362 0.493264 T T T Ti
0.125077 0.875065 0.737677 F F F Ti
0.624922 0.874961 0.737503 F F F Ti
0.375075 0.625023 0.737500 F F F Ti
0.874914 0.624907 0.737679 F F F Ti
0.124969 0.374944 0.737685 F F F Ti
0.624960 0.374955 0.737661 F F F Ti
0.375031 0.125020 0.737660 F F F Ti
0.875024 0.125031 0.737685 F F F Ti
0.500000 0.750000 0.379810 T T T Al

0.000000 0.000000 0.000000
0.000000 0.000000 0.000000
0.000000 0.000000 0.000000
0.000000 0.000000 0.000000
0.000000 0.000000 0.000000
0.000000 0.000000 0.000000
0.000000 0.000000 0.000000
0.000000 0.000000 0.000000
0.000000 0.000000 0.000000
0.000000 0.000000 0.000000
0.000000 0.000000 0.000000
0.000000 0.000000 0.000000
0.000000 0.000000 0.000000
0.000000 0.000000 0.000000
0.000000 0.000000 0.000000
0.000000 0.000000 0.000000
0.000000 0.000000 0.000000
0.000000 0.000000 0.000000
0.000000 0.000000 0.000000
0.000000 0.000000 0.000000
0.000000 0.000000 0.000000
0.000000 0.000000 0.000000
0.000000 0.000000 0.000000
0.000000 0.000000 0.000000
0.000000 0.000000 0.000000
0.000000 0.000000 0.000000
0.000000 0.000000 0.000000
0.000000 0.000000 0.000000
0.000000 0.000000 0.000000
0.000000 0.000000 0.000000
0.000000 0.000000 0.000000
0.000000 0.000000 0.000000
0.000000 0.000000 0.000000
0.000000 0.000000 0.000000
0.000000 0.000000 0.000000
0.000000 0.000000 0.000000
0.000000 0.000000 0.000000
0.000000 0.000000 0.000000
0.000000 0.000000 0.000000
0.000000 0.000000 0.000000
0.000000 0.000000 0.000000
0.000000 0.000000 0.000000
0.000000 0.000000 0.000000
0.000000 0.000000 0.000000
0.000000 0.000000 0.000000
0.000000 0.000000 0.000000
0.000000 0.000000 0.000000
0.000000 0.000000 0.000000
0.000000 0.000000 0.000000
0.000000 0.000000 0.000000
0.000000 0.000000 0.000000
0.000000 0.000000 0.000000
0.000000 0.000000 0.000000
0.000000 0.000000 0.000000
0.000000 0.000000 0.000000
0.000000 0.000000 0.000000
0.000000 0.000000 0.000000
0.000000 0.000000 0.000000
0.000000 0.000000 0.000000
0.000000 0.000000 0.000000
0.000000 0.000000 0.000000
0.000000 0.000000 0.000000
0.000000 0.000000 0.000000
0.000000 0.000000 0.000000
0.000000 0.000000 0.000000
0.000000 0.000000 0.000000
0.000000 0.000000 0.000000
0.000000 0.000000 0.000000
0.000000 0.000000 0.000000
0.000000 0.000000 0.000000
0.000000 0.000000 0.000000
0.000000 0.000000 0.000000
0.000000 0.000000 0.000000
0.000000 0.000000 0.000000
0.000000 0.000000 0.000000
0.000000 0.000000 0.000000
0.000000 0.000000 0.000000
0.000000 0.000000 0.000000
0.000000 0.000000 0.000000
0.000000 0.000000 0.000000
0.000000 0.000000 0.000000
0.000000 0.000000 0.000000
0.000000 0.000000 0.000000
0.000000 0.000000 0.000000
0.000000 0.000000 0.000000
0.000000 0.000000 0.000000
0.000000 0.000000 0.000000
0.000000 0.000000 0.000000
0.000000 0.000000 0.000000
0.000000 0.000000 0.000000
0.000000 0.000000 0.000000
0.000000 0.000000 0.000000
0.000000 0.000000 0.000000
0.000000 0.000000 0.000000
0.000000 0.000000 0.000000
0.000000 0.000000 0.000000
0.000000 0.000000 0.000000
