beta_Ti
1.0
5.745590 0.000000 0.000000
0.000000 9.072750 0.000000
0.000000 0.000000 35.667173
Ti
28
direct
0.458333 0.625000 0.575010 Ti
0.458333 0.125000 0.575010 Ti
0.958333 0.625000 0.575010 Ti
0.958333 0.125000 0.575010 Ti
0.125000 0.625000 0.649443 Ti
0.125000 0.125000 0.649443 Ti
0.625000 0.625000 0.649443 Ti
0.625000 0.125000 0.649443 Ti
0.291667 0.625000 0.723877 Ti
0.291667 0.125000 0.723877 Ti
0.791667 0.625000 0.723877 Ti
0.791667 0.125000 0.723877 Ti
0.125000 0.875000 0.537793 Ti
0.125000 0.375000 0.537793 Ti
0.625000 0.875000 0.537793 Ti
0.625000 0.375000 0.537793 Ti
0.291667 0.875000 0.612227 Ti
0.291667 0.375000 0.612227 Ti
0.791667 0.875000 0.612227 Ti
0.791667 0.375000 0.612227 Ti
0.458333 0.875000 0.686660 Ti
0.458333 0.375000 0.686660 Ti
0.958333 0.875000 0.686660 Ti
0.958333 0.375000 0.686660 Ti
0.125000 0.875000 0.761094 Ti
0.125000 0.375000 0.761094 Ti
0.625000 0.875000 0.761094 Ti
0.625000 0.375000 0.761094 Ti
