total_Ti
1.0
5.745590 0.000000 0.000000
0.000000 9.072750 0.000000
0.000000 0.000000 35.667173
Ti
64
direct
0.041667 0.875000 0.261671 Ti
0.041667 0.375000 0.261671 Ti
0.541667 0.875000 0.261671 Ti
0.541667 0.375000 0.261671 Ti
0.291667 0.625000 0.285460 Ti
0.291667 0.125000 0.285460 Ti
0.791667 0.625000 0.285460 Ti
0.791667 0.125000 0.285460 Ti
0.291667 0.875000 0.190306 Ti
0.291667 0.375000 0.190306 Ti
0.791667 0.875000 0.190306 Ti
0.791667 0.375000 0.190306 Ti
0.041667 0.625000 0.214095 Ti
0.041667 0.125000 0.214095 Ti
0.541667 0.625000 0.214095 Ti
0.541667 0.125000 0.214095 Ti
0.041667 0.875000 0.118941 Ti
0.041667 0.375000 0.118941 Ti
0.541667 0.875000 0.118941 Ti
0.541667 0.375000 0.118941 Ti
0.291667 0.625000 0.142730 Ti
0.291667 0.125000 0.142730 Ti
0.791667 0.625000 0.142730 Ti
0.791667 0.125000 0.142730 Ti
0.291667 0.875000 0.047576 Ti
0.291667 0.375000 0.047576 Ti
0.791667 0.875000 0.047576 Ti
0.791667 0.375000 0.047576 Ti
0.041667 0.625000 0.071365 Ti
0.041667 0.125000 0.071365 Ti
0.541667 0.625000 0.071365 Ti
0.541667 0.125000 0.071365 Ti
0.458333 0.625000 0.575010 Ti
0.458333 0.125000 0.575010 Ti
0.958333 0.625000 0.575010 Ti
0.958333 0.125000 0.575010 Ti
0.125000 0.625000 0.649443 Ti
0.125000 0.125000 0.649443 Ti
0.625000 0.625000 0.649443 Ti
0.625000 0.125000 0.649443 Ti
0.291667 0.625000 0.723877 Ti
0.291667 0.125000 0.723877 Ti
0.791667 0.625000 0.723877 Ti
0.791667 0.125000 0.723877 Ti
0.125000 0.875000 0.537793 Ti
0.125000 0.375000 0.537793 Ti
0.625000 0.875000 0.537793 Ti
0.625000 0.375000 0.537793 Ti
0.291667 0.875000 0.612227 Ti
0.291667 0.375000 0.612227 Ti
0.791667 0.875000 0.612227 Ti
0.791667 0.375000 0.612227 Ti
0.458333 0.875000 0.686660 Ti
0.458333 0.375000 0.686660 Ti
0.958333 0.875000 0.686660 Ti
0.958333 0.375000 0.686660 Ti
0.125000 0.875000 0.761094 Ti
0.125000 0.375000 0.761094 Ti
0.625000 0.875000 0.761094 Ti
0.625000 0.375000 0.761094 Ti
0.791667 0.125000 0.000000 Ti
0.291667 0.125000 0.000000 Ti
0.791667 0.625000 -0.000000 Ti
0.291667 0.625000 -0.000000 Ti
