total_Ti
1.0
8.805261 0.000000 0.000000
-4.402631 7.625580 0.000000
0.000000 0.000000 22.883422
Ti
90
direct
0.967272 0.027818 0.589359 Ti
0.967272 0.527818 0.589359 Ti
0.467272 0.027818 0.589359 Ti
0.467272 0.527818 0.589359 Ti
0.133938 0.361151 0.872195 Ti
0.133938 0.861151 0.872195 Ti
0.633938 0.361151 0.872195 Ti
0.633938 0.861151 0.872195 Ti
0.300605 0.194485 0.912600 Ti
0.300605 0.694485 0.912600 Ti
0.800605 0.194485 0.912600 Ti
0.800605 0.694485 0.912600 Ti
0.133938 0.361151 0.629764 Ti
0.133938 0.861151 0.629764 Ti
0.633938 0.361151 0.629764 Ti
0.633938 0.861151 0.629764 Ti
0.300605 0.194485 0.670169 Ti
0.300605 0.694485 0.670169 Ti
0.800605 0.194485 0.670169 Ti
0.800605 0.694485 0.670169 Ti
0.967272 0.027818 0.710574 Ti
0.967272 0.527818 0.710574 Ti
0.467272 0.027818 0.710574 Ti
0.467272 0.527818 0.710574 Ti
0.133938 0.361151 0.750979 Ti
0.133938 0.861151 0.750979 Ti
0.633938 0.361151 0.750979 Ti
0.633938 0.861151 0.750979 Ti
0.300605 0.194485 0.791384 Ti
0.300605 0.694485 0.791384 Ti
0.800605 0.194485 0.791384 Ti
0.800605 0.694485 0.791384 Ti
0.967272 0.027818 0.831790 Ti
0.967272 0.527818 0.831790 Ti
0.467272 0.027818 0.831790 Ti
0.467272 0.527818 0.831790 Ti
0.111111 0.888889 -0.000000 Ti
0.111111 0.888889 0.401568 Ti
0.111111 0.555556 -0.000000 Ti
0.222222 0.777778 0.100392 Ti
0.111111 0.555556 0.401568 Ti
0.444444 0.888889 -0.000000 Ti
0.111111 0.222222 -0.000000 Ti
0.222222 0.777778 0.501959 Ti
0.222222 0.444444 0.100392 Ti
0.444444 0.888889 0.401568 Ti
0.111111 0.222222 0.401568 Ti
0.444444 0.555556 -0.000000 Ti
0.222222 0.444444 0.501959 Ti
0.555556 0.777778 0.100392 Ti
0.222222 0.111111 0.100392 Ti
0.444444 0.555556 0.401568 Ti
0.777778 0.888889 -0.000000 Ti
0.444444 0.222222 -0.000000 Ti
0.555556 0.777778 0.501959 Ti
0.222222 0.111111 0.501959 Ti
0.555556 0.444444 0.100392 Ti
0.777778 0.888889 0.401568 Ti
0.444444 0.222222 0.401568 Ti
0.777778 0.555556 -0.000000 Ti
0.555556 0.444444 0.501959 Ti
0.888889 0.777778 0.100392 Ti
0.555556 0.111111 0.100392 Ti
0.777778 0.555556 0.401568 Ti
0.777778 0.222222 -0.000000 Ti
0.888889 0.777778 0.501959 Ti
0.555556 0.111111 0.501959 Ti
0.888889 0.444444 0.100392 Ti
0.777778 0.222222 0.401568 Ti
0.888889 0.444444 0.501959 Ti
0.888889 0.111111 0.100392 Ti
0.888889 0.111111 0.501959 Ti
0.111111 0.888889 0.200784 Ti
0.111111 0.555556 0.200784 Ti
0.222222 0.777778 0.301176 Ti
0.444444 0.888889 0.200784 Ti
0.111111 0.222222 0.200784 Ti
0.222222 0.444444 0.301176 Ti
0.444444 0.555556 0.200784 Ti
0.555556 0.777778 0.301176 Ti
0.222222 0.111111 0.301176 Ti
0.777778 0.888889 0.200784 Ti
0.444444 0.222222 0.200784 Ti
0.555556 0.444444 0.301176 Ti
0.777778 0.555556 0.200784 Ti
0.888889 0.777778 0.301176 Ti
0.555556 0.111111 0.301176 Ti
0.777778 0.222222 0.200784 Ti
0.888889 0.444444 0.301176 Ti
0.888889 0.111111 0.301176 Ti
