Ti66 Mo1
1.0
6.309760 0.000000 0.000000
0.000000 9.464640 0.000000
0.000000 0.000000 18.918326
Ti Mo
66 1
Selective dynamics
direct
0.108296 0.034600 0.498529 F F F Ti
0.640804 0.033551 0.497915 F F F Ti
0.123608 0.042365 0.658138 F F F Ti
0.624849 0.042024 0.658609 F F F Ti
0.125037 0.042326 0.816974 F F F Ti
0.624709 0.042349 0.817057 F F F Ti
0.099418 0.386947 0.498765 F F F Ti
0.657829 0.394099 0.498060 F F F Ti
0.124102 0.376061 0.658083 F F F Ti
0.626166 0.377281 0.658971 F F F Ti
0.125116 0.375148 0.816909 F F F Ti
0.624774 0.375208 0.817103 F F F Ti
0.123613 0.709791 0.499787 F F F Ti
0.623143 0.710928 0.499770 F F F Ti
0.125927 0.709728 0.659196 F F F Ti
0.623037 0.709977 0.659415 F F F Ti
0.125192 0.708813 0.817364 F F F Ti
0.624602 0.708843 0.817411 F F F Ti
0.869094 0.209179 0.579215 F F F Ti
0.374691 0.209058 0.737098 F F F Ti
0.874765 0.208919 0.737666 F F F Ti
0.374916 0.208594 0.896122 F F F Ti
0.875072 0.208602 0.896245 F F F Ti
0.374573 0.544789 0.579085 F F F Ti
0.874684 0.547497 0.581587 F F F Ti
0.374707 0.542110 0.737917 F F F Ti
0.875286 0.542566 0.738456 F F F Ti
0.374946 0.541656 0.896312 F F F Ti
0.875014 0.541694 0.896415 F F F Ti
0.374165 0.875760 0.578978 F F F Ti
0.873530 0.873526 0.580387 F F F Ti
0.374461 0.876149 0.737927 F F F Ti
0.874764 0.875758 0.738216 F F F Ti
0.374964 0.875485 0.896364 F F F Ti
0.874995 0.875443 0.896425 F F F Ti
0.125252 0.624952 0.356195 F F F Ti
0.623569 0.625629 0.355814 F F F Ti
0.125098 0.624971 0.118559 F F F Ti
0.624782 0.624992 0.118530 F F F Ti
0.123589 0.124382 0.356084 F F F Ti
0.627631 0.123983 0.355331 F F F Ti
0.125179 0.124990 0.118561 F F F Ti
0.624776 0.124971 0.118510 F F F Ti
0.125105 0.374959 0.039483 F F F Ti
0.624792 0.374979 0.039470 F F F Ti
0.125061 0.875147 0.039436 F F F Ti
0.624771 0.875125 0.039421 F F F Ti
0.126156 0.374767 0.276969 F F F Ti
0.623857 0.375028 0.276583 F F F Ti
0.124818 0.874788 0.276826 F F F Ti
0.624540 0.874552 0.276586 F F F Ti
0.374878 0.874962 0.158133 F F F Ti
0.875029 0.874878 0.158038 F F F Ti
0.374941 0.374886 0.158185 F F F Ti
0.875168 0.374985 0.158119 F F F Ti
0.874193 0.375187 0.393126 F F F Ti
0.374170 0.874514 0.395658 F F F Ti
0.874163 0.872279 0.394859 F F F Ti
0.374686 0.624897 0.237322 F F F Ti
0.875052 0.624852 0.237171 F F F Ti
0.374915 0.624968 -0.000257 F F F Ti
0.874850 0.625021 -0.000188 F F F Ti
0.374886 0.124812 0.237481 F F F Ti
0.875100 0.124817 0.237020 F F F Ti
0.374960 0.125180 -0.000375 F F F Ti
0.874819 0.125135 -0.000291 F F F Ti
0.389360 0.235195 0.526040 T T T Mo

0.000000 0.000000 0.000000
0.000000 0.000000 0.000000
0.000000 0.000000 0.000000
0.000000 0.000000 0.000000
0.000000 0.000000 0.000000
0.000000 0.000000 0.000000
0.000000 0.000000 0.000000
0.000000 0.000000 0.000000
0.000000 0.000000 0.000000
0.000000 0.000000 0.000000
0.000000 0.000000 0.000000
0.000000 0.000000 0.000000
0.000000 0.000000 0.000000
0.000000 0.000000 0.000000
0.000000 0.000000 0.000000
0.000000 0.000000 0.000000
0.000000 0.000000 0.000000
0.000000 0.000000 0.000000
0.000000 0.000000 0.000000
0.000000 0.000000 0.000000
0.000000 0.000000 0.000000
0.000000 0.000000 0.000000
0.000000 0.000000 0.000000
0.000000 0.000000 0.000000
0.000000 0.000000 0.000000
0.000000 0.000000 0.000000
0.000000 0.000000 0.000000
0.000000 0.000000 0.000000
0.000000 0.000000 0.000000
0.000000 0.000000 0.000000
0.000000 0.000000 0.000000
0.000000 0.000000 0.000000
0.000000 0.000000 0.000000
0.000000 0.000000 0.000000
0.000000 0.000000 0.000000
0.000000 0.000000 0.000000
0.000000 0.000000 0.000000
0.000000 0.000000 0.000000
0.000000 0.000000 0.000000
0.000000 0.000000 0.000000
0.000000 0.000000 0.000000
0.000000 0.000000 0.000000
0.000000 0.000000 0.000000
0.000000 0.000000 0.000000
0.000000 0.000000 0.000000
0.000000 0.000000 0.000000
0.000000 0.000000 0.000000
0.000000 0.000000 0.000000
0.000000 0.000000 0.000000
0.000000 0.000000 0.000000
0.000000 0.000000 0.000000
0.000000 0.000000 0.000000
0.000000 0.000000 0.000000
0.000000 0.000000 0.000000
0.000000 0.000000 0.000000
0.000000 0.000000 0.000000
0.000000 0.000000 0.000000
0.000000 0.000000 0.000000
0.000000 0.000000 0.000000
0.000000 0.000000 0.000000
0.000000 0.000000 0.000000
0.000000 0.000000 0.000000
0.000000 0.000000 0.000000
0.000000 0.000000 0.000000
0.000000 0.000000 0.000000
0.000000 0.000000 0.000000
0.000000 0.000000 0.000000
