alpha_Ti
1.0
4.756510 0.000000 0.000000
0.000000 4.675430 0.000000
0.000000 0.000000 21.911761
Ti
12
direct
0.333333 0.750000 0.328800 Ti
0.333333 0.750000 0.197281 Ti
0.333333 0.750000 0.065760 Ti
0.833334 0.750000 0.263041 Ti
0.833334 0.750000 0.131520 Ti
0.833334 0.750000 -0.000000 Ti
0.166666 0.250000 0.263040 Ti
0.166666 0.250000 0.131520 Ti
0.166666 0.250000 -0.000000 Ti
0.666667 0.250000 0.328800 Ti
0.666667 0.250000 0.197281 Ti
0.666667 0.250000 0.065760 Ti
