beta_Ti
1.0
4.756510 0.000000 0.000000
0.000000 4.675430 0.000000
0.000000 0.000000 21.911761
Ti
12
direct
0.750000 0.750000 0.847117 Ti
0.250000 0.250000 0.847117 Ti
0.250000 0.750000 0.774031 Ti
0.750000 0.250000 0.774031 Ti
0.750000 0.750000 0.700944 Ti
0.250000 0.250000 0.700944 Ti
0.250000 0.750000 0.627859 Ti
0.750000 0.250000 0.627859 Ti
0.750000 0.750000 0.554772 Ti
0.250000 0.250000 0.554772 Ti
0.250000 0.750000 0.481686 Ti
0.750000 0.250000 0.481686 Ti
