alpha_Ti
1.0
6.309760 0.000000 0.000000
0.000000 9.464640 0.000000
0.000000 0.000000 32.000004
Ti
32
direct
0.125000 0.625000 0.210937 Ti
0.625000 0.625000 0.210937 Ti
0.125000 0.625000 0.070312 Ti
0.625000 0.625000 0.070312 Ti
0.125000 0.125000 0.210937 Ti
0.625000 0.125000 0.210937 Ti
0.125000 0.125000 0.070312 Ti
0.625000 0.125000 0.070312 Ti
0.125000 0.375000 0.023437 Ti
0.625000 0.375000 0.023437 Ti
0.125000 0.875000 0.023437 Ti
0.625000 0.875000 0.023437 Ti
0.125000 0.375000 0.164063 Ti
0.625000 0.375000 0.164063 Ti
0.125000 0.875000 0.164063 Ti
0.625000 0.875000 0.164063 Ti
0.375000 0.875000 0.093750 Ti
0.875000 0.875000 0.093750 Ti
0.374999 0.375000 0.093750 Ti
0.874999 0.375000 0.093750 Ti
0.375000 0.375000 0.234375 Ti
0.875000 0.375000 0.234375 Ti
0.375000 0.875000 0.234375 Ti
0.875000 0.875000 0.234375 Ti
0.375000 0.625000 0.140625 Ti
0.875000 0.625000 0.140625 Ti
0.375000 0.625000 -0.000000 Ti
0.875000 0.625000 -0.000000 Ti
0.375000 0.125000 0.140625 Ti
0.875000 0.125000 0.140625 Ti
0.375000 0.125000 -0.000000 Ti
0.875000 0.125000 -0.000000 Ti
