Zr1 Ti66
1.0
6.309760 0.000000 0.000000
0.000000 9.464640 0.000000
0.000000 0.000000 18.918326
Ti Zr
66 1
Selective dynamics
direct
0.126552 0.026306 0.504895 F F F Ti
0.628849 0.040474 0.500393 F F F Ti
0.125547 0.039586 0.659536 F F F Ti
0.625172 0.039938 0.659268 F F F Ti
0.125120 0.041072 0.817417 F F F Ti
0.625007 0.041118 0.817419 F F F Ti
0.629651 0.374189 0.501014 F F F Ti
0.125303 0.373552 0.658650 F F F Ti
0.625571 0.374091 0.659041 F F F Ti
0.125163 0.374479 0.817263 F F F Ti
0.625163 0.374534 0.817345 F F F Ti
0.125040 0.701944 0.499641 F F F Ti
0.623041 0.707203 0.500043 F F F Ti
0.125306 0.705948 0.658747 F F F Ti
0.624447 0.706188 0.659080 F F F Ti
0.125066 0.707621 0.817307 F F F Ti
0.624937 0.707624 0.817379 F F F Ti
0.377861 0.206026 0.580233 F F F Ti
0.873432 0.205690 0.581030 F F F Ti
0.375327 0.207555 0.738188 F F F Ti
0.875131 0.207492 0.738312 F F F Ti
0.375068 0.208079 0.896463 F F F Ti
0.875093 0.208065 0.896478 F F F Ti
0.375528 0.539314 0.579334 F F F Ti
0.874750 0.540259 0.579636 F F F Ti
0.375011 0.540528 0.738100 F F F Ti
0.875296 0.540649 0.738154 F F F Ti
0.375020 0.541273 0.896439 F F F Ti
0.875093 0.541292 0.896438 F F F Ti
0.377863 0.871290 0.580355 F F F Ti
0.872911 0.870713 0.580497 F F F Ti
0.375273 0.873704 0.738339 F F F Ti
0.874918 0.873631 0.738341 F F F Ti
0.375060 0.874760 0.896513 F F F Ti
0.874993 0.874758 0.896508 F F F Ti
0.126074 0.628030 0.355761 F F F Ti
0.624025 0.632589 0.355117 F F F Ti
0.125286 0.625944 0.118414 F F F Ti
0.625078 0.625956 0.118322 F F F Ti
0.630961 0.126648 0.356739 F F F Ti
0.125584 0.125609 0.118906 F F F Ti
0.625102 0.125559 0.118843 F F F Ti
0.125307 0.375198 0.039296 F F F Ti
0.625067 0.375177 0.039311 F F F Ti
0.125083 0.875510 0.039496 F F F Ti
0.624969 0.875544 0.039484 F F F Ti
0.125551 0.378232 0.276819 F F F Ti
0.625253 0.376879 0.274682 F F F Ti
0.125169 0.877210 0.277479 F F F Ti
0.625382 0.878087 0.277073 F F F Ti
0.375058 0.876340 0.158382 F F F Ti
0.875358 0.876260 0.158281 F F F Ti
0.374568 0.375788 0.157937 F F F Ti
0.876090 0.375896 0.157721 F F F Ti
0.398684 0.387955 0.393601 F F F Ti
0.844768 0.394170 0.392055 F F F Ti
0.375336 0.876548 0.396610 F F F Ti
0.875573 0.874808 0.396633 F F F Ti
0.375327 0.627223 0.236910 F F F Ti
0.875291 0.627398 0.236837 F F F Ti
0.375045 0.625295 -0.000202 F F F Ti
0.875059 0.625308 -0.000207 F F F Ti
0.374883 0.126689 0.238244 F F F Ti
0.876326 0.126610 0.237691 F F F Ti
0.375075 0.125051 -0.000013 F F F Ti
0.875149 0.125057 0.000008 F F F Ti
0.104953 0.245121 0.435140 T T T Zr

0.000000 0.000000 0.000000
0.000000 0.000000 0.000000
0.000000 0.000000 0.000000
0.000000 0.000000 0.000000
0.000000 0.000000 0.000000
0.000000 0.000000 0.000000
0.000000 0.000000 0.000000
0.000000 0.000000 0.000000
0.000000 0.000000 0.000000
0.000000 0.000000 0.000000
0.000000 0.000000 0.000000
0.000000 0.000000 0.000000
0.000000 0.000000 0.000000
0.000000 0.000000 0.000000
0.000000 0.000000 0.000000
0.000000 0.000000 0.000000
0.000000 0.000000 0.000000
0.000000 0.000000 0.000000
0.000000 0.000000 0.000000
0.000000 0.000000 0.000000
0.000000 0.000000 0.000000
0.000000 0.000000 0.000000
0.000000 0.000000 0.000000
0.000000 0.000000 0.000000
0.000000 0.000000 0.000000
0.000000 0.000000 0.000000
0.000000 0.000000 0.000000
0.000000 0.000000 0.000000
0.000000 0.000000 0.000000
0.000000 0.000000 0.000000
0.000000 0.000000 0.000000
0.000000 0.000000 0.000000
0.000000 0.000000 0.000000
0.000000 0.000000 0.000000
0.000000 0.000000 0.000000
0.000000 0.000000 0.000000
0.000000 0.000000 0.000000
0.000000 0.000000 0.000000
0.000000 0.000000 0.000000
0.000000 0.000000 0.000000
0.000000 0.000000 0.000000
0.000000 0.000000 0.000000
0.000000 0.000000 0.000000
0.000000 0.000000 0.000000
0.000000 0.000000 0.000000
0.000000 0.000000 0.000000
0.000000 0.000000 0.000000
0.000000 0.000000 0.000000
0.000000 0.000000 0.000000
0.000000 0.000000 0.000000
0.000000 0.000000 0.000000
0.000000 0.000000 0.000000
0.000000 0.000000 0.000000
0.000000 0.000000 0.000000
0.000000 0.000000 0.000000
0.000000 0.000000 0.000000
0.000000 0.000000 0.000000
0.000000 0.000000 0.000000
0.000000 0.000000 0.000000
0.000000 0.000000 0.000000
0.000000 0.000000 0.000000
0.000000 0.000000 0.000000
0.000000 0.000000 0.000000
0.000000 0.000000 0.000000
0.000000 0.000000 0.000000
0.000000 0.000000 0.000000
0.000000 0.000000 0.000000
