total_Ti
1.0
4.756510 0.000000 0.000000
0.000000 4.675430 0.000000
0.000000 0.000000 17.211761
Ti
24
direct
0.333333 0.750000 0.418585 Ti
0.333333 0.750000 0.251152 Ti
0.333333 0.750000 0.083717 Ti
0.833334 0.750000 0.334869 Ti
0.833334 0.750000 0.167435 Ti
0.833334 0.750000 -0.000000 Ti
0.166666 0.250000 0.334868 Ti
0.166666 0.250000 0.167435 Ti
0.166666 0.250000 -0.000000 Ti
0.666667 0.250000 0.418585 Ti
0.666667 0.250000 0.251152 Ti
0.666667 0.250000 0.083717 Ti
0.750000 0.750000 0.941904 Ti
0.250000 0.250000 0.941904 Ti
0.250000 0.750000 0.848860 Ti
0.750000 0.250000 0.848860 Ti
0.750000 0.750000 0.755816 Ti
0.250000 0.250000 0.755816 Ti
0.250000 0.750000 0.662773 Ti
0.750000 0.250000 0.662773 Ti
0.750000 0.750000 0.569728 Ti
0.250000 0.250000 0.569728 Ti
0.250000 0.750000 0.476685 Ti
0.750000 0.250000 0.476685 Ti
