total_structure
1.0
   3.5061499999999999    0.0000000000000000    0.0000000000000002
   0.0000000000000019   12.0001999999999995    0.0000000000000007
   0.0000000000000000    0.0000000000000000   26.2916049620000045
Cr Fe N
16 36 16
Selective dynamics
direct
   0.0000000000000000    0.0000000000000000    0.2390999268049933 F F F Cr
  -0.0000000000000000    0.2500000000000000    0.2390999268049933 F F F Cr
   0.5000000000000000    0.1250000000000000    0.1593965420162470 F F F Cr
   0.5000000000000000    0.3750000000000000    0.1593965420162469 F F F Cr
   0.0000000000000000    0.0000000000000000    0.0797033847887464 F F F Cr
  -0.0000000000000000    0.2500000000000000    0.0797033847887464 F F F Cr
   0.5000000000000000    0.1250000000000000   -0.0000000000000000 F F F Cr
   0.5000000000000000    0.3750000000000000   -0.0000000000000000 F F F Cr
  -0.0000000000000000    0.5000000000000000    0.2390999268049933 F F F Cr
  -0.0000000000000000    0.7500000000000000    0.2390999268049933 F F F Cr
   0.5000000000000000    0.6250000000000000    0.1593965420162470 F F F Cr
   0.4999999999999999    0.8749999999999999    0.1593965420162470 F F F Cr
  -0.0000000000000000    0.5000000000000000    0.0797033847887464 F F F Cr
  -0.0000000000000000    0.7500000000000000    0.0797033847887464 F F F Cr
   0.5000000000000000    0.6250000000000000   -0.0000000000000000 F F F Cr
   0.4999999999999999    0.8749999999999999   -0.0000000000000000 F F F Cr
   0.9933200000000000    0.7184400000000000    0.6196472248288605 F F F Fe
   0.4933200000000000    0.5543100000000000    0.6064434432604952 F F F Fe
   0.4933200000000000    0.7391600000000000    0.5660241212169783 F F F Fe
   0.9933200000000000    0.5750200000000000    0.5528203396486130 F F F Fe
   0.9933200000000001    0.3901700000000000    0.5932294341308839 F F F Fe
   0.4933200000000000    0.2260400000000000    0.5800256525625185 F F F Fe
   0.4933200000000000    0.4108899999999999    0.5396063305190018 F F F Fe
   0.9933200000000001    0.2467500000000000    0.5264025489506364 F F F Fe
   0.9933200000000000    0.0619000000000000    0.5668116434329072 F F F Fe
   0.4933200000000000    0.8977699999999998    0.5536078618645419 F F F Fe
   0.4933200000000000    0.0826200000000000    0.5131885398210252 F F F Fe
   0.9933200000000000    0.9184800000000000    0.4999847582526596 F F F Fe
   0.9933200000000000    0.7598700000000000    0.5124112451663421 F F F Fe
   0.4933200000000000    0.5957300000000000    0.4991972360367309 F F F Fe
   0.4933200000000000    0.7805800000000001    0.4587881415544600 F F F Fe
   0.9933200000000001    0.6164500000000001    0.4455741324248487 F F F Fe
   0.9933200000000001    0.4315999999999999    0.4859934544683654 F F F Fe
   0.4933200000000000    0.2674600000000000    0.4727794453387543 F F F Fe
   0.4933200000000000    0.4523100000000000    0.4323703508564834 F F F Fe
   0.9933200000000001    0.2881800000000000    0.4191563417268722 F F F Fe
   0.9933199999999999    0.1033300000000000    0.4595756637703889 F F F Fe
   0.4933200000000000    0.9391999999999999    0.4463616546407775 F F F Fe
   0.4933200000000000    0.1240400000000000    0.4059525601585068 F F F Fe
   0.9933200000000000    0.9599100000000000    0.3927385510288955 F F F Fe
   0.9933200000000000    0.8013000000000000    0.4051650379425779 F F F Fe
   0.4933200000000000    0.6371599999999998    0.3919612563742125 F F F Fe
   0.4933200000000000    0.8220099999999999    0.3515419343306958 F F F Fe
   0.9933200000000001    0.6578799999999999    0.3383381527623304 F F F Fe
   0.9933200000000001    0.4730300000000000    0.3787472472446012 F F F Fe
   0.4933200000000000    0.3088900000000000    0.3655434656762359 F F F Fe
   0.4933200000000000    0.4937400000000000    0.3251241436327191 F F F Fe
   0.9933200000000000    0.3296100000000000    0.3119203620643538 F F F Fe
   0.9933200000000001    0.1447600000000000    0.3523294565466246 F F F Fe
   0.4933200000000000    0.9806200000000000    0.3391256749782591 F F F Fe
   0.4933200000000000    0.1654700000000000    0.2987063529347425 F F F Fe
   0.9933200000000000    0.0013400000000000    0.2855025713663771 F F F Fe
   0.5000000000000000    0.1250000000000000    0.2390999268049933 F F F N
   0.5000000000000000    0.3750000000000000    0.2390999268049933 F F F N
   0.0000000000000000    0.0000000000000000    0.1593965420162470 F F F N
  -0.0000000000000000    0.2500000000000000    0.1593965420162470 F F F N
   0.5000000000000000    0.1250000000000000    0.0797033847887464 F F F N
   0.5000000000000000    0.3750000000000000    0.0797033847887464 F F F N
   0.0000000000000000    0.0000000000000000    0.0000000000000000 F F F N
  -0.0000000000000000    0.2500000000000000   -0.0000000000000000 F F F N
   0.5000000000000000    0.6250000000000000    0.2390999268049933 F F F N
   0.4999999999999999    0.8749999999999999    0.2390999268049933 F F F N
  -0.0000000000000000    0.5000000000000000    0.1593965420162469 F F F N
  -0.0000000000000000    0.7500000000000000    0.1593965420162470 F F F N
   0.5000000000000000    0.6250000000000000    0.0797033847887464 F F F N
   0.4999999999999999    0.8749999999999999    0.0797033847887464 F F F N
  -0.0000000000000000    0.5000000000000000   -0.0000000000000000 F F F N
  -0.0000000000000000    0.7500000000000000   -0.0000000000000000 F F F N
