Zr1 Ti82
1.0
6.391540 0.000000 0.000000
0.000000 9.587310 0.000000
0.000000 0.000000 23.271695
Ti Zr
82 1
Selective dynamics
direct
0.628224 0.082550 0.580409 F F F Ti
0.124281 0.082903 0.709957 F F F Ti
0.625097 0.083187 0.709569 F F F Ti
0.124980 0.083323 0.838455 F F F Ti
0.624963 0.083327 0.838429 F F F Ti
0.123770 0.418535 0.580404 F F F Ti
0.625089 0.416832 0.580519 F F F Ti
0.124869 0.416762 0.709532 F F F Ti
0.624767 0.416742 0.709526 F F F Ti
0.125000 0.416673 0.838417 F F F Ti
0.624966 0.416679 0.838417 F F F Ti
0.124987 0.750071 0.580571 F F F Ti
0.625156 0.749828 0.580538 F F F Ti
0.124925 0.749870 0.709543 F F F Ti
0.625146 0.749834 0.709560 F F F Ti
0.124990 0.749966 0.838428 F F F Ti
0.624988 0.749962 0.838433 F F F Ti
0.872842 0.250602 0.645293 F F F Ti
0.374977 0.249999 0.773976 F F F Ti
0.874831 0.250067 0.774017 F F F Ti
0.374998 0.250005 0.902867 F F F Ti
0.874980 0.250009 0.902872 F F F Ti
0.375022 0.583363 0.645046 F F F Ti
0.874800 0.583500 0.645082 F F F Ti
0.374978 0.583318 0.773970 F F F Ti
0.874977 0.583318 0.773981 F F F Ti
0.374994 0.583324 0.902866 F F F Ti
0.874996 0.583323 0.902868 F F F Ti
0.375967 0.915376 0.645282 F F F Ti
0.874978 0.916443 0.645118 F F F Ti
0.375078 0.916556 0.774017 F F F Ti
0.874844 0.916541 0.774015 F F F Ti
0.375002 0.916653 0.902872 F F F Ti
0.874979 0.916653 0.902872 F F F Ti
0.124989 0.166681 0.386690 F F F Ti
0.625128 0.166695 0.386677 F F F Ti
0.125022 0.666784 0.386755 F F F Ti
0.624947 0.666738 0.386736 F F F Ti
0.124999 0.166667 0.000006 F F F Ti
0.624996 0.166667 0.000006 F F F Ti
0.124999 0.666673 0.000000 F F F Ti
0.624990 0.666672 0.000002 F F F Ti
0.125000 0.833334 0.096680 F F F Ti
0.624994 0.833334 0.096681 F F F Ti
0.125033 0.833382 0.483418 F F F Ti
0.625128 0.833249 0.483384 F F F Ti
0.125000 0.333333 0.096679 F F F Ti
0.624993 0.333333 0.096679 F F F Ti
0.124798 0.333722 0.483225 F F F Ti
0.625283 0.333436 0.483342 F F F Ti
0.375081 0.583457 0.483374 F F F Ti
0.874877 0.583477 0.483363 F F F Ti
0.374998 0.583330 0.096680 F F F Ti
0.875004 0.583331 0.096681 F F F Ti
0.374997 0.083335 0.096679 F F F Ti
0.875004 0.083334 0.096679 F F F Ti
0.375732 0.083143 0.483079 F F F Ti
0.875184 0.083363 0.483339 F F F Ti
0.375046 0.416716 0.386696 F F F Ti
0.874955 0.416729 0.386689 F F F Ti
0.375019 0.916625 0.386688 F F F Ti
0.875005 0.916671 0.386719 F F F Ti
0.374996 0.416670 0.000005 F F F Ti
0.874995 0.416671 0.000006 F F F Ti
0.374997 0.916665 0.000009 F F F Ti
0.874993 0.916664 0.000009 F F F Ti
0.375005 0.083335 0.290033 F F F Ti
0.874999 0.083330 0.290036 F F F Ti
0.124998 0.166669 0.193362 F F F Ti
0.625001 0.166668 0.193360 F F F Ti
0.124997 0.333346 0.290036 F F F Ti
0.625005 0.333347 0.290032 F F F Ti
0.374998 0.416673 0.193361 F F F Ti
0.874998 0.416673 0.193361 F F F Ti
0.374998 0.583347 0.290042 F F F Ti
0.875004 0.583352 0.290043 F F F Ti
0.125001 0.666674 0.193368 F F F Ti
0.624995 0.666672 0.193367 F F F Ti
0.124991 0.833333 0.290042 F F F Ti
0.625012 0.833329 0.290038 F F F Ti
0.374998 0.916666 0.193362 F F F Ti
0.874998 0.916666 0.193362 F F F Ti
0.245765 0.162937 0.600639 T T T Zr

0.000000 0.000000 0.000000
0.000000 0.000000 0.000000
0.000000 0.000000 0.000000
0.000000 0.000000 0.000000
0.000000 0.000000 0.000000
0.000000 0.000000 0.000000
0.000000 0.000000 0.000000
0.000000 0.000000 0.000000
0.000000 0.000000 0.000000
0.000000 0.000000 0.000000
0.000000 0.000000 0.000000
0.000000 0.000000 0.000000
0.000000 0.000000 0.000000
0.000000 0.000000 0.000000
0.000000 0.000000 0.000000
0.000000 0.000000 0.000000
0.000000 0.000000 0.000000
0.000000 0.000000 0.000000
0.000000 0.000000 0.000000
0.000000 0.000000 0.000000
0.000000 0.000000 0.000000
0.000000 0.000000 0.000000
0.000000 0.000000 0.000000
0.000000 0.000000 0.000000
0.000000 0.000000 0.000000
0.000000 0.000000 0.000000
0.000000 0.000000 0.000000
0.000000 0.000000 0.000000
0.000000 0.000000 0.000000
0.000000 0.000000 0.000000
0.000000 0.000000 0.000000
0.000000 0.000000 0.000000
0.000000 0.000000 0.000000
0.000000 0.000000 0.000000
0.000000 0.000000 0.000000
0.000000 0.000000 0.000000
0.000000 0.000000 0.000000
0.000000 0.000000 0.000000
0.000000 0.000000 0.000000
0.000000 0.000000 0.000000
0.000000 0.000000 0.000000
0.000000 0.000000 0.000000
0.000000 0.000000 0.000000
0.000000 0.000000 0.000000
0.000000 0.000000 0.000000
0.000000 0.000000 0.000000
0.000000 0.000000 0.000000
0.000000 0.000000 0.000000
0.000000 0.000000 0.000000
0.000000 0.000000 0.000000
0.000000 0.000000 0.000000
0.000000 0.000000 0.000000
0.000000 0.000000 0.000000
0.000000 0.000000 0.000000
0.000000 0.000000 0.000000
0.000000 0.000000 0.000000
0.000000 0.000000 0.000000
0.000000 0.000000 0.000000
0.000000 0.000000 0.000000
0.000000 0.000000 0.000000
0.000000 0.000000 0.000000
0.000000 0.000000 0.000000
0.000000 0.000000 0.000000
0.000000 0.000000 0.000000
0.000000 0.000000 0.000000
0.000000 0.000000 0.000000
0.000000 0.000000 0.000000
0.000000 0.000000 0.000000
0.000000 0.000000 0.000000
0.000000 0.000000 0.000000
0.000000 0.000000 0.000000
0.000000 0.000000 0.000000
0.000000 0.000000 0.000000
0.000000 0.000000 0.000000
0.000000 0.000000 0.000000
0.000000 0.000000 0.000000
0.000000 0.000000 0.000000
0.000000 0.000000 0.000000
0.000000 0.000000 0.000000
0.000000 0.000000 0.000000
0.000000 0.000000 0.000000
0.000000 0.000000 0.000000
0.000000 0.000000 0.000000
