Ti67
1.0
6.309760 0.000000 0.000000
0.000000 9.464640 0.000000
0.000000 0.000000 18.918326
Ti
67
Selective dynamics
direct
0.126872 0.025551 0.505152 F F F Ti
0.629201 0.040396 0.500420 F F F Ti
0.125643 0.039385 0.659599 F F F Ti
0.625222 0.039756 0.659315 F F F Ti
0.125150 0.040978 0.817437 F F F Ti
0.625028 0.041027 0.817439 F F F Ti
0.630005 0.374089 0.501045 F F F Ti
0.125357 0.373385 0.658652 F F F Ti
0.625630 0.373956 0.659065 F F F Ti
0.125196 0.374388 0.817270 F F F Ti
0.625194 0.374448 0.817358 F F F Ti
0.125074 0.701686 0.499639 F F F Ti
0.622975 0.707144 0.500047 F F F Ti
0.125370 0.705738 0.658765 F F F Ti
0.624443 0.705986 0.659113 F F F Ti
0.125090 0.707520 0.817322 F F F Ti
0.624952 0.707520 0.817397 F F F Ti
0.378089 0.205844 0.580273 F F F Ti
0.873393 0.205466 0.581154 F F F Ti
0.375379 0.207435 0.738208 F F F Ti
0.875171 0.207365 0.738345 F F F Ti
0.375088 0.208027 0.896462 F F F Ti
0.875117 0.208011 0.896479 F F F Ti
0.375580 0.539101 0.579323 F F F Ti
0.874757 0.540135 0.579661 F F F Ti
0.375035 0.540379 0.738114 F F F Ti
0.875341 0.540511 0.738174 F F F Ti
0.375033 0.541210 0.896442 F F F Ti
0.875117 0.541231 0.896441 F F F Ti
0.378083 0.871052 0.580414 F F F Ti
0.872876 0.870442 0.580566 F F F Ti
0.375319 0.873552 0.738371 F F F Ti
0.874944 0.873474 0.738373 F F F Ti
0.375076 0.874717 0.896518 F F F Ti
0.875006 0.874715 0.896513 F F F Ti
0.126204 0.628243 0.355722 F F F Ti
0.623779 0.633123 0.355029 F F F Ti
0.125315 0.626081 0.118385 F F F Ti
0.625084 0.626093 0.118291 F F F Ti
0.631493 0.126904 0.356746 F F F Ti
0.125654 0.125727 0.118910 F F F Ti
0.625118 0.125678 0.118846 F F F Ti
0.125344 0.375249 0.039272 F F F Ti
0.625083 0.375227 0.039293 F F F Ti
0.125102 0.875587 0.039492 F F F Ti
0.624971 0.875623 0.039482 F F F Ti
0.125587 0.378538 0.276790 F F F Ti
0.625213 0.377118 0.274536 F F F Ti
0.125196 0.877508 0.277501 F F F Ti
0.625411 0.878427 0.277062 F F F Ti
0.375067 0.876530 0.158385 F F F Ti
0.875407 0.876441 0.158274 F F F Ti
0.374537 0.375931 0.157902 F F F Ti
0.876180 0.376057 0.157674 F F F Ti
0.399615 0.388500 0.393504 F F F Ti
0.843122 0.395515 0.391796 F F F Ti
0.375337 0.876833 0.396629 F F F Ti
0.875681 0.874883 0.396652 F F F Ti
0.375320 0.627461 0.236862 F F F Ti
0.875338 0.627660 0.236790 F F F Ti
0.375053 0.625330 -0.000211 F F F Ti
0.875076 0.625346 -0.000215 F F F Ti
0.374896 0.126926 0.238284 F F F Ti
0.876429 0.126845 0.237672 F F F Ti
0.375094 0.125080 -0.000003 F F F Ti
0.875178 0.125086 0.000021 F F F Ti
0.102307 0.244597 0.435266 T T T Ti

0.000000 0.000000 0.000000
0.000000 0.000000 0.000000
0.000000 0.000000 0.000000
0.000000 0.000000 0.000000
0.000000 0.000000 0.000000
0.000000 0.000000 0.000000
0.000000 0.000000 0.000000
0.000000 0.000000 0.000000
0.000000 0.000000 0.000000
0.000000 0.000000 0.000000
0.000000 0.000000 0.000000
0.000000 0.000000 0.000000
0.000000 0.000000 0.000000
0.000000 0.000000 0.000000
0.000000 0.000000 0.000000
0.000000 0.000000 0.000000
0.000000 0.000000 0.000000
0.000000 0.000000 0.000000
0.000000 0.000000 0.000000
0.000000 0.000000 0.000000
0.000000 0.000000 0.000000
0.000000 0.000000 0.000000
0.000000 0.000000 0.000000
0.000000 0.000000 0.000000
0.000000 0.000000 0.000000
0.000000 0.000000 0.000000
0.000000 0.000000 0.000000
0.000000 0.000000 0.000000
0.000000 0.000000 0.000000
0.000000 0.000000 0.000000
0.000000 0.000000 0.000000
0.000000 0.000000 0.000000
0.000000 0.000000 0.000000
0.000000 0.000000 0.000000
0.000000 0.000000 0.000000
0.000000 0.000000 0.000000
0.000000 0.000000 0.000000
0.000000 0.000000 0.000000
0.000000 0.000000 0.000000
0.000000 0.000000 0.000000
0.000000 0.000000 0.000000
0.000000 0.000000 0.000000
0.000000 0.000000 0.000000
0.000000 0.000000 0.000000
0.000000 0.000000 0.000000
0.000000 0.000000 0.000000
0.000000 0.000000 0.000000
0.000000 0.000000 0.000000
0.000000 0.000000 0.000000
0.000000 0.000000 0.000000
0.000000 0.000000 0.000000
0.000000 0.000000 0.000000
0.000000 0.000000 0.000000
0.000000 0.000000 0.000000
0.000000 0.000000 0.000000
0.000000 0.000000 0.000000
0.000000 0.000000 0.000000
0.000000 0.000000 0.000000
0.000000 0.000000 0.000000
0.000000 0.000000 0.000000
0.000000 0.000000 0.000000
0.000000 0.000000 0.000000
0.000000 0.000000 0.000000
0.000000 0.000000 0.000000
0.000000 0.000000 0.000000
0.000000 0.000000 0.000000
0.000000 0.000000 0.000000
