beta_Ti
1.0
6.309760 0.000000 0.000000
0.000000 9.464640 0.000000
0.000000 0.000000 18.700004
Ti
36
direct
0.125000 0.958333 0.500000 Ti
0.625000 0.958333 0.500000 Ti
0.125000 0.958333 0.660428 Ti
0.625000 0.958333 0.660428 Ti
0.125000 0.958333 0.820856 Ti
0.625000 0.958333 0.820856 Ti
0.125000 0.291667 0.500000 Ti
0.625000 0.291667 0.500000 Ti
0.125000 0.291667 0.660428 Ti
0.625000 0.291667 0.660428 Ti
0.125000 0.291667 0.820856 Ti
0.625000 0.291667 0.820856 Ti
0.125000 0.625000 0.500000 Ti
0.625000 0.625000 0.500000 Ti
0.125000 0.625000 0.660428 Ti
0.625000 0.625000 0.660428 Ti
0.125000 0.625000 0.820856 Ti
0.625000 0.625000 0.820856 Ti
0.375000 0.125000 0.580214 Ti
0.875000 0.125000 0.580214 Ti
0.375000 0.125000 0.740642 Ti
0.875000 0.125000 0.740642 Ti
0.375000 0.125000 0.901069 Ti
0.875000 0.125000 0.901069 Ti
0.375000 0.458333 0.580214 Ti
0.875000 0.458333 0.580214 Ti
0.375000 0.458333 0.740642 Ti
0.875000 0.458333 0.740642 Ti
0.375000 0.458333 0.901069 Ti
0.875000 0.458333 0.901069 Ti
0.375000 0.791667 0.580214 Ti
0.875000 0.791667 0.580214 Ti
0.375000 0.791667 0.740642 Ti
0.875000 0.791667 0.740642 Ti
0.375000 0.791667 0.901069 Ti
0.875000 0.791667 0.901069 Ti
