beta_Ti
1.0
4.756512 0.000000 0.000000
0.000000 4.675432 0.000000
0.000000 0.000000 31.211800
Ti
12
direct
0.666667 0.750000 0.743688 Ti
0.166667 0.250000 0.743688 Ti
0.166667 0.750000 0.692379 Ti
0.666667 0.250000 0.692379 Ti
0.666667 0.750000 0.641070 Ti
0.166667 0.250000 0.641070 Ti
0.166667 0.750000 0.589761 Ti
0.666667 0.250000 0.589761 Ti
0.666667 0.750000 0.538452 Ti
0.166667 0.250000 0.538452 Ti
0.166667 0.750000 0.487143 Ti
0.666667 0.250000 0.487143 Ti
