beta_Ti
1.0
9.445957 0.000000 0.000000
0.000000 9.093951 0.000000
0.000000 0.000000 19.031864
Ti
48
direct
0.375000 0.375000 0.815495 Ti
0.875000 0.375000 0.815495 Ti
0.375000 0.875000 0.815495 Ti
0.875000 0.875000 0.815495 Ti
0.125000 0.125000 0.815495 Ti
0.625000 0.125000 0.815495 Ti
0.125000 0.625000 0.815495 Ti
0.625000 0.625000 0.815495 Ti
0.125000 0.375000 0.899641 Ti
0.625000 0.375000 0.899641 Ti
0.125000 0.875000 0.899641 Ti
0.625000 0.875000 0.899641 Ti
0.375000 0.125000 0.899641 Ti
0.875000 0.125000 0.899641 Ti
0.375000 0.625000 0.899641 Ti
0.875000 0.625000 0.899641 Ti
0.375000 0.375000 0.647203 Ti
0.875000 0.375000 0.647203 Ti
0.375000 0.875000 0.647203 Ti
0.875000 0.875000 0.647203 Ti
0.125000 0.125000 0.647203 Ti
0.625000 0.125000 0.647203 Ti
0.125000 0.625000 0.647203 Ti
0.625000 0.625000 0.647203 Ti
0.125000 0.375000 0.563058 Ti
0.625000 0.375000 0.563058 Ti
0.125000 0.875000 0.563058 Ti
0.625000 0.875000 0.563058 Ti
0.375000 0.125000 0.563058 Ti
0.875000 0.125000 0.563058 Ti
0.375000 0.625000 0.563058 Ti
0.875000 0.625000 0.563058 Ti
0.375000 0.375000 0.478912 Ti
0.875000 0.375000 0.478912 Ti
0.375000 0.875000 0.478912 Ti
0.875000 0.875000 0.478912 Ti
0.125000 0.125000 0.478912 Ti
0.625000 0.125000 0.478912 Ti
0.125000 0.625000 0.478912 Ti
0.625000 0.625000 0.478912 Ti
0.125000 0.875000 0.731350 Ti
0.625000 0.875000 0.731350 Ti
0.375000 0.625000 0.731350 Ti
0.875000 0.625000 0.731350 Ti
0.125000 0.375000 0.731350 Ti
0.625000 0.375000 0.731350 Ti
0.375000 0.125000 0.731350 Ti
0.875000 0.125000 0.731350 Ti
