alpha_Ti
1.0
9.445957 0.000000 0.000000
0.000000 9.093951 0.000000
0.000000 0.000000 19.031864
Ti
48
direct
0.166666 0.375000 0.378554 Ti
0.666666 0.375000 0.378554 Ti
0.166666 0.875000 0.378554 Ti
0.666666 0.875000 0.378554 Ti
0.166666 0.375000 0.227133 Ti
0.666666 0.375000 0.227133 Ti
0.166666 0.875000 0.227133 Ti
0.666666 0.875000 0.227133 Ti
0.166666 0.375000 0.075711 Ti
0.666666 0.375000 0.075711 Ti
0.166666 0.875000 0.075711 Ti
0.666666 0.875000 0.075711 Ti
0.416667 0.375000 0.302844 Ti
0.916667 0.375000 0.302844 Ti
0.416667 0.875000 0.302844 Ti
0.916667 0.875000 0.302844 Ti
0.416667 0.375000 0.151422 Ti
0.916667 0.375000 0.151422 Ti
0.416667 0.875000 0.151422 Ti
0.916667 0.875000 0.151422 Ti
0.416667 0.375000 -0.000000 Ti
0.916667 0.375000 -0.000000 Ti
0.416667 0.875000 -0.000000 Ti
0.916667 0.875000 -0.000000 Ti
0.083333 0.125000 0.302843 Ti
0.583333 0.125000 0.302843 Ti
0.083333 0.625000 0.302843 Ti
0.583333 0.625000 0.302843 Ti
0.083333 0.125000 0.151422 Ti
0.583333 0.125000 0.151422 Ti
0.083333 0.625000 0.151422 Ti
0.583333 0.625000 0.151422 Ti
0.083333 0.125000 -0.000000 Ti
0.583333 0.125000 -0.000000 Ti
0.083333 0.625000 -0.000000 Ti
0.583333 0.625000 -0.000000 Ti
0.333333 0.125000 0.378554 Ti
0.833333 0.125000 0.378554 Ti
0.333333 0.625000 0.378554 Ti
0.833333 0.625000 0.378554 Ti
0.333333 0.125000 0.227133 Ti
0.833333 0.125000 0.227133 Ti
0.333333 0.625000 0.227133 Ti
0.833333 0.625000 0.227133 Ti
0.333333 0.125000 0.075711 Ti
0.833333 0.125000 0.075711 Ti
0.333333 0.625000 0.075711 Ti
0.833333 0.625000 0.075711 Ti
