Ti66 Cr1
1.0
6.309760 0.000000 0.000000
0.000000 9.464640 0.000000
0.000000 0.000000 18.918326
Ti Cr
66 1
Selective dynamics
direct
0.124669 0.041118 0.500437 F F F Ti
0.625123 0.041711 0.500060 F F F Ti
0.124950 0.041613 0.658714 F F F Ti
0.625022 0.041665 0.658648 F F F Ti
0.125013 0.041685 0.817152 F F F Ti
0.625012 0.041693 0.817146 F F F Ti
0.122332 0.374930 0.501491 F F F Ti
0.625387 0.375026 0.499674 F F F Ti
0.124925 0.375003 0.658788 F F F Ti
0.624899 0.375011 0.658584 F F F Ti
0.125024 0.375006 0.817138 F F F Ti
0.624973 0.375006 0.817121 F F F Ti
0.124750 0.708882 0.500408 F F F Ti
0.624971 0.708351 0.500036 F F F Ti
0.124979 0.708386 0.658705 F F F Ti
0.624933 0.708355 0.658645 F F F Ti
0.125018 0.708316 0.817150 F F F Ti
0.624980 0.708313 0.817145 F F F Ti
0.375167 0.208241 0.579434 F F F Ti
0.874563 0.208182 0.579404 F F F Ti
0.375058 0.208317 0.737909 F F F Ti
0.874916 0.208329 0.737901 F F F Ti
0.375055 0.208349 0.896421 F F F Ti
0.875029 0.208352 0.896427 F F F Ti
0.375156 0.541765 0.579419 F F F Ti
0.874576 0.541822 0.579389 F F F Ti
0.375055 0.541681 0.737907 F F F Ti
0.874915 0.541670 0.737898 F F F Ti
0.375053 0.541650 0.896422 F F F Ti
0.875023 0.541649 0.896428 F F F Ti
0.375231 0.875069 0.579419 F F F Ti
0.874700 0.874951 0.579458 F F F Ti
0.375050 0.875013 0.737917 F F F Ti
0.874940 0.874984 0.737923 F F F Ti
0.375037 0.875002 0.896415 F F F Ti
0.875007 0.874993 0.896420 F F F Ti
0.120271 0.630840 0.356970 F F F Ti
0.627033 0.625896 0.356542 F F F Ti
0.125504 0.625143 0.118776 F F F Ti
0.625551 0.624995 0.118819 F F F Ti
0.120065 0.119135 0.357055 F F F Ti
0.627554 0.124006 0.356553 F F F Ti
0.125460 0.124886 0.118766 F F F Ti
0.625648 0.125002 0.118804 F F F Ti
0.125476 0.375005 0.039525 F F F Ti
0.625365 0.375007 0.039614 F F F Ti
0.125041 0.875027 0.039529 F F F Ti
0.625134 0.875007 0.039537 F F F Ti
0.635021 0.374957 0.275886 F F F Ti
0.125086 0.875309 0.277149 F F F Ti
0.625107 0.875111 0.277295 F F F Ti
0.375282 0.875068 0.158325 F F F Ti
0.875079 0.874889 0.158433 F F F Ti
0.375774 0.375005 0.158522 F F F Ti
0.877879 0.375011 0.158406 F F F Ti
0.880500 0.375030 0.396112 F F F Ti
0.375738 0.875459 0.396543 F F F Ti
0.873930 0.874857 0.396670 F F F Ti
0.375956 0.626044 0.237507 F F F Ti
0.876989 0.624948 0.237754 F F F Ti
0.375174 0.625001 -0.000052 F F F Ti
0.875184 0.624980 -0.000040 F F F Ti
0.375926 0.124030 0.237505 F F F Ti
0.876999 0.125058 0.237751 F F F Ti
0.375172 0.125019 -0.000046 F F F Ti
0.875186 0.125020 -0.000040 F F F Ti
0.333990 0.374166 0.355669 T T T Cr

0.000000 0.000000 0.000000
0.000000 0.000000 0.000000
0.000000 0.000000 0.000000
0.000000 0.000000 0.000000
0.000000 0.000000 0.000000
0.000000 0.000000 0.000000
0.000000 0.000000 0.000000
0.000000 0.000000 0.000000
0.000000 0.000000 0.000000
0.000000 0.000000 0.000000
0.000000 0.000000 0.000000
0.000000 0.000000 0.000000
0.000000 0.000000 0.000000
0.000000 0.000000 0.000000
0.000000 0.000000 0.000000
0.000000 0.000000 0.000000
0.000000 0.000000 0.000000
0.000000 0.000000 0.000000
0.000000 0.000000 0.000000
0.000000 0.000000 0.000000
0.000000 0.000000 0.000000
0.000000 0.000000 0.000000
0.000000 0.000000 0.000000
0.000000 0.000000 0.000000
0.000000 0.000000 0.000000
0.000000 0.000000 0.000000
0.000000 0.000000 0.000000
0.000000 0.000000 0.000000
0.000000 0.000000 0.000000
0.000000 0.000000 0.000000
0.000000 0.000000 0.000000
0.000000 0.000000 0.000000
0.000000 0.000000 0.000000
0.000000 0.000000 0.000000
0.000000 0.000000 0.000000
0.000000 0.000000 0.000000
0.000000 0.000000 0.000000
0.000000 0.000000 0.000000
0.000000 0.000000 0.000000
0.000000 0.000000 0.000000
0.000000 0.000000 0.000000
0.000000 0.000000 0.000000
0.000000 0.000000 0.000000
0.000000 0.000000 0.000000
0.000000 0.000000 0.000000
0.000000 0.000000 0.000000
0.000000 0.000000 0.000000
0.000000 0.000000 0.000000
0.000000 0.000000 0.000000
0.000000 0.000000 0.000000
0.000000 0.000000 0.000000
0.000000 0.000000 0.000000
0.000000 0.000000 0.000000
0.000000 0.000000 0.000000
0.000000 0.000000 0.000000
0.000000 0.000000 0.000000
0.000000 0.000000 0.000000
0.000000 0.000000 0.000000
0.000000 0.000000 0.000000
0.000000 0.000000 0.000000
0.000000 0.000000 0.000000
0.000000 0.000000 0.000000
0.000000 0.000000 0.000000
0.000000 0.000000 0.000000
0.000000 0.000000 0.000000
0.000000 0.000000 0.000000
0.000000 0.000000 0.000000
