beta_Ti
1.0
4.756512 0.000000 0.000000
0.000000 4.675432 0.000000
0.000000 0.000000 30.211800
Ti
12
direct
0.666667 0.750000 0.751754 Ti
0.166667 0.250000 0.751754 Ti
0.166667 0.750000 0.698747 Ti
0.666667 0.250000 0.698747 Ti
0.666667 0.750000 0.645739 Ti
0.166667 0.250000 0.645739 Ti
0.166667 0.750000 0.592732 Ti
0.666667 0.250000 0.592732 Ti
0.666667 0.750000 0.539724 Ti
0.166667 0.250000 0.539724 Ti
0.166667 0.750000 0.486717 Ti
0.666667 0.250000 0.486717 Ti
