alpha_Ti
1.0
9.588310 0.000000 0.000000
0.000000 9.588310 0.000000
0.000000 0.000000 18.600006
Ti
48
direct
0.125000 0.833333 -0.000000 Ti
0.125000 0.333333 -0.000000 Ti
0.625000 0.833333 -0.000000 Ti
0.625000 0.333333 -0.000000 Ti
0.375000 0.666667 -0.000000 Ti
0.375000 0.166667 -0.000000 Ti
0.875000 0.666667 -0.000000 Ti
0.875000 0.166667 -0.000000 Ti
0.875000 0.416667 0.080645 Ti
0.375000 0.416667 0.080645 Ti
0.875000 0.916667 0.080645 Ti
0.375000 0.916667 0.080645 Ti
0.625000 0.083333 0.080645 Ti
0.125000 0.083333 0.080645 Ti
0.625000 0.583333 0.080645 Ti
0.125000 0.583333 0.080645 Ti
0.125000 0.333333 0.161291 Ti
0.625000 0.333333 0.161291 Ti
0.625000 0.833333 0.161291 Ti
0.125000 0.833333 0.161291 Ti
0.875000 0.666667 0.161291 Ti
0.375000 0.166667 0.161291 Ti
0.875000 0.166667 0.161291 Ti
0.375000 0.666667 0.161291 Ti
0.875000 0.416667 0.241935 Ti
0.375000 0.416667 0.241935 Ti
0.875000 0.916667 0.241935 Ti
0.375000 0.916667 0.241935 Ti
0.125000 0.583333 0.241935 Ti
0.625000 0.083333 0.241935 Ti
0.125000 0.083333 0.241935 Ti
0.625000 0.583333 0.241935 Ti
0.625000 0.833333 0.322580 Ti
0.625000 0.333333 0.322580 Ti
0.125000 0.833333 0.322580 Ti
0.125000 0.333333 0.322580 Ti
0.375000 0.166667 0.322580 Ti
0.875000 0.166667 0.322580 Ti
0.375000 0.666667 0.322580 Ti
0.875000 0.666667 0.322580 Ti
0.875000 0.416667 0.403226 Ti
0.375000 0.416667 0.403226 Ti
0.375000 0.916667 0.403226 Ti
0.875000 0.916667 0.403226 Ti
0.625000 0.583333 0.403226 Ti
0.625000 0.083333 0.403226 Ti
0.125000 0.583333 0.403226 Ti
0.125000 0.083333 0.403226 Ti
