Ti96 Nb1
1.0
9.513020 0.000000 0.000000
0.000000 9.350860 0.000000
0.000000 0.000000 18.547230
Ti Nb
96 1
Selective dynamics
direct
0.149408 0.377446 0.403295 T T T Ti
0.642888 0.331064 0.408168 T T T Ti
0.121651 0.851634 0.414322 T T T Ti
0.673246 0.875764 0.410379 T T T Ti
0.155179 0.370195 0.239221 T T T Ti
0.658201 0.362710 0.234143 T T T Ti
0.155025 0.868495 0.230571 T T T Ti
0.669129 0.880840 0.231856 T T T Ti
0.166734 0.375087 0.077446 F F F Ti
0.666669 0.375009 0.077417 F F F Ti
0.166735 0.874982 0.077511 F F F Ti
0.666570 0.874953 0.077602 F F F Ti
0.413799 0.394581 0.320372 T T T Ti
0.901106 0.372034 0.322079 T T T Ti
0.335241 0.931369 0.330936 T T T Ti
0.911203 0.879641 0.316065 T T T Ti
0.416692 0.375137 0.155041 F F F Ti
0.916767 0.374870 0.154907 F F F Ti
0.416679 0.874967 0.155355 F F F Ti
0.916589 0.875078 0.154930 F F F Ti
0.416668 0.375045 -0.000116 F F F Ti
0.916653 0.374997 -0.000176 F F F Ti
0.416675 0.874964 -0.000021 F F F Ti
0.916646 0.874984 -0.000145 F F F Ti
0.098894 0.127968 0.322078 T T T Ti
0.586201 0.105420 0.320371 T T T Ti
0.088797 0.620361 0.316064 T T T Ti
0.664759 0.568633 0.330936 T T T Ti
0.083232 0.125161 0.154905 F F F Ti
0.583307 0.124888 0.155042 F F F Ti
0.083412 0.624951 0.154931 F F F Ti
0.583322 0.625043 0.155355 F F F Ti
0.083347 0.125014 -0.000176 F F F Ti
0.583334 0.124969 -0.000115 F F F Ti
0.083355 0.625025 -0.000145 F F F Ti
0.583327 0.625037 -0.000023 F F F Ti
0.357111 0.168936 0.408168 T T T Ti
0.850591 0.122555 0.403295 T T T Ti
0.326753 0.624236 0.410379 T T T Ti
0.878348 0.648366 0.414322 T T T Ti
0.341798 0.137296 0.234142 T T T Ti
0.844820 0.129810 0.239221 T T T Ti
0.330870 0.619166 0.231856 T T T Ti
0.844974 0.631512 0.230571 T T T Ti
0.333330 0.125013 0.077417 F F F Ti
0.833266 0.124935 0.077447 F F F Ti
0.333428 0.625062 0.077601 F F F Ti
0.833265 0.625037 0.077511 F F F Ti
0.375024 0.375080 0.823827 F F F Ti
0.874951 0.374919 0.823816 F F F Ti
0.375047 0.875000 0.823754 F F F Ti
0.874977 0.874958 0.823840 F F F Ti
0.125046 0.125061 0.823815 F F F Ti
0.624985 0.124911 0.823827 F F F Ti
0.125027 0.625027 0.823840 F F F Ti
0.624955 0.624983 0.823754 F F F Ti
0.125045 0.375088 0.910078 F F F Ti
0.624988 0.375093 0.910121 F F F Ti
0.125094 0.874961 0.910110 F F F Ti
0.624963 0.874898 0.910181 F F F Ti
0.375016 0.124893 0.910123 F F F Ti
0.874960 0.124903 0.910079 F F F Ti
0.375039 0.625080 0.910179 F F F Ti
0.874911 0.625022 0.910111 F F F Ti
0.394975 0.383827 0.655741 T T T Ti
0.897885 0.382528 0.652054 T T T Ti
0.396454 0.887009 0.651922 T T T Ti
0.887487 0.887174 0.659547 T T T Ti
0.102114 0.117467 0.652054 T T T Ti
0.605024 0.116167 0.655741 T T T Ti
0.112511 0.612820 0.659547 T T T Ti
0.603546 0.612987 0.651923 T T T Ti
0.150029 0.361509 0.573976 T T T Ti
0.648320 0.359375 0.575076 T T T Ti
0.140622 0.863239 0.579946 T T T Ti
0.646672 0.860710 0.573702 T T T Ti
0.351680 0.140623 0.575076 T T T Ti
0.849971 0.138489 0.573976 T T T Ti
0.353328 0.639288 0.573701 T T T Ti
0.859377 0.636759 0.579947 T T T Ti
0.404030 0.394485 0.495444 T T T Ti
0.896059 0.375842 0.484524 T T T Ti
0.371999 0.905449 0.483486 T T T Ti
0.901935 0.893809 0.500435 T T T Ti
0.103941 0.124158 0.484524 T T T Ti
0.595970 0.105514 0.495444 T T T Ti
0.098065 0.606190 0.500435 T T T Ti
0.628001 0.594551 0.483486 T T T Ti
0.125075 0.875290 0.737652 F F F Ti
0.624814 0.874792 0.737554 F F F Ti
0.375180 0.625188 0.737547 F F F Ti
0.874918 0.624684 0.737658 F F F Ti
0.124831 0.374951 0.737588 F F F Ti
0.624987 0.374861 0.737605 F F F Ti
0.375005 0.125117 0.737604 F F F Ti
0.875165 0.125029 0.737585 F F F Ti
0.500000 0.750000 0.352407 T T T Nb

0.000000 0.000000 0.000000
0.000000 0.000000 0.000000
0.000000 0.000000 0.000000
0.000000 0.000000 0.000000
0.000000 0.000000 0.000000
0.000000 0.000000 0.000000
0.000000 0.000000 0.000000
0.000000 0.000000 0.000000
0.000000 0.000000 0.000000
0.000000 0.000000 0.000000
0.000000 0.000000 0.000000
0.000000 0.000000 0.000000
0.000000 0.000000 0.000000
0.000000 0.000000 0.000000
0.000000 0.000000 0.000000
0.000000 0.000000 0.000000
0.000000 0.000000 0.000000
0.000000 0.000000 0.000000
0.000000 0.000000 0.000000
0.000000 0.000000 0.000000
0.000000 0.000000 0.000000
0.000000 0.000000 0.000000
0.000000 0.000000 0.000000
0.000000 0.000000 0.000000
0.000000 0.000000 0.000000
0.000000 0.000000 0.000000
0.000000 0.000000 0.000000
0.000000 0.000000 0.000000
0.000000 0.000000 0.000000
0.000000 0.000000 0.000000
0.000000 0.000000 0.000000
0.000000 0.000000 0.000000
0.000000 0.000000 0.000000
0.000000 0.000000 0.000000
0.000000 0.000000 0.000000
0.000000 0.000000 0.000000
0.000000 0.000000 0.000000
0.000000 0.000000 0.000000
0.000000 0.000000 0.000000
0.000000 0.000000 0.000000
0.000000 0.000000 0.000000
0.000000 0.000000 0.000000
0.000000 0.000000 0.000000
0.000000 0.000000 0.000000
0.000000 0.000000 0.000000
0.000000 0.000000 0.000000
0.000000 0.000000 0.000000
0.000000 0.000000 0.000000
0.000000 0.000000 0.000000
0.000000 0.000000 0.000000
0.000000 0.000000 0.000000
0.000000 0.000000 0.000000
0.000000 0.000000 0.000000
0.000000 0.000000 0.000000
0.000000 0.000000 0.000000
0.000000 0.000000 0.000000
0.000000 0.000000 0.000000
0.000000 0.000000 0.000000
0.000000 0.000000 0.000000
0.000000 0.000000 0.000000
0.000000 0.000000 0.000000
0.000000 0.000000 0.000000
0.000000 0.000000 0.000000
0.000000 0.000000 0.000000
0.000000 0.000000 0.000000
0.000000 0.000000 0.000000
0.000000 0.000000 0.000000
0.000000 0.000000 0.000000
0.000000 0.000000 0.000000
0.000000 0.000000 0.000000
0.000000 0.000000 0.000000
0.000000 0.000000 0.000000
0.000000 0.000000 0.000000
0.000000 0.000000 0.000000
0.000000 0.000000 0.000000
0.000000 0.000000 0.000000
0.000000 0.000000 0.000000
0.000000 0.000000 0.000000
0.000000 0.000000 0.000000
0.000000 0.000000 0.000000
0.000000 0.000000 0.000000
0.000000 0.000000 0.000000
0.000000 0.000000 0.000000
0.000000 0.000000 0.000000
0.000000 0.000000 0.000000
0.000000 0.000000 0.000000
0.000000 0.000000 0.000000
0.000000 0.000000 0.000000
0.000000 0.000000 0.000000
0.000000 0.000000 0.000000
0.000000 0.000000 0.000000
0.000000 0.000000 0.000000
0.000000 0.000000 0.000000
0.000000 0.000000 0.000000
0.000000 0.000000 0.000000
0.000000 0.000000 0.000000
0.000000 0.000000 0.000000
