Ti82 Cr1
1.0
6.391540 0.000000 0.000000
0.000000 9.587310 0.000000
0.000000 0.000000 23.271695
Ti Cr
82 1
Selective dynamics
direct
0.631193 0.080963 0.579927 F F F Ti
0.121672 0.080996 0.710705 F F F Ti
0.626575 0.082520 0.709762 F F F Ti
0.124880 0.083220 0.838616 F F F Ti
0.624937 0.083297 0.838508 F F F Ti
0.120519 0.420727 0.579724 F F F Ti
0.627337 0.417740 0.580231 F F F Ti
0.123415 0.417966 0.709960 F F F Ti
0.624858 0.416369 0.709399 F F F Ti
0.124969 0.416690 0.838511 F F F Ti
0.624930 0.416629 0.838434 F F F Ti
0.125032 0.750529 0.580545 F F F Ti
0.625187 0.749937 0.580509 F F F Ti
0.124966 0.749822 0.709593 F F F Ti
0.625118 0.749787 0.709561 F F F Ti
0.125015 0.749856 0.838504 F F F Ti
0.624881 0.749845 0.838510 F F F Ti
0.877375 0.249902 0.644996 F F F Ti
0.374846 0.249855 0.774119 F F F Ti
0.874898 0.250091 0.774006 F F F Ti
0.375030 0.250001 0.902915 F F F Ti
0.874927 0.250012 0.902900 F F F Ti
0.375003 0.583746 0.645003 F F F Ti
0.874756 0.583671 0.645147 F F F Ti
0.375172 0.583306 0.774017 F F F Ti
0.874650 0.583307 0.774054 F F F Ti
0.375027 0.583282 0.902914 F F F Ti
0.874955 0.583265 0.902911 F F F Ti
0.375824 0.915150 0.645198 F F F Ti
0.876101 0.916561 0.645092 F F F Ti
0.375282 0.916298 0.774132 F F F Ti
0.874586 0.916093 0.774196 F F F Ti
0.375026 0.916594 0.902932 F F F Ti
0.874925 0.916586 0.902931 F F F Ti
0.125148 0.166674 0.386666 F F F Ti
0.625157 0.166635 0.386665 F F F Ti
0.125056 0.666722 0.386680 F F F Ti
0.624980 0.666694 0.386653 F F F Ti
0.124987 0.166662 0.000033 F F F Ti
0.624989 0.166660 0.000031 F F F Ti
0.124994 0.666646 0.000028 F F F Ti
0.624981 0.666643 0.000030 F F F Ti
0.124995 0.833330 0.096695 F F F Ti
0.624994 0.833329 0.096695 F F F Ti
0.125139 0.833488 0.483381 F F F Ti
0.625148 0.833274 0.483299 F F F Ti
0.124995 0.333333 0.096691 F F F Ti
0.624993 0.333333 0.096690 F F F Ti
0.124969 0.333606 0.483164 F F F Ti
0.625448 0.333405 0.483198 F F F Ti
0.375190 0.583624 0.483262 F F F Ti
0.874878 0.583698 0.483201 F F F Ti
0.375004 0.583328 0.096692 F F F Ti
0.875008 0.583325 0.096690 F F F Ti
0.375000 0.083335 0.096693 F F F Ti
0.875000 0.083334 0.096691 F F F Ti
0.375482 0.083326 0.483325 F F F Ti
0.876284 0.083495 0.483305 F F F Ti
0.375078 0.416696 0.386653 F F F Ti
0.875044 0.416706 0.386638 F F F Ti
0.375035 0.916681 0.386696 F F F Ti
0.875122 0.916693 0.386703 F F F Ti
0.374996 0.416662 0.000029 F F F Ti
0.874982 0.416660 0.000024 F F F Ti
0.374994 0.916650 0.000045 F F F Ti
0.874981 0.916650 0.000042 F F F Ti
0.375016 0.083331 0.290026 F F F Ti
0.875030 0.083330 0.290027 F F F Ti
0.124997 0.166662 0.193359 F F F Ti
0.624998 0.166660 0.193358 F F F Ti
0.125007 0.333336 0.290015 F F F Ti
0.625002 0.333331 0.290011 F F F Ti
0.374994 0.416667 0.193355 F F F Ti
0.874994 0.416667 0.193355 F F F Ti
0.375007 0.583352 0.290010 F F F Ti
0.875024 0.583350 0.290012 F F F Ti
0.124994 0.666667 0.193359 F F F Ti
0.624994 0.666666 0.193357 F F F Ti
0.124996 0.833346 0.290026 F F F Ti
0.625010 0.833348 0.290022 F F F Ti
0.374993 0.916663 0.193361 F F F Ti
0.874997 0.916664 0.193362 F F F Ti
0.339373 0.223743 0.634125 T T T Cr

0.000000 0.000000 0.000000
0.000000 0.000000 0.000000
0.000000 0.000000 0.000000
0.000000 0.000000 0.000000
0.000000 0.000000 0.000000
0.000000 0.000000 0.000000
0.000000 0.000000 0.000000
0.000000 0.000000 0.000000
0.000000 0.000000 0.000000
0.000000 0.000000 0.000000
0.000000 0.000000 0.000000
0.000000 0.000000 0.000000
0.000000 0.000000 0.000000
0.000000 0.000000 0.000000
0.000000 0.000000 0.000000
0.000000 0.000000 0.000000
0.000000 0.000000 0.000000
0.000000 0.000000 0.000000
0.000000 0.000000 0.000000
0.000000 0.000000 0.000000
0.000000 0.000000 0.000000
0.000000 0.000000 0.000000
0.000000 0.000000 0.000000
0.000000 0.000000 0.000000
0.000000 0.000000 0.000000
0.000000 0.000000 0.000000
0.000000 0.000000 0.000000
0.000000 0.000000 0.000000
0.000000 0.000000 0.000000
0.000000 0.000000 0.000000
0.000000 0.000000 0.000000
0.000000 0.000000 0.000000
0.000000 0.000000 0.000000
0.000000 0.000000 0.000000
0.000000 0.000000 0.000000
0.000000 0.000000 0.000000
0.000000 0.000000 0.000000
0.000000 0.000000 0.000000
0.000000 0.000000 0.000000
0.000000 0.000000 0.000000
0.000000 0.000000 0.000000
0.000000 0.000000 0.000000
0.000000 0.000000 0.000000
0.000000 0.000000 0.000000
0.000000 0.000000 0.000000
0.000000 0.000000 0.000000
0.000000 0.000000 0.000000
0.000000 0.000000 0.000000
0.000000 0.000000 0.000000
0.000000 0.000000 0.000000
0.000000 0.000000 0.000000
0.000000 0.000000 0.000000
0.000000 0.000000 0.000000
0.000000 0.000000 0.000000
0.000000 0.000000 0.000000
0.000000 0.000000 0.000000
0.000000 0.000000 0.000000
0.000000 0.000000 0.000000
0.000000 0.000000 0.000000
0.000000 0.000000 0.000000
0.000000 0.000000 0.000000
0.000000 0.000000 0.000000
0.000000 0.000000 0.000000
0.000000 0.000000 0.000000
0.000000 0.000000 0.000000
0.000000 0.000000 0.000000
0.000000 0.000000 0.000000
0.000000 0.000000 0.000000
0.000000 0.000000 0.000000
0.000000 0.000000 0.000000
0.000000 0.000000 0.000000
0.000000 0.000000 0.000000
0.000000 0.000000 0.000000
0.000000 0.000000 0.000000
0.000000 0.000000 0.000000
0.000000 0.000000 0.000000
0.000000 0.000000 0.000000
0.000000 0.000000 0.000000
0.000000 0.000000 0.000000
0.000000 0.000000 0.000000
0.000000 0.000000 0.000000
0.000000 0.000000 0.000000
0.000000 0.000000 0.000000
