Ti66 Mo1
1.0
6.309760 0.000000 0.000000
0.000000 9.464640 0.000000
0.000000 0.000000 18.918326
Ti Mo
66 1
Selective dynamics
direct
0.625000 0.086146 0.469859 T T T Ti
0.125000 0.048091 0.655737 T T T Ti
0.625000 0.053331 0.637695 T T T Ti
0.125000 0.041667 0.817153 F F F Ti
0.625000 0.041667 0.817153 F F F Ti
0.125000 0.419647 0.492945 T T T Ti
0.625000 0.400860 0.493107 T T T Ti
0.125000 0.364685 0.647029 T T T Ti
0.625000 0.352308 0.646553 T T T Ti
0.125000 0.375000 0.817153 F F F Ti
0.625000 0.375000 0.817153 F F F Ti
0.125000 0.704070 0.493623 T T T Ti
0.625000 0.733705 0.496773 T T T Ti
0.125000 0.734706 0.644631 T T T Ti
0.625000 0.747415 0.645743 T T T Ti
0.125000 0.708333 0.817153 F F F Ti
0.625000 0.708333 0.817153 F F F Ti
0.340263 0.204347 0.545651 T T T Ti
0.909737 0.204347 0.545651 T T T Ti
0.375000 0.208333 0.737865 F F F Ti
0.875000 0.208333 0.737865 F F F Ti
0.375000 0.208333 0.896441 F F F Ti
0.875000 0.208333 0.896441 F F F Ti
0.390102 0.549902 0.586750 T T T Ti
0.859898 0.549902 0.586750 T T T Ti
0.375000 0.541667 0.737865 F F F Ti
0.875000 0.541667 0.737865 F F F Ti
0.375000 0.541667 0.896441 F F F Ti
0.875000 0.541667 0.896441 F F F Ti
0.340901 0.917289 0.549307 T T T Ti
0.909099 0.917289 0.549307 T T T Ti
0.375000 0.875000 0.737865 F F F Ti
0.875000 0.875000 0.737865 F F F Ti
0.375000 0.875000 0.896441 F F F Ti
0.875000 0.875000 0.896441 F F F Ti
0.125000 0.606892 0.365983 T T T Ti
0.625000 0.603833 0.370873 T T T Ti
0.125000 0.625000 0.118932 F F F Ti
0.625000 0.625000 0.118932 F F F Ti
0.625000 0.082443 0.350227 T T T Ti
0.125000 0.125000 0.118932 F F F Ti
0.625000 0.125000 0.118932 F F F Ti
0.125000 0.375000 0.039644 F F F Ti
0.625000 0.375000 0.039644 F F F Ti
0.125000 0.875000 0.039644 F F F Ti
0.625000 0.875000 0.039644 F F F Ti
0.125000 0.385753 0.276530 T T T Ti
0.625000 0.378107 0.279563 T T T Ti
0.125000 0.878861 0.281541 T T T Ti
0.625000 0.858952 0.273225 T T T Ti
0.375000 0.875000 0.158576 F F F Ti
0.875000 0.875000 0.158576 F F F Ti
0.374999 0.375000 0.158576 F F F Ti
0.874999 0.375000 0.158576 F F F Ti
0.367457 0.304728 0.389737 T T T Ti
0.882543 0.304728 0.389737 T T T Ti
0.366701 0.867589 0.399670 T T T Ti
0.883299 0.867589 0.399670 T T T Ti
0.369854 0.626368 0.246859 T T T Ti
0.880146 0.626368 0.246859 T T T Ti
0.375000 0.625000 0.000000 F F F Ti
0.875000 0.625000 0.000000 F F F Ti
0.368349 0.127310 0.249086 T T T Ti
0.881651 0.127310 0.249086 T T T Ti
0.375000 0.125000 0.000000 F F F Ti
0.875000 0.125000 0.000000 F F F Ti
0.125000 0.093097 0.408055 T T T Mo
