Ti96 Mo1
1.0
9.513020 0.000000 0.000000
0.000000 9.350860 0.000000
0.000000 0.000000 18.547230
Ti Mo
96 1
Selective dynamics
direct
0.152194 0.381841 0.408251 T T T Ti
0.659937 0.344467 0.420433 T T T Ti
0.137669 0.863174 0.407922 T T T Ti
0.662756 0.862857 0.402167 T T T Ti
0.147105 0.362625 0.238759 T T T Ti
0.659957 0.367933 0.232826 T T T Ti
0.168099 0.864767 0.238607 T T T Ti
0.676415 0.904960 0.239417 T T T Ti
0.166668 0.375069 0.077231 F F F Ti
0.666746 0.375022 0.077292 F F F Ti
0.166756 0.875081 0.077404 F F F Ti
0.666495 0.874857 0.077507 F F F Ti
0.397027 0.364149 0.325384 T T T Ti
0.895432 0.372147 0.326616 T T T Ti
0.377698 0.944628 0.339627 T T T Ti
0.918064 0.882152 0.316278 T T T Ti
0.416915 0.374894 0.154760 F F F Ti
0.916877 0.374707 0.154701 F F F Ti
0.416441 0.875156 0.155524 F F F Ti
0.916992 0.874976 0.154635 F F F Ti
0.416684 0.375056 -0.000180 F F F Ti
0.916636 0.375001 -0.000279 F F F Ti
0.416678 0.874960 0.000037 F F F Ti
0.916643 0.874972 -0.000222 F F F Ti
0.104568 0.127856 0.326614 T T T Ti
0.602973 0.135854 0.325382 T T T Ti
0.081936 0.617852 0.316278 T T T Ti
0.622303 0.555375 0.339627 T T T Ti
0.083120 0.125343 0.154697 F F F Ti
0.583085 0.125153 0.154757 F F F Ti
0.083006 0.625073 0.154635 F F F Ti
0.583562 0.624849 0.155526 F F F Ti
0.083365 0.125015 -0.000280 F F F Ti
0.583317 0.124971 -0.000180 F F F Ti
0.083356 0.625040 -0.000221 F F F Ti
0.583324 0.625034 0.000038 F F F Ti
0.340062 0.155534 0.420432 T T T Ti
0.847805 0.118160 0.408251 T T T Ti
0.337243 0.637145 0.402167 T T T Ti
0.862330 0.636827 0.407922 T T T Ti
0.340043 0.132075 0.232824 T T T Ti
0.852894 0.137385 0.238758 T T T Ti
0.323582 0.595049 0.239419 T T T Ti
0.831900 0.635244 0.238607 T T T Ti
0.333254 0.125014 0.077292 F F F Ti
0.833331 0.124971 0.077231 F F F Ti
0.333503 0.625168 0.077505 F F F Ti
0.833244 0.624950 0.077405 F F F Ti
0.375112 0.375134 0.823922 F F F Ti
0.874864 0.374951 0.823865 F F F Ti
0.375120 0.874975 0.823916 F F F Ti
0.874782 0.874938 0.823985 F F F Ti
0.125131 0.125009 0.823863 F F F Ti
0.624900 0.124851 0.823924 F F F Ti
0.125223 0.625029 0.823986 F F F Ti
0.624880 0.624990 0.823917 F F F Ti
0.125095 0.375073 0.910053 F F F Ti
0.624970 0.375107 0.910125 F F F Ti
0.125183 0.874957 0.910138 F F F Ti
0.624886 0.874861 0.910257 F F F Ti
0.375031 0.124868 0.910128 F F F Ti
0.874908 0.124909 0.910053 F F F Ti
0.375114 0.625094 0.910257 F F F Ti
0.874818 0.625009 0.910141 F F F Ti
0.396719 0.384458 0.655737 T T T Ti
0.897559 0.375646 0.651826 T T T Ti
0.398243 0.885165 0.649412 T T T Ti
0.892758 0.883301 0.658485 T T T Ti
0.102441 0.124348 0.651826 T T T Ti
0.603281 0.115535 0.655738 T T T Ti
0.107239 0.616691 0.658485 T T T Ti
0.601759 0.614830 0.649412 T T T Ti
0.154759 0.371695 0.570762 T T T Ti
0.646856 0.355509 0.574386 T T T Ti
0.143217 0.868522 0.579704 T T T Ti
0.656845 0.867377 0.574279 T T T Ti
0.353144 0.144488 0.574386 T T T Ti
0.845241 0.128303 0.570761 T T T Ti
0.343155 0.632621 0.574278 T T T Ti
0.856782 0.631476 0.579705 T T T Ti
0.409144 0.401521 0.488863 T T T Ti
0.908877 0.376843 0.490120 T T T Ti
0.374820 0.892467 0.493666 T T T Ti
0.905328 0.877384 0.493683 T T T Ti
0.091123 0.123156 0.490120 T T T Ti
0.590856 0.098478 0.488863 T T T Ti
0.094671 0.622616 0.493683 T T T Ti
0.625180 0.607533 0.493666 T T T Ti
0.125255 0.875348 0.737739 F F F Ti
0.624553 0.874738 0.737548 F F F Ti
0.375443 0.625237 0.737537 F F F Ti
0.874739 0.624614 0.737748 F F F Ti
0.124958 0.374815 0.737629 F F F Ti
0.625021 0.374845 0.737566 F F F Ti
0.374975 0.125135 0.737565 F F F Ti
0.875040 0.125164 0.737626 F F F Ti
0.500000 0.750001 0.318187 T T T Mo

0.000000 0.000000 0.000000
0.000000 0.000000 0.000000
0.000000 0.000000 0.000000
0.000000 0.000000 0.000000
0.000000 0.000000 0.000000
0.000000 0.000000 0.000000
0.000000 0.000000 0.000000
0.000000 0.000000 0.000000
0.000000 0.000000 0.000000
0.000000 0.000000 0.000000
0.000000 0.000000 0.000000
0.000000 0.000000 0.000000
0.000000 0.000000 0.000000
0.000000 0.000000 0.000000
0.000000 0.000000 0.000000
0.000000 0.000000 0.000000
0.000000 0.000000 0.000000
0.000000 0.000000 0.000000
0.000000 0.000000 0.000000
0.000000 0.000000 0.000000
0.000000 0.000000 0.000000
0.000000 0.000000 0.000000
0.000000 0.000000 0.000000
0.000000 0.000000 0.000000
0.000000 0.000000 0.000000
0.000000 0.000000 0.000000
0.000000 0.000000 0.000000
0.000000 0.000000 0.000000
0.000000 0.000000 0.000000
0.000000 0.000000 0.000000
0.000000 0.000000 0.000000
0.000000 0.000000 0.000000
0.000000 0.000000 0.000000
0.000000 0.000000 0.000000
0.000000 0.000000 0.000000
0.000000 0.000000 0.000000
0.000000 0.000000 0.000000
0.000000 0.000000 0.000000
0.000000 0.000000 0.000000
0.000000 0.000000 0.000000
0.000000 0.000000 0.000000
0.000000 0.000000 0.000000
0.000000 0.000000 0.000000
0.000000 0.000000 0.000000
0.000000 0.000000 0.000000
0.000000 0.000000 0.000000
0.000000 0.000000 0.000000
0.000000 0.000000 0.000000
0.000000 0.000000 0.000000
0.000000 0.000000 0.000000
0.000000 0.000000 0.000000
0.000000 0.000000 0.000000
0.000000 0.000000 0.000000
0.000000 0.000000 0.000000
0.000000 0.000000 0.000000
0.000000 0.000000 0.000000
0.000000 0.000000 0.000000
0.000000 0.000000 0.000000
0.000000 0.000000 0.000000
0.000000 0.000000 0.000000
0.000000 0.000000 0.000000
0.000000 0.000000 0.000000
0.000000 0.000000 0.000000
0.000000 0.000000 0.000000
0.000000 0.000000 0.000000
0.000000 0.000000 0.000000
0.000000 0.000000 0.000000
0.000000 0.000000 0.000000
0.000000 0.000000 0.000000
0.000000 0.000000 0.000000
0.000000 0.000000 0.000000
0.000000 0.000000 0.000000
0.000000 0.000000 0.000000
0.000000 0.000000 0.000000
0.000000 0.000000 0.000000
0.000000 0.000000 0.000000
0.000000 0.000000 0.000000
0.000000 0.000000 0.000000
0.000000 0.000000 0.000000
0.000000 0.000000 0.000000
0.000000 0.000000 0.000000
0.000000 0.000000 0.000000
0.000000 0.000000 0.000000
0.000000 0.000000 0.000000
0.000000 0.000000 0.000000
0.000000 0.000000 0.000000
0.000000 0.000000 0.000000
0.000000 0.000000 0.000000
0.000000 0.000000 0.000000
0.000000 0.000000 0.000000
0.000000 0.000000 0.000000
0.000000 0.000000 0.000000
0.000000 0.000000 0.000000
0.000000 0.000000 0.000000
0.000000 0.000000 0.000000
0.000000 0.000000 0.000000
0.000000 0.000000 0.000000
