alpha_Ti
1.0
6.309760 0.000000 0.000000
0.000000 9.464640 0.000000
0.000000 0.000000 28.000004
Ti
32
direct
0.125000 0.625000 0.241071 Ti
0.625000 0.625000 0.241071 Ti
0.125000 0.625000 0.080357 Ti
0.625000 0.625000 0.080357 Ti
0.125000 0.125000 0.241071 Ti
0.625000 0.125000 0.241071 Ti
0.125000 0.125000 0.080357 Ti
0.625000 0.125000 0.080357 Ti
0.125000 0.375000 0.026786 Ti
0.625000 0.375000 0.026786 Ti
0.125000 0.875000 0.026786 Ti
0.625000 0.875000 0.026786 Ti
0.125000 0.375000 0.187500 Ti
0.625000 0.375000 0.187500 Ti
0.125000 0.875000 0.187500 Ti
0.625000 0.875000 0.187500 Ti
0.375000 0.875000 0.107143 Ti
0.875000 0.875000 0.107143 Ti
0.374999 0.375000 0.107143 Ti
0.874999 0.375000 0.107143 Ti
0.375000 0.375000 0.267857 Ti
0.875000 0.375000 0.267857 Ti
0.375000 0.875000 0.267857 Ti
0.875000 0.875000 0.267857 Ti
0.375000 0.625000 0.160714 Ti
0.875000 0.625000 0.160714 Ti
0.375000 0.625000 -0.000000 Ti
0.875000 0.625000 -0.000000 Ti
0.375000 0.125000 0.160714 Ti
0.875000 0.125000 0.160714 Ti
0.375000 0.125000 -0.000000 Ti
0.875000 0.125000 -0.000000 Ti
