Ti96 Al1
1.0
9.513020 0.000000 0.000000
0.000000 9.350860 0.000000
0.000000 0.000000 18.547230
Ti Al
96 1
Selective dynamics
direct
0.137565 0.363538 0.404697 T T T Ti
0.648969 0.357830 0.401060 T T T Ti
0.163061 0.861693 0.397002 T T T Ti
0.680061 0.910540 0.392376 T T T Ti
0.160782 0.377204 0.236961 T T T Ti
0.663712 0.375395 0.232983 T T T Ti
0.163892 0.875687 0.235289 T T T Ti
0.660535 0.872110 0.237045 T T T Ti
0.166670 0.375001 0.077673 F F F Ti
0.666670 0.375004 0.077672 F F F Ti
0.166676 0.874996 0.077683 F F F Ti
0.666671 0.875006 0.077685 F F F Ti
0.407569 0.370423 0.310366 T T T Ti
0.903238 0.373616 0.317141 T T T Ti
0.411739 0.886594 0.320916 T T T Ti
0.916865 0.878968 0.315624 T T T Ti
0.416672 0.374986 0.155348 F F F Ti
0.916664 0.374990 0.155354 F F F Ti
0.416645 0.875010 0.155371 F F F Ti
0.916677 0.874992 0.155355 F F F Ti
0.416667 0.374999 -0.000010 F F F Ti
0.916665 0.375000 -0.000008 F F F Ti
0.416664 0.874998 -0.000004 F F F Ti
0.916670 0.874997 -0.000006 F F F Ti
0.096762 0.126384 0.317140 T T T Ti
0.592431 0.129577 0.310365 T T T Ti
0.083135 0.621032 0.315623 T T T Ti
0.588261 0.613406 0.320915 T T T Ti
0.083336 0.125011 0.155354 F F F Ti
0.583328 0.125015 0.155348 F F F Ti
0.083323 0.625009 0.155355 F F F Ti
0.583355 0.624990 0.155371 F F F Ti
0.083335 0.125001 -0.000008 F F F Ti
0.583333 0.125002 -0.000010 F F F Ti
0.083330 0.625004 -0.000006 F F F Ti
0.583336 0.625003 -0.000004 F F F Ti
0.351030 0.142170 0.401060 T T T Ti
0.862434 0.136462 0.404697 T T T Ti
0.319938 0.589460 0.392376 T T T Ti
0.836938 0.638307 0.397002 T T T Ti
0.336287 0.124605 0.232983 T T T Ti
0.839217 0.122796 0.236961 T T T Ti
0.339464 0.627890 0.237045 T T T Ti
0.836107 0.624314 0.235289 T T T Ti
0.333329 0.124997 0.077672 F F F Ti
0.833329 0.125000 0.077673 F F F Ti
0.333328 0.624994 0.077685 F F F Ti
0.833323 0.625005 0.077683 F F F Ti
0.375000 0.375001 0.823769 F F F Ti
0.874998 0.374997 0.823763 F F F Ti
0.374999 0.875004 0.823771 F F F Ti
0.874999 0.874996 0.823767 F F F Ti
0.125002 0.125003 0.823763 F F F Ti
0.625001 0.124998 0.823769 F F F Ti
0.125001 0.625004 0.823767 F F F Ti
0.625002 0.624995 0.823771 F F F Ti
0.124999 0.375001 0.910091 F F F Ti
0.625002 0.375000 0.910090 F F F Ti
0.125001 0.875001 0.910093 F F F Ti
0.625000 0.874999 0.910094 F F F Ti
0.374998 0.125000 0.910091 F F F Ti
0.875001 0.124999 0.910091 F F F Ti
0.375000 0.625000 0.910095 F F F Ti
0.875000 0.624999 0.910093 F F F Ti
0.392804 0.401978 0.652834 T T T Ti
0.899318 0.373801 0.648056 T T T Ti
0.385587 0.886963 0.651527 T T T Ti
0.879150 0.883266 0.667008 T T T Ti
0.100682 0.126199 0.648056 T T T Ti
0.607196 0.098022 0.652834 T T T Ti
0.120850 0.616733 0.667008 T T T Ti
0.614413 0.613037 0.651527 T T T Ti
0.152371 0.389322 0.566533 T T T Ti
0.647473 0.338735 0.581505 T T T Ti
0.121595 0.857868 0.582772 T T T Ti
0.649257 0.854242 0.565051 T T T Ti
0.352526 0.161265 0.581505 T T T Ti
0.847629 0.110678 0.566533 T T T Ti
0.350743 0.645758 0.565051 T T T Ti
0.878405 0.642132 0.582772 T T T Ti
0.408369 0.388112 0.489763 T T T Ti
0.894410 0.372838 0.491353 T T T Ti
0.344689 0.934249 0.501829 T T T Ti
0.912203 0.876697 0.479618 T T T Ti
0.105590 0.127162 0.491353 T T T Ti
0.591631 0.111888 0.489763 T T T Ti
0.087797 0.623303 0.479618 T T T Ti
0.655311 0.565751 0.501829 T T T Ti
0.124983 0.875014 0.737441 F F F Ti
0.625024 0.874954 0.737458 F F F Ti
0.374975 0.625044 0.737458 F F F Ti
0.875016 0.624985 0.737441 F F F Ti
0.124967 0.375002 0.737438 F F F Ti
0.625028 0.374958 0.737444 F F F Ti
0.374971 0.125040 0.737444 F F F Ti
0.875033 0.124997 0.737438 F F F Ti
0.500000 0.750000 0.448168 T T T Al

0.000000 0.000000 0.000000
0.000000 0.000000 0.000000
0.000000 0.000000 0.000000
0.000000 0.000000 0.000000
0.000000 0.000000 0.000000
0.000000 0.000000 0.000000
0.000000 0.000000 0.000000
0.000000 0.000000 0.000000
0.000000 0.000000 0.000000
0.000000 0.000000 0.000000
0.000000 0.000000 0.000000
0.000000 0.000000 0.000000
0.000000 0.000000 0.000000
0.000000 0.000000 0.000000
0.000000 0.000000 0.000000
0.000000 0.000000 0.000000
0.000000 0.000000 0.000000
0.000000 0.000000 0.000000
0.000000 0.000000 0.000000
0.000000 0.000000 0.000000
0.000000 0.000000 0.000000
0.000000 0.000000 0.000000
0.000000 0.000000 0.000000
0.000000 0.000000 0.000000
0.000000 0.000000 0.000000
0.000000 0.000000 0.000000
0.000000 0.000000 0.000000
0.000000 0.000000 0.000000
0.000000 0.000000 0.000000
0.000000 0.000000 0.000000
0.000000 0.000000 0.000000
0.000000 0.000000 0.000000
0.000000 0.000000 0.000000
0.000000 0.000000 0.000000
0.000000 0.000000 0.000000
0.000000 0.000000 0.000000
0.000000 0.000000 0.000000
0.000000 0.000000 0.000000
0.000000 0.000000 0.000000
0.000000 0.000000 0.000000
0.000000 0.000000 0.000000
0.000000 0.000000 0.000000
0.000000 0.000000 0.000000
0.000000 0.000000 0.000000
0.000000 0.000000 0.000000
0.000000 0.000000 0.000000
0.000000 0.000000 0.000000
0.000000 0.000000 0.000000
0.000000 0.000000 0.000000
0.000000 0.000000 0.000000
0.000000 0.000000 0.000000
0.000000 0.000000 0.000000
0.000000 0.000000 0.000000
0.000000 0.000000 0.000000
0.000000 0.000000 0.000000
0.000000 0.000000 0.000000
0.000000 0.000000 0.000000
0.000000 0.000000 0.000000
0.000000 0.000000 0.000000
0.000000 0.000000 0.000000
0.000000 0.000000 0.000000
0.000000 0.000000 0.000000
0.000000 0.000000 0.000000
0.000000 0.000000 0.000000
0.000000 0.000000 0.000000
0.000000 0.000000 0.000000
0.000000 0.000000 0.000000
0.000000 0.000000 0.000000
0.000000 0.000000 0.000000
0.000000 0.000000 0.000000
0.000000 0.000000 0.000000
0.000000 0.000000 0.000000
0.000000 0.000000 0.000000
0.000000 0.000000 0.000000
0.000000 0.000000 0.000000
0.000000 0.000000 0.000000
0.000000 0.000000 0.000000
0.000000 0.000000 0.000000
0.000000 0.000000 0.000000
0.000000 0.000000 0.000000
0.000000 0.000000 0.000000
0.000000 0.000000 0.000000
0.000000 0.000000 0.000000
0.000000 0.000000 0.000000
0.000000 0.000000 0.000000
0.000000 0.000000 0.000000
0.000000 0.000000 0.000000
0.000000 0.000000 0.000000
0.000000 0.000000 0.000000
0.000000 0.000000 0.000000
0.000000 0.000000 0.000000
0.000000 0.000000 0.000000
0.000000 0.000000 0.000000
0.000000 0.000000 0.000000
0.000000 0.000000 0.000000
0.000000 0.000000 0.000000
0.000000 0.000000 0.000000
