Ti36
1.0
8.805261 0.000000 0.000000
-4.402630 7.625579 0.000000
0.000000 0.000000 18.288801
Ti
36
direct
0.000000 0.000000 0.486195 Ti
1.000000 0.500000 0.486195 Ti
0.500000 0.000000 0.486195 Ti
0.500000 0.500000 0.486195 Ti
0.166667 0.333333 0.840087 Ti
0.166667 0.833333 0.840087 Ti
0.666667 0.333333 0.840087 Ti
0.666667 0.833333 0.840087 Ti
0.333333 0.166667 0.890643 Ti
0.333333 0.666667 0.890643 Ti
0.833333 0.166667 0.890643 Ti
0.833333 0.666667 0.890643 Ti
0.166667 0.333333 0.536751 Ti
0.166667 0.833333 0.536751 Ti
0.666667 0.333333 0.536751 Ti
0.666667 0.833333 0.536751 Ti
0.333333 0.166667 0.587307 Ti
0.333333 0.666667 0.587307 Ti
0.833333 0.166667 0.587307 Ti
0.833333 0.666667 0.587307 Ti
0.000000 0.000000 0.637863 Ti
1.000000 0.500000 0.637863 Ti
0.500000 0.000000 0.637863 Ti
0.500000 0.500000 0.637863 Ti
0.166667 0.333333 0.688419 Ti
0.166667 0.833333 0.688419 Ti
0.666667 0.333333 0.688419 Ti
0.666667 0.833333 0.688419 Ti
0.333333 0.166667 0.738975 Ti
0.333333 0.666667 0.738975 Ti
0.833333 0.166667 0.738975 Ti
0.833333 0.666667 0.738975 Ti
0.000000 0.000000 0.789531 Ti
1.000000 0.500000 0.789531 Ti
0.500000 0.000000 0.789531 Ti
0.500000 0.500000 0.789531 Ti

0.000000 0.000000 0.000000
0.000000 0.000000 0.000000
0.000000 0.000000 0.000000
0.000000 0.000000 0.000000
0.000000 0.000000 0.000000
0.000000 0.000000 0.000000
0.000000 0.000000 0.000000
0.000000 0.000000 0.000000
0.000000 0.000000 0.000000
0.000000 0.000000 0.000000
0.000000 0.000000 0.000000
0.000000 0.000000 0.000000
0.000000 0.000000 0.000000
0.000000 0.000000 0.000000
0.000000 0.000000 0.000000
0.000000 0.000000 0.000000
0.000000 0.000000 0.000000
0.000000 0.000000 0.000000
0.000000 0.000000 0.000000
0.000000 0.000000 0.000000
0.000000 0.000000 0.000000
0.000000 0.000000 0.000000
0.000000 0.000000 0.000000
0.000000 0.000000 0.000000
0.000000 0.000000 0.000000
0.000000 0.000000 0.000000
0.000000 0.000000 0.000000
0.000000 0.000000 0.000000
0.000000 0.000000 0.000000
0.000000 0.000000 0.000000
0.000000 0.000000 0.000000
0.000000 0.000000 0.000000
0.000000 0.000000 0.000000
0.000000 0.000000 0.000000
0.000000 0.000000 0.000000
0.000000 0.000000 0.000000
