Ti72
1.0
8.805261 0.000000 0.000000
-4.402630 7.625579 0.000000
0.000000 0.000000 18.288801
Ti
72
direct
0.000000 0.000000 0.486195 Ti
1.000000 0.500000 0.486195 Ti
0.500000 0.000000 0.486195 Ti
0.500000 0.500000 0.486195 Ti
0.166667 0.333333 0.840087 Ti
0.166667 0.833333 0.840087 Ti
0.666667 0.333333 0.840087 Ti
0.666667 0.833333 0.840087 Ti
0.333333 0.166667 0.890643 Ti
0.333333 0.666667 0.890643 Ti
0.833333 0.166667 0.890643 Ti
0.833333 0.666667 0.890643 Ti
0.166667 0.333333 0.536751 Ti
0.166667 0.833333 0.536751 Ti
0.666667 0.333333 0.536751 Ti
0.666667 0.833333 0.536751 Ti
0.333333 0.166667 0.587307 Ti
0.333333 0.666667 0.587307 Ti
0.833333 0.166667 0.587307 Ti
0.833333 0.666667 0.587307 Ti
0.000000 0.000000 0.637863 Ti
1.000000 0.500000 0.637863 Ti
0.500000 0.000000 0.637863 Ti
0.500000 0.500000 0.637863 Ti
0.166667 0.333333 0.688419 Ti
0.166667 0.833333 0.688419 Ti
0.666667 0.333333 0.688419 Ti
0.666667 0.833333 0.688419 Ti
0.333333 0.166667 0.738975 Ti
0.333333 0.666667 0.738975 Ti
0.833333 0.166667 0.738975 Ti
0.833333 0.666667 0.738975 Ti
0.000000 0.000000 0.789531 Ti
1.000000 0.500000 0.789531 Ti
0.500000 0.000000 0.789531 Ti
0.500000 0.500000 0.789531 Ti
0.111111 0.888889 -0.000000 Ti
0.111111 0.888889 0.251226 Ti
0.111111 0.555556 -0.000000 Ti
0.222222 0.777778 0.125613 Ti
0.111111 0.555556 0.251226 Ti
0.444444 0.888889 -0.000000 Ti
0.111111 0.222222 -0.000000 Ti
0.222222 0.777778 0.376839 Ti
0.222222 0.444444 0.125613 Ti
0.444444 0.888889 0.251226 Ti
0.111111 0.222222 0.251226 Ti
0.444444 0.555556 -0.000000 Ti
0.222222 0.444444 0.376839 Ti
0.555556 0.777778 0.125613 Ti
0.222222 0.111111 0.125613 Ti
0.444444 0.555556 0.251226 Ti
0.777778 0.888889 -0.000000 Ti
0.444444 0.222222 -0.000000 Ti
0.555556 0.777778 0.376839 Ti
0.222222 0.111111 0.376839 Ti
0.555556 0.444444 0.125613 Ti
0.777778 0.888889 0.251226 Ti
0.444444 0.222222 0.251226 Ti
0.777778 0.555556 -0.000000 Ti
0.555556 0.444444 0.376839 Ti
0.888889 0.777778 0.125613 Ti
0.555556 0.111111 0.125613 Ti
0.777778 0.555556 0.251226 Ti
0.777778 0.222222 -0.000000 Ti
0.888889 0.777778 0.376839 Ti
0.555556 0.111111 0.376839 Ti
0.888889 0.444444 0.125613 Ti
0.777778 0.222222 0.251226 Ti
0.888889 0.444444 0.376839 Ti
0.888889 0.111111 0.125613 Ti
0.888889 0.111111 0.376839 Ti

0.000000 0.000000 0.000000
0.000000 0.000000 0.000000
0.000000 0.000000 0.000000
0.000000 0.000000 0.000000
0.000000 0.000000 0.000000
0.000000 0.000000 0.000000
0.000000 0.000000 0.000000
0.000000 0.000000 0.000000
0.000000 0.000000 0.000000
0.000000 0.000000 0.000000
0.000000 0.000000 0.000000
0.000000 0.000000 0.000000
0.000000 0.000000 0.000000
0.000000 0.000000 0.000000
0.000000 0.000000 0.000000
0.000000 0.000000 0.000000
0.000000 0.000000 0.000000
0.000000 0.000000 0.000000
0.000000 0.000000 0.000000
0.000000 0.000000 0.000000
0.000000 0.000000 0.000000
0.000000 0.000000 0.000000
0.000000 0.000000 0.000000
0.000000 0.000000 0.000000
0.000000 0.000000 0.000000
0.000000 0.000000 0.000000
0.000000 0.000000 0.000000
0.000000 0.000000 0.000000
0.000000 0.000000 0.000000
0.000000 0.000000 0.000000
0.000000 0.000000 0.000000
0.000000 0.000000 0.000000
0.000000 0.000000 0.000000
0.000000 0.000000 0.000000
0.000000 0.000000 0.000000
0.000000 0.000000 0.000000
0.000000 0.000000 0.000000
0.000000 0.000000 0.000000
0.000000 0.000000 0.000000
0.000000 0.000000 0.000000
0.000000 0.000000 0.000000
0.000000 0.000000 0.000000
0.000000 0.000000 0.000000
0.000000 0.000000 0.000000
0.000000 0.000000 0.000000
0.000000 0.000000 0.000000
0.000000 0.000000 0.000000
0.000000 0.000000 0.000000
0.000000 0.000000 0.000000
0.000000 0.000000 0.000000
0.000000 0.000000 0.000000
0.000000 0.000000 0.000000
0.000000 0.000000 0.000000
0.000000 0.000000 0.000000
0.000000 0.000000 0.000000
0.000000 0.000000 0.000000
0.000000 0.000000 0.000000
0.000000 0.000000 0.000000
0.000000 0.000000 0.000000
0.000000 0.000000 0.000000
0.000000 0.000000 0.000000
0.000000 0.000000 0.000000
0.000000 0.000000 0.000000
0.000000 0.000000 0.000000
0.000000 0.000000 0.000000
0.000000 0.000000 0.000000
0.000000 0.000000 0.000000
0.000000 0.000000 0.000000
0.000000 0.000000 0.000000
0.000000 0.000000 0.000000
0.000000 0.000000 0.000000
0.000000 0.000000 0.000000
