Ti66 Sn1
1.0
6.309760 0.000000 0.000000
0.000000 9.464640 0.000000
0.000000 0.000000 18.918326
Ti Sn
66 1
Selective dynamics
direct
0.119625 0.038587 0.500674 F F F Ti
0.628667 0.039513 0.500537 F F F Ti
0.125506 0.041443 0.659277 F F F Ti
0.623781 0.041646 0.659297 F F F Ti
0.125166 0.041791 0.817720 F F F Ti
0.624771 0.041840 0.817697 F F F Ti
0.096093 0.379869 0.505046 F F F Ti
0.658143 0.384644 0.506241 F F F Ti
0.124517 0.375255 0.659563 F F F Ti
0.624495 0.375548 0.660155 F F F Ti
0.124999 0.375045 0.817714 F F F Ti
0.624660 0.375035 0.817840 F F F Ti
0.124522 0.708571 0.500665 F F F Ti
0.623841 0.710090 0.500696 F F F Ti
0.126145 0.709432 0.659721 F F F Ti
0.622999 0.709732 0.659845 F F F Ti
0.125071 0.708609 0.817858 F F F Ti
0.624628 0.708658 0.817884 F F F Ti
0.873195 0.205579 0.581609 F F F Ti
0.374751 0.208428 0.738289 F F F Ti
0.874892 0.208171 0.738757 F F F Ti
0.374986 0.208352 0.896795 F F F Ti
0.874952 0.208356 0.896851 F F F Ti
0.374343 0.542049 0.580159 F F F Ti
0.874881 0.547626 0.582843 F F F Ti
0.374785 0.541933 0.738637 F F F Ti
0.874870 0.542299 0.739081 F F F Ti
0.374974 0.541652 0.896885 F F F Ti
0.874973 0.541669 0.896935 F F F Ti
0.374670 0.875487 0.579720 F F F Ti
0.874317 0.874350 0.580396 F F F Ti
0.374767 0.875483 0.738590 F F F Ti
0.874814 0.875312 0.738667 F F F Ti
0.375050 0.875122 0.896890 F F F Ti
0.874930 0.875099 0.896897 F F F Ti
0.124711 0.623430 0.357381 F F F Ti
0.624852 0.624732 0.356890 F F F Ti
0.125272 0.624629 0.119135 F F F Ti
0.624849 0.624627 0.119128 F F F Ti
0.117035 0.119998 0.356082 F F F Ti
0.635460 0.118420 0.354931 F F F Ti
0.125414 0.124666 0.118907 F F F Ti
0.624794 0.124650 0.118882 F F F Ti
0.125201 0.374867 0.039921 F F F Ti
0.624791 0.374884 0.039928 F F F Ti
0.125090 0.874821 0.039779 F F F Ti
0.624823 0.874798 0.039775 F F F Ti
0.124484 0.373718 0.277933 F F F Ti
0.626029 0.374035 0.277004 F F F Ti
0.124651 0.873165 0.277366 F F F Ti
0.625013 0.872774 0.277015 F F F Ti
0.374912 0.874312 0.158542 F F F Ti
0.875217 0.874197 0.158359 F F F Ti
0.374841 0.374480 0.158849 F F F Ti
0.875559 0.374727 0.158541 F F F Ti
0.868611 0.374356 0.395917 F F F Ti
0.374480 0.873510 0.396523 F F F Ti
0.874324 0.871790 0.396551 F F F Ti
0.374613 0.623834 0.238185 F F F Ti
0.875420 0.624086 0.237896 F F F Ti
0.374952 0.624780 0.000390 F F F Ti
0.874876 0.624843 0.000379 F F F Ti
0.374908 0.123813 0.237916 F F F Ti
0.876101 0.123945 0.236895 F F F Ti
0.375026 0.125007 0.000291 F F F Ti
0.874878 0.124953 0.000279 F F F Ti
0.386031 0.316486 0.432612 T T T Sn

0.000000 0.000000 0.000000
0.000000 0.000000 0.000000
0.000000 0.000000 0.000000
0.000000 0.000000 0.000000
0.000000 0.000000 0.000000
0.000000 0.000000 0.000000
0.000000 0.000000 0.000000
0.000000 0.000000 0.000000
0.000000 0.000000 0.000000
0.000000 0.000000 0.000000
0.000000 0.000000 0.000000
0.000000 0.000000 0.000000
0.000000 0.000000 0.000000
0.000000 0.000000 0.000000
0.000000 0.000000 0.000000
0.000000 0.000000 0.000000
0.000000 0.000000 0.000000
0.000000 0.000000 0.000000
0.000000 0.000000 0.000000
0.000000 0.000000 0.000000
0.000000 0.000000 0.000000
0.000000 0.000000 0.000000
0.000000 0.000000 0.000000
0.000000 0.000000 0.000000
0.000000 0.000000 0.000000
0.000000 0.000000 0.000000
0.000000 0.000000 0.000000
0.000000 0.000000 0.000000
0.000000 0.000000 0.000000
0.000000 0.000000 0.000000
0.000000 0.000000 0.000000
0.000000 0.000000 0.000000
0.000000 0.000000 0.000000
0.000000 0.000000 0.000000
0.000000 0.000000 0.000000
0.000000 0.000000 0.000000
0.000000 0.000000 0.000000
0.000000 0.000000 0.000000
0.000000 0.000000 0.000000
0.000000 0.000000 0.000000
0.000000 0.000000 0.000000
0.000000 0.000000 0.000000
0.000000 0.000000 0.000000
0.000000 0.000000 0.000000
0.000000 0.000000 0.000000
0.000000 0.000000 0.000000
0.000000 0.000000 0.000000
0.000000 0.000000 0.000000
0.000000 0.000000 0.000000
0.000000 0.000000 0.000000
0.000000 0.000000 0.000000
0.000000 0.000000 0.000000
0.000000 0.000000 0.000000
0.000000 0.000000 0.000000
0.000000 0.000000 0.000000
0.000000 0.000000 0.000000
0.000000 0.000000 0.000000
0.000000 0.000000 0.000000
0.000000 0.000000 0.000000
0.000000 0.000000 0.000000
0.000000 0.000000 0.000000
0.000000 0.000000 0.000000
0.000000 0.000000 0.000000
0.000000 0.000000 0.000000
0.000000 0.000000 0.000000
0.000000 0.000000 0.000000
0.000000 0.000000 0.000000
