Optimistic_Structure
1.0
4.756512 0.000000 0.000000
0.000000 4.675432 0.000000
0.000000 0.000000 20.344252
Ti Sn
22 1
Selective dynamics
direct
0.333333 0.750000 0.354134 T T T Ti
0.333333 0.750000 0.212481 T T T Ti
0.333333 0.750000 0.070827 F F F Ti
0.833334 0.750000 0.283308 T T T Ti
0.833334 0.750000 0.141654 T T T Ti
0.833334 0.750000 -0.000000 F F F Ti
0.166666 0.250000 0.141654 T T T Ti
0.166666 0.250000 -0.000000 F F F Ti
0.666667 0.250000 0.354134 T T T Ti
0.666667 0.250000 0.212481 T T T Ti
0.666667 0.250000 0.070827 F F F Ti
0.666667 0.750000 0.873862 F F F Ti
0.166667 0.250000 0.873862 F F F Ti
0.166667 0.750000 0.795145 F F F Ti
0.666667 0.250000 0.795145 F F F Ti
0.666667 0.750000 0.716427 T T T Ti
0.166667 0.250000 0.716427 T T T Ti
0.166667 0.750000 0.637710 T T T Ti
0.666667 0.250000 0.637710 T T T Ti
0.666667 0.750000 0.558992 T T T Ti
0.166667 0.250000 0.558992 T T T Ti
0.666667 0.250000 0.480275 T T T Ti
0.166666 0.250000 0.283307 T T T Sn
