total_Ti
1.0
9.445957 0.000000 0.000000
0.000000 9.093951 0.000000
0.000000 0.000000 18.191864
Ti
96
direct
0.166666 0.375000 0.396034 Ti
0.666666 0.375000 0.396034 Ti
0.166666 0.875000 0.396034 Ti
0.666666 0.875000 0.396034 Ti
0.166666 0.375000 0.237621 Ti
0.666666 0.375000 0.237621 Ti
0.166666 0.875000 0.237621 Ti
0.666666 0.875000 0.237621 Ti
0.166666 0.375000 0.079207 Ti
0.666666 0.375000 0.079207 Ti
0.166666 0.875000 0.079207 Ti
0.666666 0.875000 0.079207 Ti
0.416667 0.375000 0.316828 Ti
0.916667 0.375000 0.316828 Ti
0.416667 0.875000 0.316828 Ti
0.916667 0.875000 0.316828 Ti
0.416667 0.375000 0.158414 Ti
0.916667 0.375000 0.158414 Ti
0.416667 0.875000 0.158414 Ti
0.916667 0.875000 0.158414 Ti
0.416667 0.375000 -0.000000 Ti
0.916667 0.375000 -0.000000 Ti
0.416667 0.875000 -0.000000 Ti
0.916667 0.875000 -0.000000 Ti
0.083333 0.125000 0.316827 Ti
0.583333 0.125000 0.316827 Ti
0.083333 0.625000 0.316827 Ti
0.583333 0.625000 0.316827 Ti
0.083333 0.125000 0.158414 Ti
0.583333 0.125000 0.158414 Ti
0.083333 0.625000 0.158414 Ti
0.583333 0.625000 0.158414 Ti
0.083333 0.125000 -0.000000 Ti
0.583333 0.125000 -0.000000 Ti
0.083333 0.625000 -0.000000 Ti
0.583333 0.625000 -0.000000 Ti
0.333333 0.125000 0.396034 Ti
0.833333 0.125000 0.396034 Ti
0.333333 0.625000 0.396034 Ti
0.833333 0.625000 0.396034 Ti
0.333333 0.125000 0.237621 Ti
0.833333 0.125000 0.237621 Ti
0.333333 0.625000 0.237621 Ti
0.833333 0.625000 0.237621 Ti
0.333333 0.125000 0.079207 Ti
0.833333 0.125000 0.079207 Ti
0.333333 0.625000 0.079207 Ti
0.833333 0.625000 0.079207 Ti
0.375000 0.375000 0.830062 Ti
0.875000 0.375000 0.830062 Ti
0.375000 0.875000 0.830062 Ti
0.875000 0.875000 0.830062 Ti
0.125000 0.125000 0.830062 Ti
0.625000 0.125000 0.830062 Ti
0.125000 0.625000 0.830062 Ti
0.625000 0.625000 0.830062 Ti
0.125000 0.375000 0.918094 Ti
0.625000 0.375000 0.918094 Ti
0.125000 0.875000 0.918094 Ti
0.625000 0.875000 0.918094 Ti
0.375000 0.125000 0.918094 Ti
0.875000 0.125000 0.918094 Ti
0.375000 0.625000 0.918094 Ti
0.875000 0.625000 0.918094 Ti
0.375000 0.375000 0.654000 Ti
0.875000 0.375000 0.654000 Ti
0.375000 0.875000 0.654000 Ti
0.875000 0.875000 0.654000 Ti
0.125000 0.125000 0.654000 Ti
0.625000 0.125000 0.654000 Ti
0.125000 0.625000 0.654000 Ti
0.625000 0.625000 0.654000 Ti
0.125000 0.375000 0.565970 Ti
0.625000 0.375000 0.565970 Ti
0.125000 0.875000 0.565970 Ti
0.625000 0.875000 0.565970 Ti
0.375000 0.125000 0.565970 Ti
0.875000 0.125000 0.565970 Ti
0.375000 0.625000 0.565970 Ti
0.875000 0.625000 0.565970 Ti
0.375000 0.375000 0.477938 Ti
0.875000 0.375000 0.477938 Ti
0.375000 0.875000 0.477938 Ti
0.875000 0.875000 0.477938 Ti
0.125000 0.125000 0.477938 Ti
0.625000 0.125000 0.477938 Ti
0.125000 0.625000 0.477938 Ti
0.625000 0.625000 0.477938 Ti
0.125000 0.875000 0.742032 Ti
0.625000 0.875000 0.742032 Ti
0.375000 0.625000 0.742032 Ti
0.875000 0.625000 0.742032 Ti
0.125000 0.375000 0.742032 Ti
0.625000 0.375000 0.742032 Ti
0.375000 0.125000 0.742032 Ti
0.875000 0.125000 0.742032 Ti
