total_structure
1.0
   3.5061499999999999    0.0000000000000000    0.0000000000000002
   0.0000000000000019   12.0001999999999995    0.0000000000000007
   0.0000000000000000    0.0000000000000000   26.9316049620000051
Cr Fe N W
12 36 16 4
Selective dynamics
direct
   0.5000000000000000    0.1250000000000000    0.1556086583370404 F F F Cr
   0.5000000000000000    0.3750000000000000    0.1556086583370404 F F F Cr
   0.0000000000000000    0.0000000000000000    0.0778093214257655 F F F Cr
  -0.0000000000000000    0.2500000000000000    0.0778093214257655 F F F Cr
   0.5000000000000000    0.1250000000000000   -0.0000000000000000 F F F Cr
   0.5000000000000000    0.3750000000000000   -0.0000000000000000 F F F Cr
   0.5000000000000000    0.6250000000000000    0.1556086583370404 F F F Cr
   0.4999999999999998    0.8749999999999999    0.1556086583370404 F F F Cr
  -0.0000000000000000    0.5000000000000000    0.0778093214257655 F F F Cr
  -0.0000000000000000    0.7500000000000000    0.0778093214257655 F F F Cr
   0.5000000000000000    0.6250000000000000   -0.0000000000000000 F F F Cr
   0.4999999999999998    0.8749999999999999   -0.0000000000000000 F F F Cr
   0.9933200000000000    0.7184400000000000    0.6286858906065963 F F F Fe
   0.4933200000000000    0.5543100000000000    0.6157958823991456 F F F Fe
   0.4933200000000000    0.7391600000000000    0.5763370811320307 F F F Fe
   0.9933200000000000    0.5750200000000000    0.5634470729245802 F F F Fe
   0.9933200000000002    0.3901700000000000    0.6028958896772043 F F F Fe
   0.4933200000000000    0.2260400000000000    0.5900058814697535 F F F Fe
   0.4933200000000000    0.4108899999999999    0.5505470802026387 F F F Fe
   0.9933200000000002    0.2467500000000000    0.5376570719951880 F F F Fe
   0.9933200000000000    0.0619000000000000    0.5771058887478121 F F F Fe
   0.4933200000000000    0.8977699999999998    0.5642158805403614 F F F Fe
   0.4933200000000000    0.0826200000000000    0.5247570792732467 F F F Fe
   0.9933200000000000    0.9184800000000000    0.5118670710657959 F F F Fe
   0.9933200000000000    0.7598700000000000    0.5239982561719559 F F F Fe
   0.4933200000000000    0.5957300000000000    0.5110982634500146 F F F Fe
   0.4933200000000000    0.7805800000000001    0.4716494466973906 F F F Fe
   0.9933200000000002    0.6164500000000001    0.4587494539754492 F F F Fe
   0.9933200000000002    0.4315999999999999    0.4982082552425639 F F F Fe
   0.4933200000000000    0.2674600000000000    0.4853082625206225 F F F Fe
   0.4933200000000000    0.4523100000000000    0.4458594457679985 F F F Fe
   0.9933200000000002    0.2881800000000000    0.4329594530460571 F F F Fe
   0.9933199999999998    0.1033300000000000    0.4724182543131719 F F F Fe
   0.4933200000000000    0.9391999999999999    0.4595182615912303 F F F Fe
   0.4933200000000000    0.1240400000000000    0.4200694448386064 F F F Fe
   0.9933200000000000    0.9599100000000000    0.4071694521166649 F F F Fe
   0.9933200000000000    0.8013000000000000    0.4193006372228250 F F F Fe
   0.4933200000000000    0.6371599999999998    0.4064106290153744 F F F Fe
   0.4933200000000000    0.8220099999999999    0.3669518277482596 F F F Fe
   0.9933200000000002    0.6578799999999999    0.3540618195408090 F F F Fe
   0.9933200000000002    0.4730300000000000    0.3935106362934330 F F F Fe
   0.4933200000000000    0.3088900000000000    0.3806206280859823 F F F Fe
   0.4933200000000000    0.4937400000000000    0.3411618268188675 F F F Fe
   0.9933200000000000    0.3296100000000000    0.3282718186114169 F F F Fe
   0.9933200000000002    0.1447600000000000    0.3677206353640409 F F F Fe
   0.4933200000000000    0.9806200000000000    0.3548306271565901 F F F Fe
   0.4933200000000000    0.1654700000000000    0.3153718258894754 F F F Fe
   0.9933200000000000    0.0013400000000000    0.3024818176820248 F F F Fe
   0.5000000000000000    0.1250000000000000    0.2334179797628059 F F F N
   0.5000000000000000    0.3750000000000000    0.2334179797628058 F F F N
   0.0000000000000000    0.0000000000000000    0.1556086583370404 F F F N
  -0.0000000000000000    0.2500000000000000    0.1556086583370404 F F F N
   0.5000000000000000    0.1250000000000000    0.0778093214257655 F F F N
   0.5000000000000000    0.3750000000000000    0.0778093214257655 F F F N
   0.0000000000000000    0.0000000000000000    0.0000000000000000 F F F N
  -0.0000000000000000    0.2500000000000000   -0.0000000000000000 F F F N
   0.5000000000000000    0.6250000000000000    0.2334179797628059 F F F N
   0.4999999999999998    0.8749999999999999    0.2334179797628059 F F F N
  -0.0000000000000000    0.5000000000000000    0.1556086583370404 F F F N
  -0.0000000000000000    0.7500000000000000    0.1556086583370404 F F F N
   0.5000000000000000    0.6250000000000000    0.0778093214257655 F F F N
   0.4999999999999998    0.8749999999999999    0.0778093214257655 F F F N
  -0.0000000000000000    0.5000000000000000   -0.0000000000000000 F F F N
  -0.0000000000000000    0.7500000000000000   -0.0000000000000000 F F F N
   0.0000000000000000    0.0000000000000000    0.2334179797628059 F F F W
  -0.0000000000000000    0.2500000000000000    0.2334179797628059 F F F W
  -0.0000000000000000    0.5000000000000000    0.2334179797628059 F F F W
  -0.0000000000000000    0.7500000000000000    0.2334179797628059 F F F W
