Ti67
1.0
6.309760 0.000000 0.000000
0.000000 9.464640 0.000000
0.000000 0.000000 18.918326
Ti
67
Selective dynamics
direct
0.120262 0.039025 0.500698 F F F Ti
0.628166 0.040155 0.500564 F F F Ti
0.125756 0.041356 0.659422 F F F Ti
0.623757 0.041568 0.659411 F F F Ti
0.125211 0.041777 0.817797 F F F Ti
0.624773 0.041831 0.817770 F F F Ti
0.093908 0.378283 0.505436 F F F Ti
0.660784 0.383200 0.506951 F F F Ti
0.124599 0.375238 0.659626 F F F Ti
0.624474 0.375553 0.660278 F F F Ti
0.125018 0.375133 0.817771 F F F Ti
0.624647 0.375119 0.817909 F F F Ti
0.125204 0.708066 0.500633 F F F Ti
0.623813 0.709855 0.500705 F F F Ti
0.126581 0.709438 0.659635 F F F Ti
0.622791 0.709780 0.659741 F F F Ti
0.125134 0.708658 0.817867 F F F Ti
0.624586 0.708714 0.817886 F F F Ti
0.873314 0.204945 0.582028 F F F Ti
0.374783 0.208476 0.738386 F F F Ti
0.874923 0.208183 0.738889 F F F Ti
0.374995 0.208400 0.896852 F F F Ti
0.874974 0.208397 0.896909 F F F Ti
0.374396 0.541358 0.579975 F F F Ti
0.875224 0.547784 0.582948 F F F Ti
0.374803 0.541978 0.738619 F F F Ti
0.874936 0.542426 0.739110 F F F Ti
0.374960 0.541752 0.896936 F F F Ti
0.874931 0.541780 0.896987 F F F Ti
0.374848 0.876152 0.579540 F F F Ti
0.874811 0.874586 0.580279 F F F Ti
0.374821 0.875551 0.738576 F F F Ti
0.874835 0.875290 0.738662 F F F Ti
0.375071 0.875139 0.896939 F F F Ti
0.874983 0.875112 0.896942 F F F Ti
0.125267 0.623118 0.357582 F F F Ti
0.624452 0.624748 0.357084 F F F Ti
0.125230 0.624802 0.119218 F F F Ti
0.624827 0.624779 0.119201 F F F Ti
0.117202 0.120488 0.356141 F F F Ti
0.634560 0.118881 0.355119 F F F Ti
0.125213 0.124655 0.118922 F F F Ti
0.624747 0.124667 0.118824 F F F Ti
0.125219 0.374946 0.039893 F F F Ti
0.624811 0.374963 0.039899 F F F Ti
0.125081 0.874878 0.039896 F F F Ti
0.624789 0.874853 0.039871 F F F Ti
0.123383 0.373825 0.277565 F F F Ti
0.626680 0.374225 0.276572 F F F Ti
0.124916 0.873670 0.277615 F F F Ti
0.624715 0.873247 0.277326 F F F Ti
0.374885 0.874464 0.158715 F F F Ti
0.875037 0.874314 0.158552 F F F Ti
0.374722 0.374589 0.158742 F F F Ti
0.875609 0.374843 0.158394 F F F Ti
0.867407 0.374331 0.395873 F F F Ti
0.374594 0.875348 0.396750 F F F Ti
0.875076 0.872416 0.396713 F F F Ti
0.374554 0.623977 0.238302 F F F Ti
0.875252 0.624386 0.238067 F F F Ti
0.374925 0.624889 0.000449 F F F Ti
0.874885 0.624965 0.000437 F F F Ti
0.374694 0.123924 0.237801 F F F Ti
0.874717 0.123966 0.236941 F F F Ti
0.375009 0.124995 0.000315 F F F Ti
0.875069 0.124931 0.000306 F F F Ti
0.386400 0.336084 0.431888 T T T Ti

0.000000 0.000000 0.000000
0.000000 0.000000 0.000000
0.000000 0.000000 0.000000
0.000000 0.000000 0.000000
0.000000 0.000000 0.000000
0.000000 0.000000 0.000000
0.000000 0.000000 0.000000
0.000000 0.000000 0.000000
0.000000 0.000000 0.000000
0.000000 0.000000 0.000000
0.000000 0.000000 0.000000
0.000000 0.000000 0.000000
0.000000 0.000000 0.000000
0.000000 0.000000 0.000000
0.000000 0.000000 0.000000
0.000000 0.000000 0.000000
0.000000 0.000000 0.000000
0.000000 0.000000 0.000000
0.000000 0.000000 0.000000
0.000000 0.000000 0.000000
0.000000 0.000000 0.000000
0.000000 0.000000 0.000000
0.000000 0.000000 0.000000
0.000000 0.000000 0.000000
0.000000 0.000000 0.000000
0.000000 0.000000 0.000000
0.000000 0.000000 0.000000
0.000000 0.000000 0.000000
0.000000 0.000000 0.000000
0.000000 0.000000 0.000000
0.000000 0.000000 0.000000
0.000000 0.000000 0.000000
0.000000 0.000000 0.000000
0.000000 0.000000 0.000000
0.000000 0.000000 0.000000
0.000000 0.000000 0.000000
0.000000 0.000000 0.000000
0.000000 0.000000 0.000000
0.000000 0.000000 0.000000
0.000000 0.000000 0.000000
0.000000 0.000000 0.000000
0.000000 0.000000 0.000000
0.000000 0.000000 0.000000
0.000000 0.000000 0.000000
0.000000 0.000000 0.000000
0.000000 0.000000 0.000000
0.000000 0.000000 0.000000
0.000000 0.000000 0.000000
0.000000 0.000000 0.000000
0.000000 0.000000 0.000000
0.000000 0.000000 0.000000
0.000000 0.000000 0.000000
0.000000 0.000000 0.000000
0.000000 0.000000 0.000000
0.000000 0.000000 0.000000
0.000000 0.000000 0.000000
0.000000 0.000000 0.000000
0.000000 0.000000 0.000000
0.000000 0.000000 0.000000
0.000000 0.000000 0.000000
0.000000 0.000000 0.000000
0.000000 0.000000 0.000000
0.000000 0.000000 0.000000
0.000000 0.000000 0.000000
0.000000 0.000000 0.000000
0.000000 0.000000 0.000000
0.000000 0.000000 0.000000
