alpha_Ti
1.0
4.756510 0.000000 0.000000
0.000000 4.675430 0.000000
0.000000 0.000000 21.111761
Ti
12
direct
0.333333 0.750000 0.341260 Ti
0.333333 0.750000 0.204756 Ti
0.333333 0.750000 0.068252 Ti
0.833334 0.750000 0.273008 Ti
0.833334 0.750000 0.136504 Ti
0.833334 0.750000 -0.000000 Ti
0.166666 0.250000 0.273007 Ti
0.166666 0.250000 0.136504 Ti
0.166666 0.250000 -0.000000 Ti
0.666667 0.250000 0.341260 Ti
0.666667 0.250000 0.204756 Ti
0.666667 0.250000 0.068252 Ti
