beta_Ti
1.0
4.756510 0.000000 0.000000
0.000000 4.675430 0.000000
0.000000 0.000000 21.111761
Ti
12
direct
0.750000 0.750000 0.860270 Ti
0.250000 0.250000 0.860270 Ti
0.250000 0.750000 0.784415 Ti
0.750000 0.250000 0.784415 Ti
0.750000 0.750000 0.708559 Ti
0.250000 0.250000 0.708559 Ti
0.250000 0.750000 0.632704 Ti
0.750000 0.250000 0.632704 Ti
0.750000 0.750000 0.556847 Ti
0.250000 0.250000 0.556847 Ti
0.250000 0.750000 0.480992 Ti
0.750000 0.250000 0.480992 Ti
