beta_Ti
1.0
6.391540 0.000000 0.000000
0.000000 9.587310 0.000000
0.000000 0.000000 26.750000
Ti
36
direct
0.125000 0.083333 0.570093 Ti
0.625000 0.083333 0.570093 Ti
0.125000 0.083333 0.682243 Ti
0.625000 0.083333 0.682243 Ti
0.125000 0.083333 0.794393 Ti
0.625000 0.083333 0.794393 Ti
0.125000 0.416667 0.570093 Ti
0.625000 0.416667 0.570093 Ti
0.125000 0.416667 0.682243 Ti
0.625000 0.416667 0.682243 Ti
0.125000 0.416667 0.794393 Ti
0.625000 0.416667 0.794393 Ti
0.125000 0.750000 0.570093 Ti
0.625000 0.750000 0.570093 Ti
0.125000 0.750000 0.682243 Ti
0.625000 0.750000 0.682243 Ti
0.125000 0.750000 0.794393 Ti
0.625000 0.750000 0.794393 Ti
0.375000 0.250000 0.626168 Ti
0.875000 0.250000 0.626168 Ti
0.375000 0.250000 0.738318 Ti
0.875000 0.250000 0.738318 Ti
0.375000 0.250000 0.850467 Ti
0.875000 0.250000 0.850467 Ti
0.375000 0.583333 0.626168 Ti
0.875000 0.583333 0.626168 Ti
0.375000 0.583333 0.738318 Ti
0.875000 0.583333 0.738318 Ti
0.375000 0.583333 0.850467 Ti
0.875000 0.583333 0.850467 Ti
0.375000 0.916667 0.626168 Ti
0.875000 0.916667 0.626168 Ti
0.375000 0.916667 0.738318 Ti
0.875000 0.916667 0.738318 Ti
0.375000 0.916667 0.850467 Ti
0.875000 0.916667 0.850467 Ti
