substance_bottem
1.0
   3.5062000000000002    0.0000000000000000    0.0000000000000002
   0.0000000000000019   12.0001999999999995    0.0000000000000007
   0.0000000000000000    0.0000000000000000   30.8249410620000006
Cr N
24 24
Selective dynamics
direct
   0.1440500000000000    0.0017200000000000    0.3818491661452118 T T T Cr
   0.6440500000000000    0.3767200000000000    0.3085710614942813 T T T Cr
   0.6440500000000000    0.1267200000000000    0.3085710614942813 T T T Cr
   0.1440500000000000    0.2517200000000000    0.3818491661452118 T T T Cr
   0.1440500000000000    0.0017200000000000    0.2352929568433509 T T T Cr
   0.6440500000000000    0.3767200000000000    0.1620242552598721 F F F Cr
   0.6440500000000000    0.1267200000000000    0.1620242552598721 F F F Cr
   0.1440500000000000    0.2517200000000000    0.2352929568433509 T T T Cr
   0.1440500000000000    0.5017199999999999    0.3818491661452118 T T T Cr
   0.6440500000000000    0.8767200000000001    0.3085710614942813 T T T Cr
   0.6440500000000000    0.6267199999999999    0.3085710614942813 T T T Cr
   0.1440500000000000    0.7517199999999999    0.3818491661452118 T T T Cr
   0.1440500000000000    0.5017199999999999    0.2352929568433509 T T T Cr
   0.6440500000000000    0.8767200000000001    0.1620242552598721 F F F Cr
   0.6440500000000000    0.6267199999999999    0.1620242552598721 F F F Cr
   0.1440500000000000    0.7517199999999999    0.2352929568433509 T T T Cr
   0.1275900000000000    0.0033700000000000    0.0888589874183617 F F F Cr
   0.6275900000000000    0.3783700000000000    0.0155808827674313 F F F Cr
   0.6275900000000000    0.1283700000000000    0.0155808827674313 F F F Cr
   0.1275900000000000    0.2533700000000000    0.0888589874183617 F F F Cr
   0.1275900000000000    0.5033700000000000    0.0888589874183617 F F F Cr
   0.6275900000000000    0.8783700000000000    0.0155808827674313 F F F Cr
   0.6275900000000000    0.6283700000000000    0.0155808827674313 F F F Cr
   0.1275900000000000    0.7533699999999999    0.0888589874183617 F F F Cr
   0.6440500000000000    0.3767200000000000    0.3818491661452118 T T T N
   0.1440500000000000    0.0017200000000000    0.3085710614942813 T T T N
   0.1440500000000000    0.2517200000000000    0.3085710614942813 T T T N
   0.6440500000000000    0.1267200000000000    0.3818491661452118 T T T N
   0.6440500000000000    0.3767200000000000    0.2352929568433509 T T T N
   0.1440500000000000    0.0017200000000000    0.1620242552598721 F F F N
   0.1440500000000000    0.2517200000000000    0.1620242552598721 F F F N
   0.6440500000000000    0.1267200000000000    0.2352929568433509 T T T N
   0.6440500000000000    0.8767200000000001    0.3818491661452118 T T T N
   0.1440500000000000    0.5017199999999999    0.3085710614942813 T T T N
   0.1440500000000000    0.7517199999999999    0.3085710614942813 T T T N
   0.6440500000000000    0.6267199999999999    0.3818491661452118 T T T N
   0.6440500000000000    0.8767200000000001    0.2352929568433509 T T T N
   0.1440500000000000    0.5017199999999999    0.1620242552598721 F F F N
   0.1440500000000000    0.7517199999999999    0.1620242552598721 F F F N
   0.6440500000000000    0.6267199999999999    0.2352929568433509 T T T N
   0.6275900000000000    0.3783700000000000    0.0888589874183617 F F F N
   0.1275900000000000    0.0033700000000000    0.0155808827674313 F F F N
   0.1275900000000000    0.2533700000000000    0.0155808827674313 F F F N
   0.6275900000000000    0.1283700000000000    0.0888589874183617 F F F N
   0.6275900000000000    0.8783700000000000    0.0888589874183617 F F F N
   0.1275900000000000    0.5033700000000000    0.0155808827674313 F F F N
   0.1275900000000000    0.7533699999999999    0.0155808827674313 F F F N
   0.6275900000000000    0.6283700000000000    0.0888589874183617 F F F N
