total_structure
1.0
   2.9630000000000001    0.0000000000000000    0.0000000000000002
   0.0000000000000025   15.3989999999999991    0.0000000000000009
   0.0000000000000000    0.0000000000000000   51.1920000000000002
Cr Fe N
36 52 36
Selective dynamics
direct
   0.3179800000000000    0.8541699999999999    0.1730055477418346 T T T Cr
   0.3171400000000000    0.9636600000000000    0.2206106422878575 T T T Cr
   0.8244300000000000    0.7978400000000000    0.2202590248476324 T T T Cr
   0.3310200000000000    0.7398700000000000    0.2671901859665572 T T T Cr
   0.8235799999999999    0.9073299999999999    0.2678641193936553 T T T Cr
   0.3327500000000000    0.5208500000000000    0.1730055477418347 T T T Cr
   0.3319100000000000    0.6303400000000000    0.2206106422878575 T T T Cr
   0.8252700000000001    0.6883500000000000    0.1726636974527269 T T T Cr
   0.8391900000000002    0.4645200000000000    0.2202590248476324 T T T Cr
   0.3457900000000000    0.4065500000000000    0.2671901859665572 T T T Cr
   0.8383500000000000    0.5740100000000000    0.2678641193936552 T T T Cr
   0.3475200000000000    0.1875300000000000    0.1730055477418347 T T T Cr
   0.3466800000000000    0.2970200000000000    0.2206106422878575 T T T Cr
   0.8400400000000001    0.3550300000000000    0.1726539303016096 T T T Cr
   0.8539600000000001    0.1311900000000000    0.2202590248476324 T T T Cr
   0.3605600000000000    0.0732200000000000    0.2671901859665572 T T T Cr
   0.8531200000000000    0.2406800000000000    0.2678641193936552 T T T Cr
   0.3190500000000000    0.8541799999999999    0.0312060478199719 F F F Cr
   0.3182000000000000    0.9636700000000000    0.0788111423659947 F F F Cr
   0.8254899999999999    0.7978400000000000    0.0784595249257696 F F F Cr
   0.3320900000000001    0.7398700000000000    0.1253906860446944 F F F Cr
   0.8246500000000000    0.9073299999999999    0.1260646194717924 F F F Cr
   0.3338200000000001    0.5208600000000000    0.0312060478199719 F F F Cr
   0.3329700000000000    0.6303500000000000    0.0788111423659947 F F F Cr
   0.8263400000000001    0.6883500000000000    0.0308641975308642 F F F Cr
   0.8402600000000001    0.4645200000000000    0.0784595249257696 F F F Cr
   0.3468600000000001    0.4065500000000000    0.1253906860446945 F F F Cr
   0.8394100000000000    0.5740100000000000    0.1260646194717925 F F F Cr
   0.3485900000000000    0.1875400000000000    0.0312060478199719 F F F Cr
   0.3477400000000000    0.2970300000000000    0.0788111423659947 F F F Cr
   0.8411000000000000    0.3550300000000000    0.0308544303797468 F F F Cr
   0.8550300000000001    0.1312000000000000    0.0784595249257696 F F F Cr
   0.3616200000000001    0.0732300000000000    0.1253906860446945 F F F Cr
   0.8541799999999999    0.2406900000000000    0.1260646194717924 F F F Cr
   0.8400400000000001    0.0233600000000000    0.1726539303016096 T T T Cr
   0.8411000000000001    0.0233700000000000    0.0308544303797468 F F F Cr
   0.3530400000000001    0.0451600000000000    0.3809872636349430 T T T Fe
   0.3478800000000001    0.1587300000000000    0.4267952023753712 T T T Fe
   0.3467900000000000    0.1101100000000000    0.5046882325363338 F F F Fe
   0.3427100000000000    0.2723000000000000    0.4726129082669167 F F F Fe
   0.3457200000000001    0.0614800000000000    0.5825812626972965 F F F Fe
   0.3416300000000000    0.2236700000000000    0.5505059384278794 F F F Fe
   0.3375500000000000    0.3858699999999999    0.5184208470073449 F F F Fe
   0.3489500000000000    0.2073600000000000    0.3489021722144086 T T T Fe
   0.3437800000000000    0.3209400000000000    0.3947198781059541 T T T Fe
   0.3396899999999999    0.4831299999999999    0.3626445538365370 T T T Fe
   0.3386200000000000    0.4344999999999999    0.4405278168463823 T T T Fe
   0.3345300000000000    0.5967000000000000    0.4084524925769651 T T T Fe
   0.3304300000000001    0.7588900000000000    0.3763771683075481 T T T Fe
   0.3334500000000000    0.5480600000000000    0.4863455227379279 F F F Fe
   0.3293600000000000    0.7102600000000000    0.4542701984685107 T T T Fe
   0.3252700000000000    0.8724700000000000    0.4221851070479763 T T T Fe
   0.3405600000000000    0.1750400000000000    0.6283892014377246 F F F Fe
   0.3364600000000000    0.3372400000000000    0.5963138771683076 F F F Fe
   0.3323800000000000    0.4994300000000000    0.5642385528988905 F F F Fe
   0.3272200000000001    0.6130100000000001    0.6100464916393187 F F F Fe
   0.3282900000000001    0.6616400000000000    0.5321534614783561 F F F Fe
   0.3242000000000000    0.8238400000000000    0.5000781372089389 F F F Fe
   0.3201000000000000    0.9860300000000000    0.4680028129395219 F F F Fe
   0.3231200000000000    0.7752000000000000    0.5779711673699016 F F F Fe
   0.3190300000000000    0.9374000000000000    0.5458958431004846 F F F Fe
   0.3179600000000001    0.8887699999999999    0.6237791061103297 F F F Fe
   0.8304500000000001    0.1350900000000000    0.4657954367869980 F F F Fe
   0.8293799999999999    0.0864600000000000    0.5436884669479606 F F F Fe
   0.8252900000000000    0.2486500000000000    0.5116131426785435 F F F Fe
   0.8366899999999999    0.0701500000000000    0.3420944678856072 T T T Fe
   0.8315300000000000    0.1837200000000000    0.3879024066260353 T T T Fe
   0.8274300000000000    0.3459199999999999    0.3558270823566183 T T T Fe
   0.8263600000000001    0.2972799999999999    0.4337201125175809 T T T Fe
   0.8222700000000002    0.4594800000000000    0.4016447882481638 T T T Fe
   0.8181899999999999    0.6216800000000000    0.3695596968276294 T T T Fe
   0.8212000000000000    0.4108500000000000    0.4795280512580091 F F F Fe
   0.8171000000000002    0.5730499999999999    0.4474527269885920 T T T Fe
   0.8130200000000000    0.7352500000000000    0.4153774027191749 T T T Fe
   0.8089300000000000    0.8974500000000000    0.3832923112986404 T T T Fe
   0.8283100000000000    0.0378300000000000    0.6215814971089233 F F F Fe
   0.8242200000000000    0.2000200000000000    0.5895061728395062 F F F Fe
   0.8201199999999998    0.3622300000000000    0.5574210814189717 F F F Fe
   0.8149600000000000    0.4757900000000000    0.6032387873105173 F F F Fe
   0.8160300000000000    0.5244200000000000    0.5253457571495547 F F F Fe
   0.8119400000000001    0.6866200000000000    0.4932704328801376 F F F Fe
   0.8078600000000001    0.8488200000000000    0.4611853414596031 T T T Fe
   0.8037600000000000    0.0110100000000000    0.4291100171901860 T T T Fe
   0.8108700000000001    0.6379899999999999    0.5711536958899829 F F F Fe
   0.8067700000000001    0.8001900000000000    0.5390783716205657 F F F Fe
   0.8026900000000000    0.9623800000000000    0.5070030473511487 F F F Fe
   0.8056999999999999    0.7515500000000001    0.6169714017815284 F F F Fe
   0.8016100000000000    0.9137599999999999    0.5848960775121113 F F F Fe
   0.8174800000000000    0.9097299999999999    0.1969741365838412 T T T N
   0.3249200000000000    0.7422700000000000    0.1962904360056258 T T T N
   0.3240800000000000    0.8517599999999999    0.2438955305516486 T T T N
   0.8315900000000001    0.7954300000000000    0.1493592748867010 T T T N
   0.3243000000000000    0.9612600000000000    0.1497011251758087 T T T N
   0.8322500000000000    0.5764100000000000    0.1969741365838412 T T T N
   0.8313700000000002    0.6859400000000000    0.2435536802625410 T T T N
   0.3396900000000000    0.4089500000000000    0.1962904360056259 T T T N
   0.3388500000000000    0.5184400000000000    0.2438955305516487 T T T N
   0.8463600000000002    0.4621100000000000    0.1493592748867011 T T T N
   0.3390700000000000    0.6279400000000001    0.1497011251758087 T T T N
   0.8470199999999999    0.2430900000000000    0.1969741365838412 T T T N
   0.8461400000000000    0.3526200000000000    0.2435536802625410 T T T N
   0.3544600000000001    0.0756300000000000    0.1962904360056259 T T T N
   0.3536199999999999    0.1851200000000000    0.2438955305516487 T T T N
   0.8611300000000001    0.1287900000000000    0.1493592748867010 T T T N
   0.3538400000000000    0.2946199999999999    0.1497011251758087 T T T N
   0.8185500000000000    0.9097399999999999    0.0551746366619784 F F F N
   0.3259900000000001    0.7422800000000001    0.0544909360837631 F F F N
   0.3251400000000000    0.8517699999999999    0.1020960306297859 F F F N
   0.8326500000000000    0.7954400000000000    0.0075597749648383 F F F N
   0.3253600000000000    0.9612699999999998    0.0079016252539459 F F F N
   0.8333199999999999    0.5764200000000000    0.0551746366619784 F F F N
   0.8324300000000001    0.6859400000000000    0.1017541803406782 F F F N
   0.3407600000000001    0.4089600000000000    0.0544909360837631 F F F N
   0.3399100000000000    0.5184500000000000    0.1020960306297859 F F F N
   0.8474200000000002    0.4621199999999999    0.0075597749648383 F F F N
   0.3401300000000000    0.6279400000000001    0.0079016252539459 F F F N
   0.8480899999999999    0.2431000000000000    0.0551746366619784 F F F N
   0.8472000000000000    0.3526200000000000    0.1017541803406782 F F F N
   0.3555300000000000    0.0756400000000000    0.0544909360837631 F F F N
   0.3546800000000000    0.1851300000000000    0.1020960306297859 F F F N
   0.8621900000000001    0.1288000000000000    0.0075597749648383 F F F N
   0.3549000000000000    0.2946199999999999    0.0079016252539459 F F F N
   0.8461400000000001    0.0209600000000000    0.2435536802625410 T T T N
   0.8472000000000000    0.0209600000000000    0.1017541803406782 F F F N
