Ti66 Mo1
1.0
6.309760 0.000000 0.000000
0.000000 9.464640 0.000000
0.000000 0.000000 18.918326
Ti Mo
66 1
Selective dynamics
direct
0.123408 0.039939 0.501441 F F F Ti
0.627084 0.040670 0.500470 F F F Ti
0.124744 0.041179 0.658942 F F F Ti
0.624806 0.041162 0.658863 F F F Ti
0.124952 0.041503 0.817248 F F F Ti
0.624942 0.041503 0.817243 F F F Ti
0.117329 0.377386 0.502694 F F F Ti
0.625636 0.375049 0.501147 F F F Ti
0.124441 0.374994 0.659183 F F F Ti
0.624607 0.374921 0.659113 F F F Ti
0.124911 0.375014 0.817297 F F F Ti
0.624886 0.375005 0.817306 F F F Ti
0.126049 0.706177 0.499620 F F F Ti
0.623063 0.707142 0.499665 F F F Ti
0.125057 0.708102 0.658678 F F F Ti
0.624263 0.708295 0.658730 F F F Ti
0.124961 0.708347 0.817211 F F F Ti
0.624837 0.708376 0.817221 F F F Ti
0.374749 0.208043 0.579998 F F F Ti
0.873554 0.207773 0.580127 F F F Ti
0.374918 0.208136 0.738115 F F F Ti
0.874697 0.208124 0.738165 F F F Ti
0.374994 0.208298 0.896365 F F F Ti
0.874934 0.208307 0.896367 F F F Ti
0.374918 0.541508 0.579750 F F F Ti
0.873153 0.542548 0.580038 F F F Ti
0.374925 0.541682 0.738094 F F F Ti
0.874685 0.541781 0.738140 F F F Ti
0.374971 0.541746 0.896405 F F F Ti
0.874900 0.541756 0.896400 F F F Ti
0.375084 0.874462 0.579360 F F F Ti
0.874782 0.873821 0.579460 F F F Ti
0.374882 0.874829 0.737986 F F F Ti
0.874851 0.874736 0.737991 F F F Ti
0.375022 0.874989 0.896422 F F F Ti
0.874946 0.874979 0.896417 F F F Ti
0.124616 0.625529 0.356529 F F F Ti
0.622878 0.625242 0.356558 F F F Ti
0.125042 0.625610 0.118590 F F F Ti
0.624813 0.625498 0.118629 F F F Ti
0.646594 0.120580 0.355280 F F F Ti
0.125550 0.125196 0.118465 F F F Ti
0.625655 0.124988 0.118343 F F F Ti
0.125168 0.375186 0.039224 F F F Ti
0.624758 0.375179 0.039137 F F F Ti
0.125094 0.875214 0.039479 F F F Ti
0.625035 0.875099 0.039468 F F F Ti
0.116340 0.380187 0.273762 F F F Ti
0.627753 0.375472 0.276285 F F F Ti
0.126304 0.876857 0.277655 F F F Ti
0.625657 0.874699 0.277274 F F F Ti
0.375197 0.875177 0.158426 F F F Ti
0.875657 0.875314 0.158369 F F F Ti
0.375513 0.375454 0.157915 F F F Ti
0.873417 0.375657 0.157263 F F F Ti
0.866203 0.378775 0.396725 F F F Ti
0.375722 0.877058 0.396407 F F F Ti
0.877718 0.874203 0.396631 F F F Ti
0.374890 0.625544 0.237624 F F F Ti
0.873957 0.626667 0.237431 F F F Ti
0.374943 0.625282 -0.000153 F F F Ti
0.874916 0.625289 -0.000170 F F F Ti
0.378302 0.124851 0.236663 F F F Ti
0.877079 0.125267 0.236671 F F F Ti
0.375105 0.124922 -0.000208 F F F Ti
0.875090 0.124919 -0.000223 F F F Ti
0.279757 0.254946 0.379224 T T T Mo

0.000000 0.000000 0.000000
0.000000 0.000000 0.000000
0.000000 0.000000 0.000000
0.000000 0.000000 0.000000
0.000000 0.000000 0.000000
0.000000 0.000000 0.000000
0.000000 0.000000 0.000000
0.000000 0.000000 0.000000
0.000000 0.000000 0.000000
0.000000 0.000000 0.000000
0.000000 0.000000 0.000000
0.000000 0.000000 0.000000
0.000000 0.000000 0.000000
0.000000 0.000000 0.000000
0.000000 0.000000 0.000000
0.000000 0.000000 0.000000
0.000000 0.000000 0.000000
0.000000 0.000000 0.000000
0.000000 0.000000 0.000000
0.000000 0.000000 0.000000
0.000000 0.000000 0.000000
0.000000 0.000000 0.000000
0.000000 0.000000 0.000000
0.000000 0.000000 0.000000
0.000000 0.000000 0.000000
0.000000 0.000000 0.000000
0.000000 0.000000 0.000000
0.000000 0.000000 0.000000
0.000000 0.000000 0.000000
0.000000 0.000000 0.000000
0.000000 0.000000 0.000000
0.000000 0.000000 0.000000
0.000000 0.000000 0.000000
0.000000 0.000000 0.000000
0.000000 0.000000 0.000000
0.000000 0.000000 0.000000
0.000000 0.000000 0.000000
0.000000 0.000000 0.000000
0.000000 0.000000 0.000000
0.000000 0.000000 0.000000
0.000000 0.000000 0.000000
0.000000 0.000000 0.000000
0.000000 0.000000 0.000000
0.000000 0.000000 0.000000
0.000000 0.000000 0.000000
0.000000 0.000000 0.000000
0.000000 0.000000 0.000000
0.000000 0.000000 0.000000
0.000000 0.000000 0.000000
0.000000 0.000000 0.000000
0.000000 0.000000 0.000000
0.000000 0.000000 0.000000
0.000000 0.000000 0.000000
0.000000 0.000000 0.000000
0.000000 0.000000 0.000000
0.000000 0.000000 0.000000
0.000000 0.000000 0.000000
0.000000 0.000000 0.000000
0.000000 0.000000 0.000000
0.000000 0.000000 0.000000
0.000000 0.000000 0.000000
0.000000 0.000000 0.000000
0.000000 0.000000 0.000000
0.000000 0.000000 0.000000
0.000000 0.000000 0.000000
0.000000 0.000000 0.000000
0.000000 0.000000 0.000000
