Ti82 Mo1
1.0
6.391540 0.000000 0.000000
0.000000 9.587310 0.000000
0.000000 0.000000 23.271695
Ti Mo
82 1
Selective dynamics
direct
0.124551 0.083429 0.580775 F F F Ti
0.623418 0.083462 0.580812 F F F Ti
0.124958 0.083344 0.709574 F F F Ti
0.624875 0.083343 0.709567 F F F Ti
0.125001 0.083337 0.838430 F F F Ti
0.624991 0.083338 0.838429 F F F Ti
0.124895 0.417647 0.581411 F F F Ti
0.625092 0.416798 0.580692 F F F Ti
0.124989 0.416736 0.709659 F F F Ti
0.624928 0.416695 0.709585 F F F Ti
0.125000 0.416670 0.838445 F F F Ti
0.624984 0.416666 0.838438 F F F Ti
0.124919 0.750095 0.580811 F F F Ti
0.624906 0.750074 0.580749 F F F Ti
0.124980 0.750078 0.709604 F F F Ti
0.624926 0.750099 0.709597 F F F Ti
0.124994 0.750019 0.838442 F F F Ti
0.624982 0.750023 0.838441 F F F Ti
0.374934 0.250087 0.645152 F F F Ti
0.874660 0.250007 0.645211 F F F Ti
0.375006 0.249995 0.774001 F F F Ti
0.874951 0.249992 0.774011 F F F Ti
0.374998 0.249986 0.902853 F F F Ti
0.875012 0.249987 0.902855 F F F Ti
0.375329 0.583572 0.645230 F F F Ti
0.874653 0.583566 0.645265 F F F Ti
0.375027 0.583372 0.774025 F F F Ti
0.874946 0.583367 0.774029 F F F Ti
0.374994 0.583319 0.902860 F F F Ti
0.874998 0.583318 0.902859 F F F Ti
0.374831 0.916691 0.645107 F F F Ti
0.874788 0.916705 0.645156 F F F Ti
0.374975 0.916687 0.773993 F F F Ti
0.874967 0.916684 0.774001 F F F Ti
0.374986 0.916677 0.902849 F F F Ti
0.875007 0.916676 0.902850 F F F Ti
0.629974 0.166692 0.386443 F F F Ti
0.124615 0.665925 0.386698 F F F Ti
0.626774 0.665668 0.386646 F F F Ti
0.125014 0.166665 -0.000013 F F F Ti
0.625018 0.166662 -0.000016 F F F Ti
0.125011 0.666652 -0.000027 F F F Ti
0.625021 0.666651 -0.000028 F F F Ti
0.125004 0.833302 0.096615 F F F Ti
0.625123 0.833303 0.096606 F F F Ti
0.124462 0.832083 0.483611 F F F Ti
0.624702 0.832923 0.483605 F F F Ti
0.125061 0.333304 0.096659 F F F Ti
0.625070 0.333323 0.096643 F F F Ti
0.121071 0.339553 0.485245 F F F Ti
0.625065 0.333789 0.483482 F F F Ti
0.375854 0.584142 0.483635 F F F Ti
0.874015 0.584198 0.483645 F F F Ti
0.375034 0.583286 0.096617 F F F Ti
0.875101 0.583268 0.096618 F F F Ti
0.375050 0.083337 0.096635 F F F Ti
0.875129 0.083330 0.096642 F F F Ti
0.867700 0.082376 0.484788 F F F Ti
0.378002 0.419527 0.386627 F F F Ti
0.875200 0.417089 0.386798 F F F Ti
0.382261 0.909885 0.385728 F F F Ti
0.873378 0.914820 0.386782 F F F Ti
0.375002 0.416649 -0.000015 F F F Ti
0.875017 0.416645 -0.000014 F F F Ti
0.375008 0.916662 -0.000021 F F F Ti
0.875021 0.916668 -0.000020 F F F Ti
0.377686 0.082559 0.289423 F F F Ti
0.876364 0.083047 0.290120 F F F Ti
0.125207 0.166615 0.193350 F F F Ti
0.625547 0.166655 0.193264 F F F Ti
0.125780 0.333332 0.290053 F F F Ti
0.625768 0.333321 0.289938 F F F Ti
0.375181 0.416587 0.193298 F F F Ti
0.875260 0.416526 0.193330 F F F Ti
0.375356 0.583360 0.289810 F F F Ti
0.875626 0.583034 0.289889 F F F Ti
0.125061 0.666500 0.193230 F F F Ti
0.625288 0.666448 0.193192 F F F Ti
0.125099 0.832802 0.289858 F F F Ti
0.626612 0.832673 0.289607 F F F Ti
0.375199 0.916430 0.193175 F F F Ti
0.875238 0.916678 0.193291 F F F Ti
0.184127 0.142334 0.411578 T T T Mo

0.000000 0.000000 0.000000
0.000000 0.000000 0.000000
0.000000 0.000000 0.000000
0.000000 0.000000 0.000000
0.000000 0.000000 0.000000
0.000000 0.000000 0.000000
0.000000 0.000000 0.000000
0.000000 0.000000 0.000000
0.000000 0.000000 0.000000
0.000000 0.000000 0.000000
0.000000 0.000000 0.000000
0.000000 0.000000 0.000000
0.000000 0.000000 0.000000
0.000000 0.000000 0.000000
0.000000 0.000000 0.000000
0.000000 0.000000 0.000000
0.000000 0.000000 0.000000
0.000000 0.000000 0.000000
0.000000 0.000000 0.000000
0.000000 0.000000 0.000000
0.000000 0.000000 0.000000
0.000000 0.000000 0.000000
0.000000 0.000000 0.000000
0.000000 0.000000 0.000000
0.000000 0.000000 0.000000
0.000000 0.000000 0.000000
0.000000 0.000000 0.000000
0.000000 0.000000 0.000000
0.000000 0.000000 0.000000
0.000000 0.000000 0.000000
0.000000 0.000000 0.000000
0.000000 0.000000 0.000000
0.000000 0.000000 0.000000
0.000000 0.000000 0.000000
0.000000 0.000000 0.000000
0.000000 0.000000 0.000000
0.000000 0.000000 0.000000
0.000000 0.000000 0.000000
0.000000 0.000000 0.000000
0.000000 0.000000 0.000000
0.000000 0.000000 0.000000
0.000000 0.000000 0.000000
0.000000 0.000000 0.000000
0.000000 0.000000 0.000000
0.000000 0.000000 0.000000
0.000000 0.000000 0.000000
0.000000 0.000000 0.000000
0.000000 0.000000 0.000000
0.000000 0.000000 0.000000
0.000000 0.000000 0.000000
0.000000 0.000000 0.000000
0.000000 0.000000 0.000000
0.000000 0.000000 0.000000
0.000000 0.000000 0.000000
0.000000 0.000000 0.000000
0.000000 0.000000 0.000000
0.000000 0.000000 0.000000
0.000000 0.000000 0.000000
0.000000 0.000000 0.000000
0.000000 0.000000 0.000000
0.000000 0.000000 0.000000
0.000000 0.000000 0.000000
0.000000 0.000000 0.000000
0.000000 0.000000 0.000000
0.000000 0.000000 0.000000
0.000000 0.000000 0.000000
0.000000 0.000000 0.000000
0.000000 0.000000 0.000000
0.000000 0.000000 0.000000
0.000000 0.000000 0.000000
0.000000 0.000000 0.000000
0.000000 0.000000 0.000000
0.000000 0.000000 0.000000
0.000000 0.000000 0.000000
0.000000 0.000000 0.000000
0.000000 0.000000 0.000000
0.000000 0.000000 0.000000
0.000000 0.000000 0.000000
0.000000 0.000000 0.000000
0.000000 0.000000 0.000000
0.000000 0.000000 0.000000
0.000000 0.000000 0.000000
0.000000 0.000000 0.000000
