Ti36
1.0
8.805261 0.000000 0.000000
-4.402630 7.625580 0.000000
0.000000 0.000000 34.288801
Ti
36
direct
0.222214 0.944436 0.492637 Ti
0.222214 0.444436 0.492637 Ti
0.722214 0.944436 0.492637 Ti
0.722214 0.444436 0.492637 Ti
0.388880 0.277769 0.681394 Ti
0.388880 0.777769 0.681394 Ti
0.888880 0.277769 0.681394 Ti
0.888880 0.777769 0.681394 Ti
0.555547 0.111102 0.708359 Ti
0.555547 0.611103 0.708359 Ti
0.055556 0.111102 0.708359 Ti
0.055556 0.611103 0.708359 Ti
0.388880 0.277769 0.519602 Ti
0.388880 0.777769 0.519602 Ti
0.888880 0.277769 0.519602 Ti
0.888880 0.777769 0.519602 Ti
0.555547 0.111102 0.546567 Ti
0.555547 0.611103 0.546567 Ti
0.055556 0.111102 0.546567 Ti
0.055556 0.611103 0.546567 Ti
0.222214 0.944436 0.573533 Ti
0.222214 0.444436 0.573533 Ti
0.722214 0.944436 0.573533 Ti
0.722214 0.444436 0.573533 Ti
0.388880 0.277769 0.600498 Ti
0.388880 0.777769 0.600498 Ti
0.888880 0.277769 0.600498 Ti
0.888880 0.777769 0.600498 Ti
0.555547 0.111102 0.627463 Ti
0.555547 0.611103 0.627463 Ti
0.055556 0.111102 0.627463 Ti
0.055556 0.611103 0.627463 Ti
0.222214 0.944436 0.654429 Ti
0.222214 0.444436 0.654429 Ti
0.722214 0.944436 0.654429 Ti
0.722214 0.444436 0.654429 Ti
