Ti66 Nb1
1.0
6.309760 0.000000 0.000000
0.000000 9.464640 0.000000
0.000000 0.000000 18.918326
Ti Nb
66 1
Selective dynamics
direct
0.123715 0.040929 0.499099 F F F Ti
0.625178 0.041500 0.499897 F F F Ti
0.627328 0.041138 0.658843 F F F Ti
0.124995 0.041663 0.817192 F F F Ti
0.625194 0.041590 0.817250 F F F Ti
0.124822 0.375166 0.499929 F F F Ti
0.624791 0.375069 0.499967 F F F Ti
0.124215 0.376366 0.658819 F F F Ti
0.625120 0.375187 0.658645 F F F Ti
0.124912 0.375118 0.817243 F F F Ti
0.625195 0.375157 0.817257 F F F Ti
0.124907 0.708158 0.499940 F F F Ti
0.625155 0.708159 0.499922 F F F Ti
0.124981 0.708329 0.658584 F F F Ti
0.625153 0.708199 0.658615 F F F Ti
0.124996 0.708354 0.817177 F F F Ti
0.625042 0.708340 0.817193 F F F Ti
0.872602 0.208923 0.579017 F F F Ti
0.376139 0.209010 0.738676 F F F Ti
0.874841 0.208497 0.737971 F F F Ti
0.375017 0.208354 0.896513 F F F Ti
0.874992 0.208343 0.896470 F F F Ti
0.375024 0.541656 0.579283 F F F Ti
0.874835 0.541800 0.579258 F F F Ti
0.375084 0.541816 0.737925 F F F Ti
0.874861 0.541811 0.737937 F F F Ti
0.375007 0.541707 0.896469 F F F Ti
0.874991 0.541701 0.896470 F F F Ti
0.375959 0.873522 0.579019 F F F Ti
0.874875 0.874796 0.579223 F F F Ti
0.375200 0.874846 0.737945 F F F Ti
0.875220 0.874953 0.737894 F F F Ti
0.375003 0.874990 0.896462 F F F Ti
0.875021 0.874992 0.896457 F F F Ti
0.125010 0.625053 0.356815 F F F Ti
0.624923 0.625033 0.356802 F F F Ti
0.125004 0.625021 0.118915 F F F Ti
0.624985 0.625019 0.118918 F F F Ti
0.124989 0.125035 0.356700 F F F Ti
0.624968 0.125007 0.356765 F F F Ti
0.125002 0.125002 0.118909 F F F Ti
0.624982 0.125002 0.118914 F F F Ti
0.124994 0.375011 0.039653 F F F Ti
0.625003 0.375013 0.039656 F F F Ti
0.124995 0.875001 0.039646 F F F Ti
0.625003 0.874998 0.039649 F F F Ti
0.124998 0.375021 0.277496 F F F Ti
0.624987 0.375012 0.277497 F F F Ti
0.124994 0.874988 0.277480 F F F Ti
0.624988 0.874995 0.277482 F F F Ti
0.375002 0.874998 0.158569 F F F Ti
0.874993 0.874998 0.158568 F F F Ti
0.375000 0.375009 0.158575 F F F Ti
0.874998 0.375010 0.158573 F F F Ti
0.374987 0.374993 0.396425 F F F Ti
0.874925 0.375036 0.396400 F F F Ti
0.375081 0.874921 0.396369 F F F Ti
0.874846 0.874889 0.396355 F F F Ti
0.374993 0.625015 0.237870 F F F Ti
0.875006 0.625010 0.237868 F F F Ti
0.374995 0.625032 -0.000001 F F F Ti
0.875009 0.625028 0.000001 F F F Ti
0.375010 0.125005 0.237848 F F F Ti
0.874979 0.125006 0.237843 F F F Ti
0.375001 0.124991 0.000022 F F F Ti
0.874993 0.124998 0.000011 F F F Ti
0.245487 0.122754 0.619103 T T T Nb

0.000000 0.000000 0.000000
0.000000 0.000000 0.000000
0.000000 0.000000 0.000000
0.000000 0.000000 0.000000
0.000000 0.000000 0.000000
0.000000 0.000000 0.000000
0.000000 0.000000 0.000000
0.000000 0.000000 0.000000
0.000000 0.000000 0.000000
0.000000 0.000000 0.000000
0.000000 0.000000 0.000000
0.000000 0.000000 0.000000
0.000000 0.000000 0.000000
0.000000 0.000000 0.000000
0.000000 0.000000 0.000000
0.000000 0.000000 0.000000
0.000000 0.000000 0.000000
0.000000 0.000000 0.000000
0.000000 0.000000 0.000000
0.000000 0.000000 0.000000
0.000000 0.000000 0.000000
0.000000 0.000000 0.000000
0.000000 0.000000 0.000000
0.000000 0.000000 0.000000
0.000000 0.000000 0.000000
0.000000 0.000000 0.000000
0.000000 0.000000 0.000000
0.000000 0.000000 0.000000
0.000000 0.000000 0.000000
0.000000 0.000000 0.000000
0.000000 0.000000 0.000000
0.000000 0.000000 0.000000
0.000000 0.000000 0.000000
0.000000 0.000000 0.000000
0.000000 0.000000 0.000000
0.000000 0.000000 0.000000
0.000000 0.000000 0.000000
0.000000 0.000000 0.000000
0.000000 0.000000 0.000000
0.000000 0.000000 0.000000
0.000000 0.000000 0.000000
0.000000 0.000000 0.000000
0.000000 0.000000 0.000000
0.000000 0.000000 0.000000
0.000000 0.000000 0.000000
0.000000 0.000000 0.000000
0.000000 0.000000 0.000000
0.000000 0.000000 0.000000
0.000000 0.000000 0.000000
0.000000 0.000000 0.000000
0.000000 0.000000 0.000000
0.000000 0.000000 0.000000
0.000000 0.000000 0.000000
0.000000 0.000000 0.000000
0.000000 0.000000 0.000000
0.000000 0.000000 0.000000
0.000000 0.000000 0.000000
0.000000 0.000000 0.000000
0.000000 0.000000 0.000000
0.000000 0.000000 0.000000
0.000000 0.000000 0.000000
0.000000 0.000000 0.000000
0.000000 0.000000 0.000000
0.000000 0.000000 0.000000
0.000000 0.000000 0.000000
0.000000 0.000000 0.000000
0.000000 0.000000 0.000000
