total_Ti
1.0
4.756512 0.000000 0.000000
0.000000 4.675432 0.000000
0.000000 0.000000 26.211800
Ti
24
direct
0.333333 0.750000 0.274861 Ti
0.333333 0.750000 0.164917 Ti
0.333333 0.750000 0.054972 Ti
0.833334 0.750000 0.219889 Ti
0.833334 0.750000 0.109944 Ti
0.833334 0.750000 -0.000000 Ti
0.166666 0.250000 0.219889 Ti
0.166666 0.250000 0.109944 Ti
0.166666 0.250000 -0.000000 Ti
0.666667 0.250000 0.274861 Ti
0.666667 0.250000 0.164917 Ti
0.666667 0.250000 0.054972 Ti
0.666667 0.750000 0.790173 Ti
0.166667 0.250000 0.790173 Ti
0.166667 0.750000 0.729076 Ti
0.666667 0.250000 0.729076 Ti
0.666667 0.750000 0.667980 Ti
0.166667 0.250000 0.667980 Ti
0.166667 0.750000 0.606883 Ti
0.666667 0.250000 0.606883 Ti
0.666667 0.750000 0.545787 Ti
0.166667 0.250000 0.545787 Ti
0.166667 0.750000 0.484690 Ti
0.666667 0.250000 0.484690 Ti
