Ti96 Nb1
1.0
9.513020 0.000000 0.000000
0.000000 9.350860 0.000000
0.000000 0.000000 18.547230
Ti Nb
96 1
Selective dynamics
direct
0.147853 0.373716 0.403720 T T T Ti
0.655157 0.348132 0.395591 T T T Ti
0.137242 0.861771 0.395989 T T T Ti
0.665333 0.862922 0.401792 T T T Ti
0.162504 0.370402 0.235604 T T T Ti
0.658252 0.374590 0.234644 T T T Ti
0.162993 0.873799 0.235226 T T T Ti
0.658268 0.872189 0.234998 T T T Ti
0.166665 0.375032 0.077681 F F F Ti
0.666674 0.375009 0.077666 F F F Ti
0.166670 0.874983 0.077701 F F F Ti
0.666671 0.874983 0.077683 F F F Ti
0.405724 0.385152 0.316625 T T T Ti
0.906538 0.376041 0.318165 T T T Ti
0.404124 0.883116 0.322726 T T T Ti
0.907392 0.881077 0.312514 T T T Ti
0.416679 0.374996 0.155291 F F F Ti
0.916679 0.374987 0.155280 F F F Ti
0.416664 0.874997 0.155320 F F F Ti
0.916678 0.874966 0.155299 F F F Ti
0.416662 0.375028 -0.000007 F F F Ti
0.916644 0.375019 -0.000006 F F F Ti
0.416662 0.874982 -0.000022 F F F Ti
0.916654 0.874984 -0.000012 F F F Ti
0.093462 0.123959 0.318164 T T T Ti
0.594276 0.114848 0.316624 T T T Ti
0.092608 0.618923 0.312513 T T T Ti
0.595876 0.616884 0.322725 T T T Ti
0.083321 0.125019 0.155281 F F F Ti
0.583321 0.125010 0.155291 F F F Ti
0.083322 0.625041 0.155299 F F F Ti
0.583336 0.625010 0.155320 F F F Ti
0.083357 0.124986 -0.000005 F F F Ti
0.583339 0.124980 -0.000006 F F F Ti
0.083346 0.625024 -0.000012 F F F Ti
0.583338 0.625027 -0.000022 F F F Ti
0.344842 0.151868 0.395591 T T T Ti
0.852146 0.126284 0.403720 T T T Ti
0.334666 0.637078 0.401792 T T T Ti
0.862757 0.638229 0.395989 T T T Ti
0.341747 0.125411 0.234644 T T T Ti
0.837495 0.129600 0.235604 T T T Ti
0.341731 0.627812 0.234998 T T T Ti
0.837006 0.626202 0.235226 T T T Ti
0.333325 0.124997 0.077667 F F F Ti
0.833334 0.124973 0.077681 F F F Ti
0.333328 0.625025 0.077683 F F F Ti
0.833329 0.625023 0.077701 F F F Ti
0.374993 0.375028 0.823918 F F F Ti
0.874976 0.374959 0.823888 F F F Ti
0.375047 0.874938 0.823821 F F F Ti
0.875018 0.874975 0.823846 F F F Ti
0.125028 0.125035 0.823888 F F F Ti
0.625013 0.124974 0.823919 F F F Ti
0.124985 0.625025 0.823847 F F F Ti
0.624957 0.625054 0.823822 F F F Ti
0.124986 0.375027 0.910151 F F F Ti
0.625010 0.375012 0.910159 F F F Ti
0.125024 0.874966 0.910123 F F F Ti
0.624993 0.874963 0.910129 F F F Ti
0.374994 0.124987 0.910160 F F F Ti
0.875019 0.124973 0.910151 F F F Ti
0.375010 0.625037 0.910128 F F F Ti
0.874980 0.625035 0.910122 F F F Ti
0.386002 0.375470 0.666018 T T T Ti
0.884255 0.383619 0.647249 T T T Ti
0.382133 0.891535 0.654978 T T T Ti
0.896242 0.881986 0.659754 T T T Ti
0.115744 0.116379 0.647249 T T T Ti
0.613997 0.124526 0.666018 T T T Ti
0.103756 0.618010 0.659754 T T T Ti
0.617866 0.608462 0.654979 T T T Ti
0.141076 0.365524 0.570375 T T T Ti
0.632663 0.349490 0.574414 T T T Ti
0.145323 0.853948 0.572923 T T T Ti
0.671210 0.904177 0.576388 T T T Ti
0.367337 0.150509 0.574414 T T T Ti
0.858924 0.134475 0.570375 T T T Ti
0.328790 0.595822 0.576388 T T T Ti
0.854677 0.646051 0.572923 T T T Ti
0.403284 0.387893 0.481353 T T T Ti
0.891447 0.379308 0.488851 T T T Ti
0.351342 -0.070853 0.479524 T T T Ti
0.911476 0.883548 0.486788 T T T Ti
0.108553 0.120692 0.488851 T T T Ti
0.596716 0.112107 0.481353 T T T Ti
0.088524 0.616452 0.486788 T T T Ti
0.648658 0.570853 0.479524 T T T Ti
0.125472 0.875011 0.737645 F F F Ti
0.625104 0.874832 0.737660 F F F Ti
0.374888 0.625153 0.737658 F F F Ti
0.874522 0.624976 0.737649 F F F Ti
0.124846 0.374863 0.737657 F F F Ti
0.625088 0.374764 0.737721 F F F Ti
0.374904 0.125217 0.737719 F F F Ti
0.875148 0.125122 0.737654 F F F Ti
0.500000 0.750000 0.524802 T T T Nb

0.000000 0.000000 0.000000
0.000000 0.000000 0.000000
0.000000 0.000000 0.000000
0.000000 0.000000 0.000000
0.000000 0.000000 0.000000
0.000000 0.000000 0.000000
0.000000 0.000000 0.000000
0.000000 0.000000 0.000000
0.000000 0.000000 0.000000
0.000000 0.000000 0.000000
0.000000 0.000000 0.000000
0.000000 0.000000 0.000000
0.000000 0.000000 0.000000
0.000000 0.000000 0.000000
0.000000 0.000000 0.000000
0.000000 0.000000 0.000000
0.000000 0.000000 0.000000
0.000000 0.000000 0.000000
0.000000 0.000000 0.000000
0.000000 0.000000 0.000000
0.000000 0.000000 0.000000
0.000000 0.000000 0.000000
0.000000 0.000000 0.000000
0.000000 0.000000 0.000000
0.000000 0.000000 0.000000
0.000000 0.000000 0.000000
0.000000 0.000000 0.000000
0.000000 0.000000 0.000000
0.000000 0.000000 0.000000
0.000000 0.000000 0.000000
0.000000 0.000000 0.000000
0.000000 0.000000 0.000000
0.000000 0.000000 0.000000
0.000000 0.000000 0.000000
0.000000 0.000000 0.000000
0.000000 0.000000 0.000000
0.000000 0.000000 0.000000
0.000000 0.000000 0.000000
0.000000 0.000000 0.000000
0.000000 0.000000 0.000000
0.000000 0.000000 0.000000
0.000000 0.000000 0.000000
0.000000 0.000000 0.000000
0.000000 0.000000 0.000000
0.000000 0.000000 0.000000
0.000000 0.000000 0.000000
0.000000 0.000000 0.000000
0.000000 0.000000 0.000000
0.000000 0.000000 0.000000
0.000000 0.000000 0.000000
0.000000 0.000000 0.000000
0.000000 0.000000 0.000000
0.000000 0.000000 0.000000
0.000000 0.000000 0.000000
0.000000 0.000000 0.000000
0.000000 0.000000 0.000000
0.000000 0.000000 0.000000
0.000000 0.000000 0.000000
0.000000 0.000000 0.000000
0.000000 0.000000 0.000000
0.000000 0.000000 0.000000
0.000000 0.000000 0.000000
0.000000 0.000000 0.000000
0.000000 0.000000 0.000000
0.000000 0.000000 0.000000
0.000000 0.000000 0.000000
0.000000 0.000000 0.000000
0.000000 0.000000 0.000000
0.000000 0.000000 0.000000
0.000000 0.000000 0.000000
0.000000 0.000000 0.000000
0.000000 0.000000 0.000000
0.000000 0.000000 0.000000
0.000000 0.000000 0.000000
0.000000 0.000000 0.000000
0.000000 0.000000 0.000000
0.000000 0.000000 0.000000
0.000000 0.000000 0.000000
0.000000 0.000000 0.000000
0.000000 0.000000 0.000000
0.000000 0.000000 0.000000
0.000000 0.000000 0.000000
0.000000 0.000000 0.000000
0.000000 0.000000 0.000000
0.000000 0.000000 0.000000
0.000000 0.000000 0.000000
0.000000 0.000000 0.000000
0.000000 0.000000 0.000000
0.000000 0.000000 0.000000
0.000000 0.000000 0.000000
0.000000 0.000000 0.000000
0.000000 0.000000 0.000000
0.000000 0.000000 0.000000
0.000000 0.000000 0.000000
0.000000 0.000000 0.000000
0.000000 0.000000 0.000000
0.000000 0.000000 0.000000
