Ti66 Sn1
1.0
6.309760 0.000000 0.000000
0.000000 9.464640 0.000000
0.000000 0.000000 18.918326
Ti Sn
66 1
Selective dynamics
direct
0.125553 0.031896 0.501587 F F F Ti
0.627275 0.039589 0.499904 F F F Ti
0.125566 0.039202 0.659026 F F F Ti
0.625077 0.038963 0.659185 F F F Ti
0.125148 0.040846 0.817214 F F F Ti
0.625050 0.040842 0.817266 F F F Ti
0.631049 0.373493 0.500106 F F F Ti
0.125249 0.372979 0.658432 F F F Ti
0.625639 0.373857 0.658820 F F F Ti
0.125212 0.374316 0.817064 F F F Ti
0.625194 0.374394 0.817156 F F F Ti
0.125005 0.702681 0.499461 F F F Ti
0.623832 0.706610 0.499723 F F F Ti
0.125363 0.705839 0.658397 F F F Ti
0.624533 0.706246 0.658690 F F F Ti
0.125108 0.707460 0.817095 F F F Ti
0.624992 0.707483 0.817149 F F F Ti
0.379714 0.204660 0.580273 F F F Ti
0.870541 0.203591 0.581273 F F F Ti
0.375354 0.207226 0.737995 F F F Ti
0.875133 0.207133 0.738159 F F F Ti
0.375089 0.207941 0.896290 F F F Ti
0.875127 0.207931 0.896311 F F F Ti
0.375832 0.538902 0.578975 F F F Ti
0.874387 0.540105 0.579457 F F F Ti
0.374987 0.540362 0.737814 F F F Ti
0.875366 0.540504 0.737903 F F F Ti
0.375043 0.541183 0.896264 F F F Ti
0.875129 0.541201 0.896271 F F F Ti
0.376359 0.871622 0.579621 F F F Ti
0.874139 0.871152 0.579745 F F F Ti
0.375061 0.873421 0.738065 F F F Ti
0.875179 0.873346 0.738070 F F F Ti
0.375059 0.874574 0.896358 F F F Ti
0.875045 0.874569 0.896358 F F F Ti
0.125652 0.626228 0.355559 F F F Ti
0.624740 0.629780 0.355234 F F F Ti
0.125252 0.625564 0.118291 F F F Ti
0.625066 0.625581 0.118201 F F F Ti
0.627633 0.124301 0.356251 F F F Ti
0.125425 0.125159 0.118615 F F F Ti
0.625096 0.125143 0.118553 F F F Ti
0.125267 0.375007 0.039085 F F F Ti
0.625073 0.374996 0.039116 F F F Ti
0.125034 0.875232 0.039339 F F F Ti
0.624960 0.875265 0.039322 F F F Ti
0.125668 0.376069 0.276660 F F F Ti
0.624488 0.375829 0.274243 F F F Ti
0.125015 0.876085 0.277222 F F F Ti
0.625204 0.876619 0.276902 F F F Ti
0.375047 0.875691 0.158174 F F F Ti
0.875228 0.875672 0.158114 F F F Ti
0.374396 0.375324 0.157634 F F F Ti
0.876203 0.375365 0.157509 F F F Ti
0.394922 0.380648 0.392315 F F F Ti
0.850056 0.383245 0.390245 F F F Ti
0.374908 0.875281 0.396279 F F F Ti
0.875681 0.874394 0.396276 F F F Ti
0.375180 0.626308 0.236832 F F F Ti
0.875326 0.626380 0.236750 F F F Ti
0.375041 0.625116 -0.000351 F F F Ti
0.875057 0.625127 -0.000350 F F F Ti
0.374782 0.125558 0.237688 F F F Ti
0.875974 0.125528 0.237410 F F F Ti
0.375028 0.124846 -0.000210 F F F Ti
0.875109 0.124848 -0.000188 F F F Ti
0.110096 0.312678 0.470155 T T T Sn

0.000000 0.000000 0.000000
0.000000 0.000000 0.000000
0.000000 0.000000 0.000000
0.000000 0.000000 0.000000
0.000000 0.000000 0.000000
0.000000 0.000000 0.000000
0.000000 0.000000 0.000000
0.000000 0.000000 0.000000
0.000000 0.000000 0.000000
0.000000 0.000000 0.000000
0.000000 0.000000 0.000000
0.000000 0.000000 0.000000
0.000000 0.000000 0.000000
0.000000 0.000000 0.000000
0.000000 0.000000 0.000000
0.000000 0.000000 0.000000
0.000000 0.000000 0.000000
0.000000 0.000000 0.000000
0.000000 0.000000 0.000000
0.000000 0.000000 0.000000
0.000000 0.000000 0.000000
0.000000 0.000000 0.000000
0.000000 0.000000 0.000000
0.000000 0.000000 0.000000
0.000000 0.000000 0.000000
0.000000 0.000000 0.000000
0.000000 0.000000 0.000000
0.000000 0.000000 0.000000
0.000000 0.000000 0.000000
0.000000 0.000000 0.000000
0.000000 0.000000 0.000000
0.000000 0.000000 0.000000
0.000000 0.000000 0.000000
0.000000 0.000000 0.000000
0.000000 0.000000 0.000000
0.000000 0.000000 0.000000
0.000000 0.000000 0.000000
0.000000 0.000000 0.000000
0.000000 0.000000 0.000000
0.000000 0.000000 0.000000
0.000000 0.000000 0.000000
0.000000 0.000000 0.000000
0.000000 0.000000 0.000000
0.000000 0.000000 0.000000
0.000000 0.000000 0.000000
0.000000 0.000000 0.000000
0.000000 0.000000 0.000000
0.000000 0.000000 0.000000
0.000000 0.000000 0.000000
0.000000 0.000000 0.000000
0.000000 0.000000 0.000000
0.000000 0.000000 0.000000
0.000000 0.000000 0.000000
0.000000 0.000000 0.000000
0.000000 0.000000 0.000000
0.000000 0.000000 0.000000
0.000000 0.000000 0.000000
0.000000 0.000000 0.000000
0.000000 0.000000 0.000000
0.000000 0.000000 0.000000
0.000000 0.000000 0.000000
0.000000 0.000000 0.000000
0.000000 0.000000 0.000000
0.000000 0.000000 0.000000
0.000000 0.000000 0.000000
0.000000 0.000000 0.000000
0.000000 0.000000 0.000000
