Ti96 Nb1
1.0
9.513020 0.000000 0.000000
0.000000 9.350860 0.000000
0.000000 0.000000 18.547230
Ti Nb
96 1
Selective dynamics
direct
0.134953 0.361686 0.404535 T T T Ti
0.653568 0.354884 0.401071 T T T Ti
0.165529 0.859420 0.399325 T T T Ti
0.680860 0.913616 0.404601 T T T Ti
0.159558 0.377570 0.237075 T T T Ti
0.664624 0.368331 0.229596 T T T Ti
0.159433 0.873451 0.234115 T T T Ti
0.657835 0.863466 0.242814 T T T Ti
0.166661 0.374991 0.077599 F F F Ti
0.666672 0.375015 0.077662 F F F Ti
0.166684 0.875007 0.077652 F F F Ti
0.666678 0.875027 0.077637 F F F Ti
0.405099 0.371119 0.312964 T T T Ti
0.902139 0.377797 0.317210 T T T Ti
0.399812 0.901945 0.313225 T T T Ti
0.914550 0.878607 0.319168 T T T Ti
0.416698 0.374898 0.155219 F F F Ti
0.916586 0.375011 0.155185 F F F Ti
0.416633 0.875051 0.155274 F F F Ti
0.916796 0.875019 0.155162 F F F Ti
0.416694 0.375040 0.000061 F F F Ti
0.916601 0.375038 0.000010 F F F Ti
0.416684 0.874966 0.000120 F F F Ti
0.916640 0.874984 0.000033 F F F Ti
0.097861 0.122204 0.317209 T T T Ti
0.594901 0.128883 0.312963 T T T Ti
0.085450 0.621394 0.319167 T T T Ti
0.600188 0.598057 0.313224 T T T Ti
0.083414 0.125010 0.155186 F F F Ti
0.583303 0.125124 0.155218 F F F Ti
0.083203 0.625003 0.155161 F F F Ti
0.583368 0.624966 0.155274 F F F Ti
0.083401 0.124968 0.000011 F F F Ti
0.583306 0.124964 0.000062 F F F Ti
0.083360 0.625024 0.000032 F F F Ti
0.583318 0.625032 0.000119 F F F Ti
0.346431 0.145117 0.401071 T T T Ti
0.865046 0.138315 0.404535 T T T Ti
0.319139 0.586384 0.404601 T T T Ti
0.834470 0.640580 0.399325 T T T Ti
0.335376 0.131674 0.229595 T T T Ti
0.840441 0.122435 0.237075 T T T Ti
0.342164 0.636538 0.242814 T T T Ti
0.840566 0.626554 0.234115 T T T Ti
0.333327 0.124999 0.077662 F F F Ti
0.833339 0.125026 0.077599 F F F Ti
0.333322 0.624988 0.077636 F F F Ti
0.833315 0.625007 0.077651 F F F Ti
0.374949 0.375072 0.823981 F F F Ti
0.874944 0.375030 0.823918 F F F Ti
0.375015 0.874917 0.823963 F F F Ti
0.875099 0.875029 0.823871 F F F Ti
0.125061 0.124962 0.823920 F F F Ti
0.625053 0.124925 0.823982 F F F Ti
0.124910 0.624970 0.823872 F F F Ti
0.624991 0.625059 0.823961 F F F Ti
0.124950 0.375033 0.910166 F F F Ti
0.625012 0.375026 0.910197 F F F Ti
0.125022 0.874963 0.910170 F F F Ti
0.625013 0.874986 0.910199 F F F Ti
0.374994 0.124967 0.910200 F F F Ti
0.875055 0.124962 0.910166 F F F Ti
0.374992 0.625006 0.910198 F F F Ti
0.874983 0.625033 0.910168 F F F Ti
0.386880 0.389313 0.659569 T T T Ti
0.895187 0.382652 0.650006 T T T Ti
0.385659 0.882023 0.657792 T T T Ti
0.891808 0.883436 0.658883 T T T Ti
0.104813 0.117344 0.650006 T T T Ti
0.613117 0.110679 0.659569 T T T Ti
0.108190 0.616558 0.658884 T T T Ti
0.614339 0.617971 0.657792 T T T Ti
0.144345 0.371942 0.568115 T T T Ti
0.645809 0.355738 0.585197 T T T Ti
0.142792 0.855964 0.575334 T T T Ti
0.657455 0.877145 0.566927 T T T Ti
0.354190 0.144260 0.585198 T T T Ti
0.855655 0.128057 0.568115 T T T Ti
0.342545 0.622854 0.566926 T T T Ti
0.857208 0.644035 0.575334 T T T Ti
0.403187 0.366405 0.492937 T T T Ti
0.888373 0.381806 0.491480 T T T Ti
0.371942 0.932057 0.496252 T T T Ti
0.917812 0.880450 0.483254 T T T Ti
0.111627 0.118194 0.491481 T T T Ti
0.596813 0.133594 0.492937 T T T Ti
0.082187 0.619549 0.483254 T T T Ti
0.628058 0.567943 0.496252 T T T Ti
0.125316 0.874838 0.737677 F F F Ti
0.625254 0.874910 0.737760 F F F Ti
0.374733 0.625064 0.737760 F F F Ti
0.874678 0.625145 0.737678 F F F Ti
0.124515 0.375065 0.737695 F F F Ti
0.625093 0.375182 0.737793 F F F Ti
0.374895 0.124791 0.737798 F F F Ti
0.875479 0.124915 0.737691 F F F Ti
0.500000 0.750000 0.449652 T T T Nb

0.000000 0.000000 0.000000
0.000000 0.000000 0.000000
0.000000 0.000000 0.000000
0.000000 0.000000 0.000000
0.000000 0.000000 0.000000
0.000000 0.000000 0.000000
0.000000 0.000000 0.000000
0.000000 0.000000 0.000000
0.000000 0.000000 0.000000
0.000000 0.000000 0.000000
0.000000 0.000000 0.000000
0.000000 0.000000 0.000000
0.000000 0.000000 0.000000
0.000000 0.000000 0.000000
0.000000 0.000000 0.000000
0.000000 0.000000 0.000000
0.000000 0.000000 0.000000
0.000000 0.000000 0.000000
0.000000 0.000000 0.000000
0.000000 0.000000 0.000000
0.000000 0.000000 0.000000
0.000000 0.000000 0.000000
0.000000 0.000000 0.000000
0.000000 0.000000 0.000000
0.000000 0.000000 0.000000
0.000000 0.000000 0.000000
0.000000 0.000000 0.000000
0.000000 0.000000 0.000000
0.000000 0.000000 0.000000
0.000000 0.000000 0.000000
0.000000 0.000000 0.000000
0.000000 0.000000 0.000000
0.000000 0.000000 0.000000
0.000000 0.000000 0.000000
0.000000 0.000000 0.000000
0.000000 0.000000 0.000000
0.000000 0.000000 0.000000
0.000000 0.000000 0.000000
0.000000 0.000000 0.000000
0.000000 0.000000 0.000000
0.000000 0.000000 0.000000
0.000000 0.000000 0.000000
0.000000 0.000000 0.000000
0.000000 0.000000 0.000000
0.000000 0.000000 0.000000
0.000000 0.000000 0.000000
0.000000 0.000000 0.000000
0.000000 0.000000 0.000000
0.000000 0.000000 0.000000
0.000000 0.000000 0.000000
0.000000 0.000000 0.000000
0.000000 0.000000 0.000000
0.000000 0.000000 0.000000
0.000000 0.000000 0.000000
0.000000 0.000000 0.000000
0.000000 0.000000 0.000000
0.000000 0.000000 0.000000
0.000000 0.000000 0.000000
0.000000 0.000000 0.000000
0.000000 0.000000 0.000000
0.000000 0.000000 0.000000
0.000000 0.000000 0.000000
0.000000 0.000000 0.000000
0.000000 0.000000 0.000000
0.000000 0.000000 0.000000
0.000000 0.000000 0.000000
0.000000 0.000000 0.000000
0.000000 0.000000 0.000000
0.000000 0.000000 0.000000
0.000000 0.000000 0.000000
0.000000 0.000000 0.000000
0.000000 0.000000 0.000000
0.000000 0.000000 0.000000
0.000000 0.000000 0.000000
0.000000 0.000000 0.000000
0.000000 0.000000 0.000000
0.000000 0.000000 0.000000
0.000000 0.000000 0.000000
0.000000 0.000000 0.000000
0.000000 0.000000 0.000000
0.000000 0.000000 0.000000
0.000000 0.000000 0.000000
0.000000 0.000000 0.000000
0.000000 0.000000 0.000000
0.000000 0.000000 0.000000
0.000000 0.000000 0.000000
0.000000 0.000000 0.000000
0.000000 0.000000 0.000000
0.000000 0.000000 0.000000
0.000000 0.000000 0.000000
0.000000 0.000000 0.000000
0.000000 0.000000 0.000000
0.000000 0.000000 0.000000
0.000000 0.000000 0.000000
0.000000 0.000000 0.000000
0.000000 0.000000 0.000000
0.000000 0.000000 0.000000
