Ti96 Al1                                
   1.00000000000000     
     9.5130199999999991    0.0000000000000000    0.0000000000000000
     0.0000000000000000    9.3508600000000008    0.0000000000000000
     0.0000000000000000    0.0000000000000000   18.5472299999999990
   Ti   Al
    96     1
Selective dynamics
Direct
  0.1481348083155564  0.3791423947963414  0.4018359266280548   T   T   T
  0.6661279098101700  0.3490565473532534  0.3889554479558158   T   T   T
  0.1377427239421778  0.8596517185225790  0.3942489275358389   T   T   T
  0.6479682653836706  0.8521102401048710  0.4145041825686575   T   T   T
  0.1637849291476625  0.3689106159562797  0.2359866956229939   T   T   T
  0.6572453446534585  0.3723751901160833  0.2340088151202242   T   T   T
  0.1608373656205963  0.8744866559302504  0.2348675248092754   T   T   T
  0.6607172418771693  0.8705722822799624  0.2369263115396808   T   T   T
  0.1666659999999993  0.3750000000000000  0.0776889999999995   F   F   F
  0.6666659999999993  0.3750000000000000  0.0776889999999995   F   F   F
  0.1666659999999993  0.8750000000000000  0.0776889999999995   F   F   F
  0.6666659999999993  0.8750000000000000  0.0776889999999995   F   F   F
  0.4071191639339511  0.3891613988738214  0.3186207538482049   T   T   T
  0.9118640888356252  0.3757648403369545  0.3152236582318875   T   T   T
  0.4024117438382727  0.8810418593423277  0.3185818382574019   T   T   T
  0.9049263416270972  0.8786828642378205  0.3126903663367570   T   T   T
  0.4166669999999968  0.3750000000000000  0.1553790000000035   F   F   F
  0.9166669999999968  0.3750000000000000  0.1553790000000035   F   F   F
  0.4166669999999968  0.8750000000000000  0.1553790000000035   F   F   F
  0.9166669999999968  0.8750000000000000  0.1553790000000035   F   F   F
  0.4166669999999968  0.3750000000000000  0.0000000000000000   F   F   F
  0.9166669999999968  0.3750000000000000  0.0000000000000000   F   F   F
  0.4166669999999968  0.8750000000000000  0.0000000000000000   F   F   F
  0.9166669999999968  0.8750000000000000  0.0000000000000000   F   F   F
  0.0881359111643747  0.1242351596630456  0.3152226582318829   T   T   T
  0.5928808360660489  0.1108386011261786  0.3186197538482003   T   T   T
  0.0950736583729027  0.6213171357621795  0.3126893663367524   T   T   T
  0.5975882561617274  0.6189581406576723  0.3185808382573974   T   T   T
  0.0833330000000032  0.1250000000000000  0.1553790000000035   F   F   F
  0.5833330000000032  0.1250000000000000  0.1553790000000035   F   F   F
  0.0833330000000032  0.6250000000000000  0.1553790000000035   F   F   F
  0.5833330000000032  0.6250000000000000  0.1553790000000035   F   F   F
  0.0833330000000032  0.1250000000000000  0.0000000000000000   F   F   F
  0.5833330000000032  0.1250000000000000  0.0000000000000000   F   F   F
  0.0833330000000032  0.6250000000000000  0.0000000000000000   F   F   F
  0.5833330000000032  0.6250000000000000  0.0000000000000000   F   F   F
  0.3338710901898325  0.1509434526467465  0.3889554479558158   T   T   T
  0.8518641916844464  0.1208576052036586  0.4018359266280548   T   T   T
  0.3520307346163320  0.6478897598951290  0.4145041825686575   T   T   T
  0.8622562760578248  0.6403482814774210  0.3942489275358389   T   T   T
  0.3427536553465436  0.1276248098839166  0.2340088151202242   T   T   T
  0.8362140708523397  0.1310893840437203  0.2359866956229939   T   T   T
  0.3392817581228327  0.6294277177200376  0.2369263115396808   T   T   T
  0.8391616343794063  0.6255133440697496  0.2348675248092754   T   T   T
  0.3333330000000032  0.1250000000000000  0.0776889999999995   F   F   F
  0.8333330000000032  0.1250000000000000  0.0776889999999995   F   F   F
  0.3333330000000032  0.6250000000000000  0.0776889999999995   F   F   F
  0.8333330000000032  0.6250000000000000  0.0776889999999995   F   F   F
  0.3750000000000000  0.3750000000000000  0.8237379999999987   F   F   F
  0.8750000000000000  0.3750000000000000  0.8237379999999987   F   F   F
  0.3750000000000000  0.8750000000000000  0.8237379999999987   F   F   F
  0.8750000000000000  0.8750000000000000  0.8237379999999987   F   F   F
  0.1250000000000000  0.1250000000000000  0.8237379999999987   F   F   F
  0.6250000000000000  0.1250000000000000  0.8237379999999987   F   F   F
  0.1250000000000000  0.6250000000000000  0.8237379999999987   F   F   F
  0.6250000000000000  0.6250000000000000  0.8237379999999987   F   F   F
  0.1250000000000000  0.3750000000000000  0.9100839999999977   F   F   F
  0.6250000000000000  0.3750000000000000  0.9100839999999977   F   F   F
  0.1250000000000000  0.8750000000000000  0.9100839999999977   F   F   F
  0.6250000000000000  0.8750000000000000  0.9100839999999977   F   F   F
  0.3750000000000000  0.1250000000000000  0.9100839999999977   F   F   F
  0.8750000000000000  0.1250000000000000  0.9100839999999977   F   F   F
  0.3750000000000000  0.6250000000000000  0.9100839999999977   F   F   F
  0.8750000000000000  0.6250000000000000  0.9100839999999977   F   F   F
  0.3839788688888545  0.3705143305431082  0.6689333547503530   T   T   T
  0.8826561159227341  0.3929967693335249  0.6466955044001250   T   T   T
  0.3978242150262541  0.8811747602971431  0.6586651151132846   T   T   T
  0.9142204093526389  0.8861174401917021  0.6509473833350755   T   T   T
  0.1173438840772658  0.1070032306664751  0.6466955044001250   T   T   T
  0.6160211311111459  0.1294856694568919  0.6689333547503530   T   T   T
  0.0857795906473607  0.6138825598082979  0.6509473833350755   T   T   T
  0.6021757849737456  0.6188252397028569  0.6586651151132846   T   T   T
  0.1376944287536544  0.3525167432071918  0.5664758346519718   T   T   T
  0.6327803115131486  0.3589419497248599  0.5758162677725245   T   T   T
  0.1716444756157066  0.8454317017605912  0.5712826814200271   T   T   T
  0.6801335211047377  0.9261271979684507  0.5808039590322556   T   T   T
  0.3672196884868517  0.1410580502751401  0.5758162677725245   T   T   T
  0.8623055712463453  0.1474832567928084  0.5664758346519718   T   T   T
  0.3198664788952630  0.5738728020315493  0.5808039590322556   T   T   T
  0.8283555243842934  0.6545682982394088  0.5712826814200271   T   T   T
  0.4056347126684967  0.3735237693785463  0.4786152391979790   T   T   T
  0.8876506720782813  0.3863978125322664  0.4853665188056651   T   T   T
  0.3608828465480809  0.9324710470238071  0.4698955849779047   T   T   T
  0.9134802384786724  0.8824345638409034  0.4904202458174157   T   T   T
  0.1123493279217185  0.1136021874677337  0.4853665188056651   T   T   T
  0.5943652873315030  0.1264762306214537  0.4786152391979790   T   T   T
  0.0865197615213276  0.6175654361590966  0.4904202458174157   T   T   T
  0.6391171534519189  0.5675289529761929  0.4698955849779047   T   T   T
  0.1250000000000000  0.8750000000000000  0.7373949999999994   F   F   F
  0.6250000000000000  0.8750000000000000  0.7373949999999994   F   F   F
  0.3750000000000000  0.6250000000000000  0.7373949999999994   F   F   F
  0.8750000000000000  0.6250000000000000  0.7373949999999994   F   F   F
  0.1250000000000000  0.3750000000000000  0.7373949999999994   F   F   F
  0.6250000000000000  0.3750000000000000  0.7373949999999994   F   F   F
  0.3750000000000000  0.1250000000000000  0.7373949999999994   F   F   F
  0.8750000000000000  0.1250000000000000  0.7373949999999994   F   F   F
  0.5000000000000000  0.7500000000000000  0.5390429066977155   T   T   T
 
  0.00000000E+00  0.00000000E+00  0.00000000E+00
  0.00000000E+00  0.00000000E+00  0.00000000E+00
  0.00000000E+00  0.00000000E+00  0.00000000E+00
  0.00000000E+00  0.00000000E+00  0.00000000E+00
  0.00000000E+00  0.00000000E+00  0.00000000E+00
  0.00000000E+00  0.00000000E+00  0.00000000E+00
  0.00000000E+00  0.00000000E+00  0.00000000E+00
  0.00000000E+00  0.00000000E+00  0.00000000E+00
  0.00000000E+00  0.00000000E+00  0.00000000E+00
  0.00000000E+00  0.00000000E+00  0.00000000E+00
  0.00000000E+00  0.00000000E+00  0.00000000E+00
  0.00000000E+00  0.00000000E+00  0.00000000E+00
  0.00000000E+00  0.00000000E+00  0.00000000E+00
  0.00000000E+00  0.00000000E+00  0.00000000E+00
  0.00000000E+00  0.00000000E+00  0.00000000E+00
  0.00000000E+00  0.00000000E+00  0.00000000E+00
  0.00000000E+00  0.00000000E+00  0.00000000E+00
  0.00000000E+00  0.00000000E+00  0.00000000E+00
  0.00000000E+00  0.00000000E+00  0.00000000E+00
  0.00000000E+00  0.00000000E+00  0.00000000E+00
  0.00000000E+00  0.00000000E+00  0.00000000E+00
  0.00000000E+00  0.00000000E+00  0.00000000E+00
  0.00000000E+00  0.00000000E+00  0.00000000E+00
  0.00000000E+00  0.00000000E+00  0.00000000E+00
  0.00000000E+00  0.00000000E+00  0.00000000E+00
  0.00000000E+00  0.00000000E+00  0.00000000E+00
  0.00000000E+00  0.00000000E+00  0.00000000E+00
  0.00000000E+00  0.00000000E+00  0.00000000E+00
  0.00000000E+00  0.00000000E+00  0.00000000E+00
  0.00000000E+00  0.00000000E+00  0.00000000E+00
  0.00000000E+00  0.00000000E+00  0.00000000E+00
  0.00000000E+00  0.00000000E+00  0.00000000E+00
  0.00000000E+00  0.00000000E+00  0.00000000E+00
  0.00000000E+00  0.00000000E+00  0.00000000E+00
  0.00000000E+00  0.00000000E+00  0.00000000E+00
  0.00000000E+00  0.00000000E+00  0.00000000E+00
  0.00000000E+00  0.00000000E+00  0.00000000E+00
  0.00000000E+00  0.00000000E+00  0.00000000E+00
  0.00000000E+00  0.00000000E+00  0.00000000E+00
  0.00000000E+00  0.00000000E+00  0.00000000E+00
  0.00000000E+00  0.00000000E+00  0.00000000E+00
  0.00000000E+00  0.00000000E+00  0.00000000E+00
  0.00000000E+00  0.00000000E+00  0.00000000E+00
  0.00000000E+00  0.00000000E+00  0.00000000E+00
  0.00000000E+00  0.00000000E+00  0.00000000E+00
  0.00000000E+00  0.00000000E+00  0.00000000E+00
  0.00000000E+00  0.00000000E+00  0.00000000E+00
  0.00000000E+00  0.00000000E+00  0.00000000E+00
  0.00000000E+00  0.00000000E+00  0.00000000E+00
  0.00000000E+00  0.00000000E+00  0.00000000E+00
  0.00000000E+00  0.00000000E+00  0.00000000E+00
  0.00000000E+00  0.00000000E+00  0.00000000E+00
  0.00000000E+00  0.00000000E+00  0.00000000E+00
  0.00000000E+00  0.00000000E+00  0.00000000E+00
  0.00000000E+00  0.00000000E+00  0.00000000E+00
  0.00000000E+00  0.00000000E+00  0.00000000E+00
  0.00000000E+00  0.00000000E+00  0.00000000E+00
  0.00000000E+00  0.00000000E+00  0.00000000E+00
  0.00000000E+00  0.00000000E+00  0.00000000E+00
  0.00000000E+00  0.00000000E+00  0.00000000E+00
  0.00000000E+00  0.00000000E+00  0.00000000E+00
  0.00000000E+00  0.00000000E+00  0.00000000E+00
  0.00000000E+00  0.00000000E+00  0.00000000E+00
  0.00000000E+00  0.00000000E+00  0.00000000E+00
  0.00000000E+00  0.00000000E+00  0.00000000E+00
  0.00000000E+00  0.00000000E+00  0.00000000E+00
  0.00000000E+00  0.00000000E+00  0.00000000E+00
  0.00000000E+00  0.00000000E+00  0.00000000E+00
  0.00000000E+00  0.00000000E+00  0.00000000E+00
  0.00000000E+00  0.00000000E+00  0.00000000E+00
  0.00000000E+00  0.00000000E+00  0.00000000E+00
  0.00000000E+00  0.00000000E+00  0.00000000E+00
  0.00000000E+00  0.00000000E+00  0.00000000E+00
  0.00000000E+00  0.00000000E+00  0.00000000E+00
  0.00000000E+00  0.00000000E+00  0.00000000E+00
  0.00000000E+00  0.00000000E+00  0.00000000E+00
  0.00000000E+00  0.00000000E+00  0.00000000E+00
  0.00000000E+00  0.00000000E+00  0.00000000E+00
  0.00000000E+00  0.00000000E+00  0.00000000E+00
  0.00000000E+00  0.00000000E+00  0.00000000E+00
  0.00000000E+00  0.00000000E+00  0.00000000E+00
  0.00000000E+00  0.00000000E+00  0.00000000E+00
  0.00000000E+00  0.00000000E+00  0.00000000E+00
  0.00000000E+00  0.00000000E+00  0.00000000E+00
  0.00000000E+00  0.00000000E+00  0.00000000E+00
  0.00000000E+00  0.00000000E+00  0.00000000E+00
  0.00000000E+00  0.00000000E+00  0.00000000E+00
  0.00000000E+00  0.00000000E+00  0.00000000E+00
  0.00000000E+00  0.00000000E+00  0.00000000E+00
  0.00000000E+00  0.00000000E+00  0.00000000E+00
  0.00000000E+00  0.00000000E+00  0.00000000E+00
  0.00000000E+00  0.00000000E+00  0.00000000E+00
  0.00000000E+00  0.00000000E+00  0.00000000E+00
  0.00000000E+00  0.00000000E+00  0.00000000E+00
  0.00000000E+00  0.00000000E+00  0.00000000E+00
  0.00000000E+00  0.00000000E+00  0.00000000E+00
  0.00000000E+00  0.00000000E+00  0.00000000E+00
