beta_Ti
1.0
8.805261 0.000000 0.000000
-4.402631 7.625580 0.000000
0.000000 0.000000 28.883422
Ti
36
direct
0.967272 0.027818 0.570796 Ti
0.967272 0.527818 0.570796 Ti
0.467272 0.027818 0.570796 Ti
0.467272 0.527818 0.570796 Ti
0.133938 0.361151 0.794878 Ti
0.133938 0.861151 0.794878 Ti
0.633938 0.361151 0.794878 Ti
0.633938 0.861151 0.794878 Ti
0.300605 0.194485 0.826890 Ti
0.300605 0.694485 0.826890 Ti
0.800605 0.194485 0.826890 Ti
0.800605 0.694485 0.826890 Ti
0.133938 0.361151 0.602808 Ti
0.133938 0.861151 0.602808 Ti
0.633938 0.361151 0.602808 Ti
0.633938 0.861151 0.602808 Ti
0.300605 0.194485 0.634820 Ti
0.300605 0.694485 0.634820 Ti
0.800605 0.194485 0.634820 Ti
0.800605 0.694485 0.634820 Ti
0.967272 0.027818 0.666831 Ti
0.967272 0.527818 0.666831 Ti
0.467272 0.027818 0.666831 Ti
0.467272 0.527818 0.666831 Ti
0.133938 0.361151 0.698843 Ti
0.133938 0.861151 0.698843 Ti
0.633938 0.361151 0.698843 Ti
0.633938 0.861151 0.698843 Ti
0.300605 0.194485 0.730855 Ti
0.300605 0.694485 0.730855 Ti
0.800605 0.194485 0.730855 Ti
0.800605 0.694485 0.730855 Ti
0.967272 0.027818 0.762866 Ti
0.967272 0.527818 0.762866 Ti
0.467272 0.027818 0.762866 Ti
0.467272 0.527818 0.762866 Ti
