beta_Ti
1.0
6.391540 0.000000 0.000000
0.000000 9.587310 0.000000
0.000000 0.000000 24.250000
Ti
36
direct
0.125000 0.083333 0.577320 Ti
0.625000 0.083333 0.577320 Ti
0.125000 0.083333 0.701031 Ti
0.625000 0.083333 0.701031 Ti
0.125000 0.083333 0.824742 Ti
0.625000 0.083333 0.824742 Ti
0.125000 0.416667 0.577320 Ti
0.625000 0.416667 0.577320 Ti
0.125000 0.416667 0.701031 Ti
0.625000 0.416667 0.701031 Ti
0.125000 0.416667 0.824742 Ti
0.625000 0.416667 0.824742 Ti
0.125000 0.750000 0.577320 Ti
0.625000 0.750000 0.577320 Ti
0.125000 0.750000 0.701031 Ti
0.625000 0.750000 0.701031 Ti
0.125000 0.750000 0.824742 Ti
0.625000 0.750000 0.824742 Ti
0.375000 0.250000 0.639175 Ti
0.875000 0.250000 0.639175 Ti
0.375000 0.250000 0.762887 Ti
0.875000 0.250000 0.762887 Ti
0.375000 0.250000 0.886598 Ti
0.875000 0.250000 0.886598 Ti
0.375000 0.583333 0.639175 Ti
0.875000 0.583333 0.639175 Ti
0.375000 0.583333 0.762887 Ti
0.875000 0.583333 0.762887 Ti
0.375000 0.583333 0.886598 Ti
0.875000 0.583333 0.886598 Ti
0.375000 0.916667 0.639175 Ti
0.875000 0.916667 0.639175 Ti
0.375000 0.916667 0.762887 Ti
0.875000 0.916667 0.762887 Ti
0.375000 0.916667 0.886598 Ti
0.875000 0.916667 0.886598 Ti
