beta_Ti
1.0
8.805261 0.000000 0.000000
-4.402631 7.625580 0.000000
0.000000 0.000000 21.883422
Ti
36
direct
0.055556 0.055556 0.593442 Ti
0.055556 0.555555 0.593442 Ti
0.555556 0.055556 0.593442 Ti
0.555556 0.555555 0.593442 Ti
0.222222 0.388889 0.889203 Ti
0.222222 0.888889 0.889203 Ti
0.722222 0.388889 0.889203 Ti
0.722222 0.888889 0.889203 Ti
0.388889 0.222222 0.931454 Ti
0.388889 0.722222 0.931454 Ti
0.888889 0.222222 0.931454 Ti
0.888889 0.722222 0.931454 Ti
0.222222 0.388889 0.635694 Ti
0.222222 0.888889 0.635694 Ti
0.722222 0.388889 0.635694 Ti
0.722222 0.888889 0.635694 Ti
0.388889 0.222222 0.677945 Ti
0.388889 0.722222 0.677945 Ti
0.888889 0.222222 0.677945 Ti
0.888889 0.722222 0.677945 Ti
0.055556 0.055556 0.720197 Ti
0.055556 0.555555 0.720197 Ti
0.555556 0.055556 0.720197 Ti
0.555556 0.555555 0.720197 Ti
0.222222 0.388889 0.762448 Ti
0.222222 0.888889 0.762448 Ti
0.722222 0.388889 0.762448 Ti
0.722222 0.888889 0.762448 Ti
0.388889 0.222222 0.804700 Ti
0.388889 0.722222 0.804700 Ti
0.888889 0.222222 0.804700 Ti
0.888889 0.722222 0.804700 Ti
0.055556 0.055556 0.846951 Ti
0.055556 0.555555 0.846951 Ti
0.555556 0.055556 0.846951 Ti
0.555556 0.555555 0.846951 Ti
