total_structure
1.0
   3.0750000000000002    0.0000000000000000    0.0000000000000002
   0.0000000000000026   16.0000000000000000    0.0000000000000010
   0.0000000000000000    0.0000000000000000   56.5109925000000004
Cr Fe W N
30 54 6 36
Selective dynamics
direct
   0.3179800000000000    0.8541700000000000    0.1628338681186673 T T T Cr
   0.3171399999999999    0.9636600000000000    0.2076400710888240 T T T Cr
   0.8244299999999999    0.7978400000000000    0.2073091266270009 T T T Cr
   0.3327500000000000    0.5208500000000000    0.1628338681186673 T T T Cr
   0.3319100000000000    0.6303400000000000    0.2076400710888240 T T T Cr
   0.8252700000000001    0.6883500000000000    0.1625121165585615 T T T Cr
   0.8391900000000000    0.4645200000000000    0.2073091266270009 T T T Cr
   0.3475200000000000    0.1875300000000000    0.1628338681186673 T T T Cr
   0.3466800000000000    0.2970200000000000    0.2076400710888240 T T T Cr
   0.8400400000000000    0.3550300000000000    0.1625029236568443 T T T Cr
   0.8539600000000002    0.1311900000000000    0.2073091266270009 T T T Cr
   0.3190500000000000    0.8541800000000001    0.0293713209867974 F F F Cr
   0.3182000000000000    0.9636700000000000    0.0741775239569540 F F F Cr
   0.8254899999999999    0.7978400000000000    0.0738465794951310 F F F Cr
   0.3320899999999999    0.7398700000000000    0.1180184722467934 F F F Cr
   0.8246500000000000    0.9073300000000000    0.1186527824652876 F F F Cr
   0.3338200000000000    0.5208600000000000    0.0293713209867974 F F F Cr
   0.3329700000000000    0.6303500000000000    0.0741775239569540 F F F Cr
   0.8263400000000001    0.6883500000000000    0.0290495694266916 F F F Cr
   0.8402600000000000    0.4645200000000000    0.0738465794951310 F F F Cr
   0.3468600000000001    0.4065500000000000    0.1180184722467934 F F F Cr
   0.8394100000000000    0.5740100000000000    0.1186527824652876 F F F Cr
   0.3485900000000000    0.1875400000000000    0.0293713209867974 F F F Cr
   0.3477400000000000    0.2970300000000000    0.0741775239569540 F F F Cr
   0.8411000000000000    0.3550300000000000    0.0290403765249743 F F F Cr
   0.8550300000000000    0.1312000000000000    0.0738465794951310 F F F Cr
   0.3616200000000000    0.0732300000000000    0.1180184722467934 F F F Cr
   0.8541800000000001    0.2406900000000000    0.1186527824652876 F F F Cr
   0.8400400000000000    0.0233600000000000    0.1625029236568443 T T T Cr
   0.8411000000000000    0.0233700000000000    0.0290403765249743 F F F Cr
   0.3530400000000000    0.0286600000000000    0.4033990643501793 T T T Fe
   0.3478800000000001    0.1409000000000000    0.4467895604558705 T T T Fe
   0.3467900000000000    0.0900100000000000    0.5199834439290727 F F F Fe
   0.3427100000000000    0.2531300000000000    0.4901892494632791 T T T Fe
   0.3457200000000000    0.0391300000000000    0.5931681345005575 F F F Fe
   0.3416299999999999    0.2022400000000000    0.5633831329364813 F F F Fe
   0.3375500000000000    0.3653700000000000    0.5335889384706879 F F F Fe
   0.3489500000000000    0.1917800000000000    0.3736048698843857 T T T Fe
   0.3437799999999999    0.3040200000000000    0.4170045588917943 T T T Fe
   0.3396900000000000    0.4671400000000000    0.3872195573277181 T T T Fe
   0.3386200000000000    0.4162500000000000    0.4603950549974857 T T T Fe
   0.3345300000000000    0.5793800000000000    0.4306100534334095 T T T Fe
   0.3304300000000000    0.7425000000000000    0.4008250518693332 T T T Fe
   0.3334500000000000    0.5284799999999999    0.5038039369066115 F F F Fe
   0.3293600000000000    0.6916099999999999    0.4740097424408181 T T T Fe
   0.3252700000000000    0.8547400000000001    0.4442155479750244 T T T Fe
   0.3405600000000000    0.1513600000000000    0.6365678235079660 F F F Fe
   0.3364600000000000    0.3144800000000000    0.6067736290421726 F F F Fe
   0.3323800000000000    0.4776000000000000    0.5769886274780964 F F F Fe
   0.3272200000000001    0.5898400000000000    0.6203883164855050 F F F Fe
   0.3282900000000000    0.6407200000000000    0.5471944330123029 F F F Fe
   0.3242000000000000    0.8038500000000000    0.5174094314482266 F F F Fe
   0.3200999999999999    0.9669700000000000    0.4876152369824330 T T T Fe
   0.3231200000000000    0.7529500000000000    0.5905941220197114 F F F Fe
   0.3190300000000000    0.9160800000000000    0.5608091204556352 F F F Fe
   0.3179600000000000    0.8652000000000000    0.6339938110271199 F F F Fe
   0.8304500000000001    0.1161200000000000    0.4834416596027755 T T T Fe
   0.8293800000000001    0.0652400000000000    0.5566263501742604 F F F Fe
   0.8252899999999999    0.2283500000000000    0.5268413486101841 F F F Fe
   0.8366900000000000    0.0547800000000000    0.3668572800238821 T T T Fe
   0.8315300000000000    0.1670100000000000    0.4102477761295734 T T T Fe
   0.8274300000000000    0.3301300000000000    0.3804627745654972 T T T Fe
   0.8263600000000000    0.2792400000000000    0.4536474651369819 T T T Fe
   0.8222699999999999    0.4423600000000000    0.4238624635729058 T T T Fe
   0.8181899999999999    0.6054900000000000    0.3940682691071122 T T T Fe
   0.8212000000000000    0.3914800000000000    0.4970471541443906 F F F Fe
   0.8171000000000000    0.5546000000000000    0.4672529596785970 T T T Fe
   0.8130200000000001    0.7177200000000000    0.4374679581145208 T T T Fe
   0.8089300000000000    0.8808500000000000    0.4076737636487272 T T T Fe
   0.8283100000000001    0.0143500000000000    0.6298202336474624 F F F Fe
   0.8242200000000000    0.1774700000000000    0.6000352320833862 F F F Fe
   0.8201200000000000    0.3405900000000000    0.5702318447158752 F F F Fe
   0.8149600000000001    0.4528200000000000    0.6136407266250011 F F F Fe
   0.8160300000000000    0.5037100000000000    0.5404468431517991 F F F Fe
   0.8119400000000000    0.6668300000000000    0.5106618415877230 F F F Fe
   0.8078600000000001    0.8299600000000000    0.4808584542202121 T T T Fe
   0.8030800000000000    0.0063900000000000    0.4394444319837419 T T T Fe
   0.8108699999999999    0.6159500000000000    0.5838373392574904 F F F Fe
   0.8067699999999999    0.7790700000000000    0.5540523376934142 F F F Fe
   0.8026899999999999    0.9421900000000000    0.5242673361293380 F F F Fe
   0.8057000000000000    0.7281800000000000    0.6272462211666163 F F F Fe
   0.8016100000000000    0.8913000000000000    0.5974520267008228 F F F Fe
   0.3238700000000000    0.9110900000000000    0.3713618018653628 T T T Fe
   0.8118499999999998    0.7695300000000000    0.3642464959361666 T T T Fe
   0.3310199999999999    0.7398700000000000    0.3321908476479156 T T T W
   0.8235800000000000    0.9073300000000000    0.3328251578664098 T T T W
   0.3457900000000000    0.4065500000000000    0.3321908476479156 T T T W
   0.8383500000000002    0.5740100000000000    0.3328251578664098 T T T W
   0.3605600000000000    0.0732200000000000    0.3321908476479156 T T T W
   0.8531199999999999    0.2406800000000000    0.3328251578664098 T T T W
   0.8174800000000000    0.9097300000000000    0.1853932489329399 T T T N
   0.3249200000000000    0.7422700000000000    0.1847497458127283 T T T N
   0.3240800000000000    0.8517600000000000    0.2295559487828850 T T T N
   0.8315899999999999    0.7954300000000000    0.1405778530610659 T T T N
   0.3243000000000000    0.9612600000000000    0.1408996046211717 T T T N
   0.8322500000000002    0.5764100000000000    0.1853932489329399 T T T N
   0.8313700000000001    0.6859400000000000    0.2292341972227792 T T T N
   0.3396900000000000    0.4089500000000000    0.1847497458127284 T T T N
   0.3388500000000000    0.5184400000000000    0.2295559487828850 T T T N
   0.8463600000000001    0.4621100000000000    0.1405778530610660 T T T N
   0.3390700000000000    0.6279400000000001    0.1408996046211717 T T T N
   0.8470199999999999    0.2430900000000000    0.1853932489329399 T T T N
   0.8461400000000000    0.3526200000000000    0.2292341972227792 T T T N
   0.3544600000000000    0.0756300000000000    0.1847497458127284 T T T N
   0.3536200000000000    0.1851200000000000    0.2295559487828850 T T T N
   0.8611300000000000    0.1287900000000000    0.1405778530610659 T T T N
   0.3538400000000000    0.2946200000000000    0.1408996046211717 T T T N
   0.8185500000000000    0.9097400000000000    0.0519307018010699 F F F N
   0.3259899999999999    0.7422800000000001    0.0512871986808584 F F F N
   0.3251400000000000    0.8517700000000000    0.0960934016510151 F F F N
   0.8326499999999999    0.7954400000000000    0.0071153059291960 F F F N
   0.3253600000000000    0.9612700000000000    0.0074370574893017 F F F N
   0.8333199999999999    0.5764200000000000    0.0519307018010699 F F F N
   0.8324300000000000    0.6859400000000000    0.0957716500909093 F F F N
   0.3407600000000001    0.4089600000000000    0.0512871986808584 F F F N
   0.3399100000000000    0.5184500000000000    0.0960934016510151 F F F N
   0.8474200000000001    0.4621200000000000    0.0071153059291960 F F F N
   0.3401300000000000    0.6279400000000001    0.0074370574893017 F F F N
   0.8480899999999999    0.2431000000000000    0.0519307018010699 F F F N
   0.8472000000000000    0.3526200000000000    0.0957716500909093 F F F N
   0.3555300000000000    0.0756400000000000    0.0512871986808584 F F F N
   0.3546799999999999    0.1851300000000000    0.0960934016510151 F F F N
   0.8621900000000001    0.1288000000000000    0.0071153059291960 F F F N
   0.3549000000000000    0.2946200000000000    0.0074370574893017 F F F N
   0.8461400000000000    0.0209600000000000    0.2292341972227792 T T T N
   0.8472000000000000    0.0209600000000000    0.0957716500909093 F F F N
