substance_bottem
1.0
   2.9630000000000001    0.0000000000000000    0.0000000000000002
   0.0000000000000025   15.3989999999999991    0.0000000000000009
   0.0000000000000000    0.0000000000000000   53.1920000000000002
Cr N
36 36
Selective dynamics
direct
   0.3179800000000000    0.8541699999999999    0.1665006015942247 T T T Cr
   0.3171400000000000    0.9636600000000000    0.2123157617686870 T T T Cr
   0.8244300000000000    0.7978400000000000    0.2119773650172958 T T T Cr
   0.3310200000000000    0.7398700000000000    0.2571439314182584 T T T Cr
   0.8235799999999999    0.9073299999999999    0.2577925251917582 T T T Cr
   0.3327500000000000    0.5208500000000000    0.1665006015942247 T T T Cr
   0.3319100000000000    0.6303400000000000    0.2123157617686870 T T T Cr
   0.8252700000000001    0.6883500000000000    0.1661716047525943 T T T Cr
   0.8391900000000002    0.4645200000000000    0.2119773650172958 T T T Cr
   0.3457900000000000    0.4065500000000000    0.2571439314182584 T T T Cr
   0.8383500000000000    0.5740100000000000    0.2577925251917582 T T T Cr
   0.3475200000000000    0.1875300000000000    0.1665006015942247 T T T Cr
   0.3466800000000000    0.2970200000000000    0.2123157617686870 T T T Cr
   0.8400400000000001    0.3550300000000000    0.1661622048428335 T T T Cr
   0.8539600000000001    0.1311900000000000    0.2119773650172958 T T T Cr
   0.3605600000000000    0.0732200000000000    0.2571439314182584 T T T Cr
   0.8531200000000000    0.2406800000000000    0.2577925251917582 T T T Cr
   0.3190500000000000    0.8541799999999999    0.0300327116859678 F F F Cr
   0.3182000000000000    0.9636700000000000    0.0758478718604301 F F F Cr
   0.8254899999999999    0.7978400000000000    0.0755094751090390 F F F Cr
   0.3320900000000001    0.7398700000000000    0.1206760415100015 F F F Cr
   0.8246500000000000    0.9073299999999999    0.1213246352835013 F F F Cr
   0.3338200000000001    0.5208600000000000    0.0300327116859678 F F F Cr
   0.3329700000000000    0.6303500000000000    0.0758478718604301 F F F Cr
   0.8263400000000001    0.6883500000000000    0.0297037148443375 F F F Cr
   0.8402600000000001    0.4645200000000000    0.0755094751090390 F F F Cr
   0.3468600000000001    0.4065500000000000    0.1206760415100015 F F F Cr
   0.8394100000000000    0.5740100000000000    0.1213246352835013 F F F Cr
   0.3485900000000000    0.1875400000000000    0.0300327116859678 F F F Cr
   0.3477400000000000    0.2970300000000000    0.0758478718604301 F F F Cr
   0.8411000000000000    0.3550300000000000    0.0296943149345766 F F F Cr
   0.8550300000000001    0.1312000000000000    0.0755094751090389 F F F Cr
   0.3616200000000001    0.0732300000000000    0.1206760415100015 F F F Cr
   0.8541799999999999    0.2406900000000000    0.1213246352835012 F F F Cr
   0.8400400000000001    0.0233600000000000    0.1661622048428335 T T T Cr
   0.8411000000000001    0.0233700000000000    0.0296943149345766 F F F Cr
   0.8174800000000000    0.9097299999999999    0.1895679801473906 T T T N
   0.3249200000000000    0.7422700000000000    0.1889099864641299 T T T N
   0.3240800000000000    0.8517599999999999    0.2347251466385922 T T T N
   0.8315900000000001    0.7954300000000000    0.1437434200631674 T T T N
   0.3243000000000000    0.9612600000000000    0.1440724169047977 T T T N
   0.8322500000000000    0.5764100000000000    0.1895679801473905 T T T N
   0.8313700000000002    0.6859400000000000    0.2343961497969619 T T T N
   0.3396900000000000    0.4089500000000000    0.1889099864641299 T T T N
   0.3388500000000000    0.5184400000000000    0.2347251466385923 T T T N
   0.8463600000000002    0.4621100000000000    0.1437434200631674 T T T N
   0.3390700000000000    0.6279400000000001    0.1440724169047977 T T T N
   0.8470199999999999    0.2430900000000000    0.1895679801473905 T T T N
   0.8461400000000000    0.3526200000000000    0.2343961497969619 T T T N
   0.3544600000000001    0.0756300000000000    0.1889099864641299 T T T N
   0.3536199999999999    0.1851200000000000    0.2347251466385923 T T T N
   0.8611300000000001    0.1287900000000000    0.1437434200631674 T T T N
   0.3538400000000000    0.2946199999999999    0.1440724169047977 T T T N
   0.8185500000000000    0.9097399999999999    0.0531000902391337 F F F N
   0.3259900000000001    0.7422800000000001    0.0524420965558731 F F F N
   0.3251400000000000    0.8517699999999999    0.0982572567303354 F F F N
   0.8326500000000000    0.7954400000000000    0.0072755301549105 F F F N
   0.3253600000000000    0.9612699999999998    0.0076045269965408 F F F N
   0.8333199999999999    0.5764200000000000    0.0531000902391337 F F F N
   0.8324300000000001    0.6859400000000000    0.0979282598887051 F F F N
   0.3407600000000001    0.4089600000000000    0.0524420965558731 F F F N
   0.3399100000000000    0.5184500000000000    0.0982572567303354 F F F N
   0.8474200000000002    0.4621199999999999    0.0072755301549105 F F F N
   0.3401300000000000    0.6279400000000001    0.0076045269965408 F F F N
   0.8480899999999999    0.2431000000000000    0.0531000902391337 F F F N
   0.8472000000000000    0.3526200000000000    0.0979282598887051 F F F N
   0.3555300000000000    0.0756400000000000    0.0524420965558731 F F F N
   0.3546800000000000    0.1851300000000000    0.0982572567303354 F F F N
   0.8621900000000001    0.1288000000000000    0.0072755301549105 F F F N
   0.3549000000000000    0.2946199999999999    0.0076045269965408 F F F N
   0.8461400000000001    0.0209600000000000    0.2343961497969619 T T T N
   0.8472000000000000    0.0209600000000000    0.0979282598887051 F F F N
