total_structure
1.0
   3.5062000000000002    0.0000000000000000    0.0000000000000002
   0.0000000000000019   12.0001999999999995    0.0000000000000007
   0.0000000000000000    0.0000000000000000   32.8249410619999935
Cr Fe N
24 36 24
Selective dynamics
direct
   0.1440500000000000    0.0017200000000000    0.3585833716736257 T T T Cr
   0.6440500000000000    0.3767200000000000    0.2897700491231426 T T T Cr
   0.6440500000000000    0.1267200000000000    0.2897700491231426 T T T Cr
   0.1440500000000000    0.2517200000000000    0.3585833716736257 T T T Cr
   0.1440500000000000    0.0017200000000000    0.2209567265726596 T T T Cr
   0.6440500000000000    0.3767200000000000    0.1521522341675058 F F F Cr
   0.6440500000000000    0.1267200000000000    0.1521522341675058 F F F Cr
   0.1440500000000000    0.2517200000000000    0.2209567265726596 T T T Cr
   0.1440500000000000    0.5017199999999999    0.3585833716736257 T T T Cr
   0.6440500000000000    0.8767200000000001    0.2897700491231426 T T T Cr
   0.6440500000000000    0.6267199999999999    0.2897700491231426 T T T Cr
   0.1440500000000000    0.7517199999999999    0.3585833716736257 T T T Cr
   0.1440500000000000    0.5017199999999999    0.2209567265726596 T T T Cr
   0.6440500000000000    0.8767200000000001    0.1521522341675058 F F F Cr
   0.6440500000000000    0.6267199999999999    0.1521522341675058 F F F Cr
   0.1440500000000000    0.7517199999999999    0.2209567265726596 T T T Cr
   0.1275900000000000    0.0033700000000000    0.0834448733609732 F F F Cr
   0.6275900000000000    0.3783700000000000    0.0146315508104902 F F F Cr
   0.6275900000000000    0.1283700000000000    0.0146315508104902 F F F Cr
   0.1275900000000000    0.2533700000000000    0.0834448733609732 F F F Cr
   0.1275900000000000    0.5033700000000000    0.0834448733609732 F F F Cr
   0.6275900000000000    0.8783700000000000    0.0146315508104902 F F F Cr
   0.6275900000000000    0.6283700000000000    0.0146315508104902 F F F Cr
   0.1275900000000000    0.7533699999999999    0.0834448733609732 F F F Cr
   0.1373800000000000    0.7201700000000000    0.8237679595197565 F F F Fe
   0.6373799999999998    0.5560300000000000    0.8123594117544255 F F F Fe
   0.6373799999999998    0.7408799999999999    0.7774715075587424 F F F Fe
   0.1373800000000000    0.5767400000000000    0.7660717899387406 F F F Fe
   0.1373800000000000    0.3919000000000000    0.8009596941344237 F F F Fe
   0.6373799999999999    0.2277600000000000    0.7895511463690927 F F F Fe
   0.6373799999999999    0.4126100000000000    0.7546632421734096 F F F Fe
   0.1373800000000000    0.2484800000000000    0.7432635245534081 F F F Fe
   0.1373800000000000    0.0636300000000000    0.7781514287490910 F F F Fe
   0.6373799999999999    0.8994900000000000    0.7667428809837602 F F F Fe
   0.6373799999999999    0.0843400000000000    0.7318549767880770 F F F Fe
   0.1373800000000000    0.9202099999999999    0.7204552591680753 F F F Fe
   0.1373800000000000    0.7615900000000000    0.7311750555977282 F F F Fe
   0.6373799999999999    0.5974600000000000    0.7197753379777266 F F F Fe
   0.6373799999999998    0.7823099999999999    0.6848874337820435 F F F Fe
   0.1373800000000000    0.6181700000000000    0.6734788860167126 F F F Fe
   0.1373800000000000    0.4333199999999999    0.7083667902123957 F F F Fe
   0.6373799999999999    0.2691900000000000    0.6969670725923939 F F F Fe
   0.6373799999999999    0.4540399999999999    0.6620791683967109 F F F Fe
   0.1373800000000000    0.2899000000000000    0.6506706206313798 F F F Fe
   0.1373800000000000    0.1050500000000000    0.6855585248270629 F F F Fe
   0.6373799999999998    0.9409200000000000    0.6741588072070612 F F F Fe
   0.6373799999999999    0.1257700000000000    0.6392709030113781 F F F Fe
   0.1373800000000000    0.9616299999999999    0.6278623552460472 T T T Fe
   0.1373800000000000    0.8030199999999998    0.6385909818210295 F F F Fe
   0.6373799999999999    0.6388900000000000    0.6271824340556985 T T T Fe
   0.6373799999999999    0.8237400000000000    0.5922945298600154 T T T Fe
   0.1373800000000000    0.6595999999999999    0.5808948122400136 T T T Fe
   0.1373800000000000    0.4747499999999999    0.6157827164356968 T T T Fe
   0.6373799999999998    0.3106200000000000    0.6043741686703659 T T T Fe
   0.6373799999999999    0.4954700000000000    0.5694862644746828 T T T Fe
   0.1373800000000000    0.3313300000000000    0.5580865468546810 T T T Fe
   0.1373800000000000    0.1464800000000000    0.5929744510503642 T T T Fe
   0.6373799999999998    0.9823499999999998    0.5815659032850331 T T T Fe
   0.6373799999999999    0.1672000000000000    0.5466779990893500 T T T Fe
   0.1373800000000000    0.0030600000000000    0.5352782814693483 T T T Fe
   0.6440500000000000    0.3767200000000000    0.3585833716736257 T T T N
   0.1440500000000000    0.0017200000000000    0.2897700491231426 T T T N
   0.1440500000000000    0.2517200000000000    0.2897700491231426 T T T N
   0.6440500000000000    0.1267200000000000    0.3585833716736257 T T T N
   0.6440500000000000    0.3767200000000000    0.2209567265726596 T T T N
   0.1440500000000000    0.0017200000000000    0.1521522341675058 F F F N
   0.1440500000000000    0.2517200000000000    0.1521522341675058 F F F N
   0.6440500000000000    0.1267200000000000    0.2209567265726596 T T T N
   0.6440500000000000    0.8767200000000001    0.3585833716736257 T T T N
   0.1440500000000000    0.5017199999999999    0.2897700491231426 T T T N
   0.1440500000000000    0.7517199999999999    0.2897700491231426 T T T N
   0.6440500000000000    0.6267199999999999    0.3585833716736257 T T T N
   0.6440500000000000    0.8767200000000001    0.2209567265726596 T T T N
   0.1440500000000000    0.5017199999999999    0.1521522341675058 F F F N
   0.1440500000000000    0.7517199999999999    0.1521522341675058 F F F N
   0.6440500000000000    0.6267199999999999    0.2209567265726596 T T T N
   0.6275900000000000    0.3783700000000000    0.0834448733609732 F F F N
   0.1275900000000000    0.0033700000000000    0.0146315508104902 F F F N
   0.1275900000000000    0.2533700000000000    0.0146315508104902 F F F N
   0.6275900000000000    0.1283700000000000    0.0834448733609732 F F F N
   0.6275900000000000    0.8783700000000000    0.0834448733609732 F F F N
   0.1275900000000000    0.5033700000000000    0.0146315508104902 F F F N
   0.1275900000000000    0.7533699999999999    0.0146315508104902 F F F N
   0.6275900000000000    0.6283700000000000    0.0834448733609732 F F F N
