substance_top
1.0
   3.0750000000000002    0.0000000000000000    0.0000000000000002
   0.0000000000000026   16.0000000000000000    0.0000000000000010
   0.0000000000000000    0.0000000000000000   56.5109925000000004
Fe W
54 6
Selective dynamics
direct
   0.3530400000000000    0.0286600000000000    0.4033990643501793 T T T Fe
   0.3478800000000001    0.1409000000000000    0.4467895604558705 T T T Fe
   0.3467900000000000    0.0900100000000000    0.5199834439290727 F F F Fe
   0.3427100000000000    0.2531300000000000    0.4901892494632791 T T T Fe
   0.3457200000000000    0.0391300000000000    0.5931681345005575 F F F Fe
   0.3416299999999999    0.2022400000000000    0.5633831329364813 F F F Fe
   0.3375500000000000    0.3653700000000000    0.5335889384706879 F F F Fe
   0.3489500000000000    0.1917800000000000    0.3736048698843857 T T T Fe
   0.3437799999999999    0.3040200000000000    0.4170045588917943 T T T Fe
   0.3396900000000000    0.4671400000000000    0.3872195573277181 T T T Fe
   0.3386200000000000    0.4162500000000000    0.4603950549974857 T T T Fe
   0.3345300000000000    0.5793800000000000    0.4306100534334095 T T T Fe
   0.3304300000000000    0.7425000000000000    0.4008250518693332 T T T Fe
   0.3334500000000000    0.5284799999999999    0.5038039369066115 F F F Fe
   0.3293600000000000    0.6916099999999999    0.4740097424408181 T T T Fe
   0.3252700000000000    0.8547400000000001    0.4442155479750244 T T T Fe
   0.3405600000000000    0.1513600000000000    0.6365678235079660 F F F Fe
   0.3364600000000000    0.3144800000000000    0.6067736290421726 F F F Fe
   0.3323800000000000    0.4776000000000000    0.5769886274780964 F F F Fe
   0.3272200000000001    0.5898400000000000    0.6203883164855050 F F F Fe
   0.3282900000000000    0.6407200000000000    0.5471944330123029 F F F Fe
   0.3242000000000000    0.8038500000000000    0.5174094314482266 F F F Fe
   0.3200999999999999    0.9669700000000000    0.4876152369824330 T T T Fe
   0.3231200000000000    0.7529500000000000    0.5905941220197114 F F F Fe
   0.3190300000000000    0.9160800000000000    0.5608091204556352 F F F Fe
   0.3179600000000000    0.8652000000000000    0.6339938110271199 F F F Fe
   0.8304500000000001    0.1161200000000000    0.4834416596027755 T T T Fe
   0.8293800000000001    0.0652400000000000    0.5566263501742604 F F F Fe
   0.8252899999999999    0.2283500000000000    0.5268413486101841 F F F Fe
   0.8366900000000000    0.0547800000000000    0.3668572800238821 T T T Fe
   0.8315300000000000    0.1670100000000000    0.4102477761295734 T T T Fe
   0.8274300000000000    0.3301300000000000    0.3804627745654972 T T T Fe
   0.8263600000000000    0.2792400000000000    0.4536474651369819 T T T Fe
   0.8222699999999999    0.4423600000000000    0.4238624635729058 T T T Fe
   0.8181899999999999    0.6054900000000000    0.3940682691071122 T T T Fe
   0.8212000000000000    0.3914800000000000    0.4970471541443906 F F F Fe
   0.8171000000000000    0.5546000000000000    0.4672529596785970 T T T Fe
   0.8130200000000001    0.7177200000000000    0.4374679581145208 T T T Fe
   0.8089300000000000    0.8808500000000000    0.4076737636487272 T T T Fe
   0.8283100000000001    0.0143500000000000    0.6298202336474624 F F F Fe
   0.8242200000000000    0.1774700000000000    0.6000352320833862 F F F Fe
   0.8201200000000000    0.3405900000000000    0.5702318447158752 F F F Fe
   0.8149600000000001    0.4528200000000000    0.6136407266250011 F F F Fe
   0.8160300000000000    0.5037100000000000    0.5404468431517991 F F F Fe
   0.8119400000000000    0.6668300000000000    0.5106618415877230 F F F Fe
   0.8078600000000001    0.8299600000000000    0.4808584542202121 T T T Fe
   0.8030800000000000    0.0063900000000000    0.4394444319837419 T T T Fe
   0.8108699999999999    0.6159500000000000    0.5838373392574904 F F F Fe
   0.8067699999999999    0.7790700000000000    0.5540523376934142 F F F Fe
   0.8026899999999999    0.9421900000000000    0.5242673361293380 F F F Fe
   0.8057000000000000    0.7281800000000000    0.6272462211666163 F F F Fe
   0.8016100000000000    0.8913000000000000    0.5974520267008228 F F F Fe
   0.3238700000000000    0.9110900000000000    0.3713618018653628 T T T Fe
   0.8118499999999998    0.7695300000000000    0.3642464959361666 T T T Fe
   0.3310199999999999    0.7398700000000000    0.3321908476479156 T T T W
   0.8235800000000000    0.9073300000000000    0.3328251578664098 T T T W
   0.3457900000000000    0.4065500000000000    0.3321908476479156 T T T W
   0.8383500000000002    0.5740100000000000    0.3328251578664098 T T T W
   0.3605600000000000    0.0732200000000000    0.3321908476479156 T T T W
   0.8531199999999999    0.2406800000000000    0.3328251578664098 T T T W
