substance_top
1.0
   2.9630000000000001    0.0000000000000000    0.0000000000000002
   0.0000000000000025   15.3989999999999991    0.0000000000000009
   0.0000000000000000    0.0000000000000000   53.1920000000000002
Fe
52
Selective dynamics
direct
   0.3530400000000001    0.0451600000000000    0.4042619190855768 T T T Fe
   0.3478800000000001    0.1587300000000000    0.4483474958640398 T T T Fe
   0.3467900000000000    0.1101100000000000    0.5233117762069485 F F F Fe
   0.3427100000000000    0.2723000000000000    0.4924424725522635 F F F Fe
   0.3457200000000001    0.0614800000000000    0.5982760565498570 F F F Fe
   0.3416300000000000    0.2236700000000000    0.5674067528951722 F F F Fe
   0.3375500000000000    0.3858699999999999    0.5365280493307264 F F F Fe
   0.3489500000000000    0.2073600000000000    0.3733832155211311 T T T Fe
   0.3437800000000000    0.3209400000000000    0.4174781922093548 T T T Fe
   0.3396899999999999    0.4831299999999999    0.3866088885546699 T T T Fe
   0.3386200000000000    0.4344999999999999    0.4615637689878178 T T T Fe
   0.3345300000000000    0.5967000000000000    0.4306944653331328 T T T Fe
   0.3304300000000001    0.7588900000000000    0.3998251616784479 T T T Fe
   0.3334500000000000    0.5480600000000000    0.5056587456760416 F F F Fe
   0.3293600000000000    0.7102600000000000    0.4747894420213566 T T T Fe
   0.3252700000000000    0.8724700000000000    0.4439107384569109 T T T Fe
   0.3405600000000000    0.1750400000000000    0.6423616333283201 F F F Fe
   0.3364600000000000    0.3372400000000000    0.6114923296736351 F F F Fe
   0.3323800000000000    0.4994300000000000    0.5806230260189502 F F F Fe
   0.3272200000000001    0.6130100000000001    0.6247086027974131 F F F Fe
   0.3282900000000001    0.6616400000000000    0.5497443224545044 F F F Fe
   0.3242000000000000    0.8238400000000000    0.5188750187998196 F F F Fe
   0.3201000000000000    0.9860300000000000    0.4880057151451347 F F F Fe
   0.3231200000000000    0.7752000000000000    0.5938392991427283 F F F Fe
   0.3190300000000000    0.9374000000000000    0.5629699954880434 F F F Fe
   0.3179600000000001    0.8887699999999999    0.6379248759211911 F F F Fe
   0.8304500000000001    0.1350900000000000    0.4858813355391789 F F F Fe
   0.8293799999999999    0.0864600000000000    0.5608456158820876 F F F Fe
   0.8252900000000000    0.2486500000000000    0.5299763122274026 F F F Fe
   0.8366899999999999    0.0701500000000000    0.3668314784178072 T T T Fe
   0.8315300000000000    0.1837200000000000    0.4109170551962701 T T T Fe
   0.8274300000000000    0.3459199999999999    0.3800477515415852 T T T Fe
   0.8263600000000001    0.2972799999999999    0.4550120318844939 T T T Fe
   0.8222700000000002    0.4594800000000000    0.4241427282298090 T T T Fe
   0.8181899999999999    0.6216800000000000    0.3932640246653633 T T T Fe
   0.8212000000000000    0.4108500000000000    0.4990976086629568 F F F Fe
   0.8171000000000002    0.5730499999999999    0.4682283050082719 T T T Fe
   0.8130200000000000    0.7352500000000000    0.4373590013535871 T T T Fe
   0.8089300000000000    0.8974500000000000    0.4064802977891412 T T T Fe
   0.8283100000000000    0.0378300000000000    0.6358098962249962 F F F Fe
   0.8242200000000000    0.2000200000000000    0.6049405925703112 F F F Fe
   0.8201199999999998    0.3622300000000000    0.5740618890058655 F F F Fe
   0.8149600000000000    0.4757900000000000    0.6181568656940893 F F F Fe
   0.8160300000000000    0.5244200000000000    0.5431925853511806 F F F Fe
   0.8119400000000001    0.6866200000000000    0.5123232816964958 F F F Fe
   0.8078600000000001    0.8488200000000000    0.4814445781320500 T T T Fe
   0.8037600000000000    0.0110100000000000    0.4505752744773650 T T T Fe
   0.8108700000000001    0.6379899999999999    0.5872781621296436 F F F Fe
   0.8067700000000001    0.8001900000000000    0.5564088584749587 F F F Fe
   0.8026900000000000    0.9623800000000000    0.5255395548202738 F F F Fe
   0.8056999999999999    0.7515500000000001    0.6313731388178674 F F F Fe
   0.8016100000000000    0.9137599999999999    0.6005038351631823 F F F Fe
