substance_top
1.0
   3.5062000000000002    0.0000000000000000    0.0000000000000002
   0.0000000000000019   12.0001999999999995    0.0000000000000007
   0.0000000000000000    0.0000000000000000   32.8249410619999935
Cr Fe N
4 36 4
Selective dynamics
direct
   0.6320800000000000    0.3796100000000000    0.9994172104082726 F F F Cr
   0.6320800000000000    0.1296100000000000    0.9994172104082726 F F F Cr
   0.6320800000000000    0.8796100000000000    0.9994172104082726 F F F Cr
   0.6320800000000000    0.6296100000000000    0.9994172104082726 F F F Cr
   0.1418600000000000    0.7213999999999999    0.8085536191175389 F F F Fe
   0.6418599999999999    0.5572600000000000    0.7971450713522078 F F F Fe
   0.6418599999999999    0.7421100000000000    0.7622571671565247 F F F Fe
   0.1418600000000000    0.5779800000000000    0.7508486193911937 F F F Fe
   0.1418600000000000    0.3931299999999999    0.7857365235868768 F F F Fe
   0.6418600000000000    0.2289900000000000    0.7743368059668752 F F F Fe
   0.6418600000000000    0.4138399999999999    0.7394489017711920 F F F Fe
   0.1418600000000000    0.2497100000000000    0.7280403540058611 F F F Fe
   0.1418600000000000    0.0648600000000000    0.7629282582015442 F F F Fe
   0.6418600000000000    0.9007199999999999    0.7515285405815424 F F F Fe
   0.6418600000000000    0.0855700000000000    0.7166406363858594 F F F Fe
   0.1418600000000000    0.9214400000000000    0.7052320886205283 F F F Fe
   0.1418600000000000    0.7628300000000000    0.7159607151955106 F F F Fe
   0.6418600000000000    0.5986900000000001    0.7045521674301797 F F F Fe
   0.6418599999999999    0.7835399999999999    0.6696642632344967 F F F Fe
   0.1418600000000000    0.6194100000000000    0.6582645456144949 F F F Fe
   0.1418600000000000    0.4345600000000000    0.6931524498101780 F F F Fe
   0.6418600000000000    0.2704200000000000    0.6817439020448470 F F F Fe
   0.6418600000000000    0.4552700000000000    0.6468559978491639 F F F Fe
   0.1418600000000000    0.2911400000000000    0.6354562802291622 F F F Fe
   0.1418600000000000    0.1062900000000000    0.6703441844248452 F F F Fe
   0.6418599999999999    0.9421499999999999    0.6589356366595143 F F F Fe
   0.6418600000000000    0.1270000000000000    0.6240477324638313 T T T Fe
   0.1418600000000000    0.9628699999999999    0.6126480148438296 T T T Fe
   0.1418600000000000    0.8042500000000000    0.6233678112734826 T T T Fe
   0.6418600000000000    0.6401200000000000    0.6119680936534808 T T T Fe
   0.6418600000000000    0.8249700000000000    0.5770801894577977 T T T Fe
   0.1418600000000000    0.6608299999999999    0.5656716416924669 T T T Fe
   0.1418600000000000    0.4759800000000000    0.6005595458881499 T T T Fe
   0.6418599999999999    0.3118500000000000    0.5891598282681482 T T T Fe
   0.6418600000000000    0.4966999999999999    0.5542719240724651 T T T Fe
   0.1418600000000000    0.3325600000000000    0.5428633763071341 T T T Fe
   0.1418600000000000    0.1477100000000000    0.5777512805028172 T T T Fe
   0.6418599999999999    0.9835800000000000    0.5663515628828155 T T T Fe
   0.6418600000000000    0.1684300000000000    0.5314636586871323 T T T Fe
   0.1418600000000000    0.0042900000000000    0.5200551109218013 T T T Fe
   0.1320800000000000    0.0046100000000000    0.9994172104082726 F F F N
   0.1320800000000000    0.2546100000000000    0.9994172104082726 F F F N
   0.1320800000000000    0.5046100000000000    0.9994172104082726 F F F N
   0.1320800000000000    0.7546100000000000    0.9994172104082726 F F F N
