substance_top
1.0
   3.5062000000000002    0.0000000000000000    0.0000000000000002
   0.0000000000000019   12.0001999999999995    0.0000000000000007
   0.0000000000000000    0.0000000000000000   32.8249410619999935
Fe
36
Selective dynamics
direct
   0.1415300000000000    0.7221700000000000    0.8237767896650856 F F F Fe
   0.6415299999999999    0.5580400000000000    0.8123770720450839 F F F Fe
   0.6415299999999999    0.7428899999999999    0.7774803377040715 F F F Fe
   0.1415300000000000    0.5787500000000000    0.7660806200840699 F F F Fe
   0.1415300000000000    0.3939000000000000    0.8009685242797528 F F F Fe
   0.6415300000000000    0.2297700000000000    0.7895688066597512 F F F Fe
   0.6415300000000000    0.4146200000000000    0.7546720723187388 F F F Fe
   0.1415300000000000    0.2504800000000000    0.7432723546987371 F F F Fe
   0.1415300000000000    0.0656300000000000    0.7781602588944202 F F F Fe
   0.6415300000000000    0.9015000000000000    0.7667605412744185 F F F Fe
   0.6415300000000000    0.0863500000000000    0.7318638069334062 F F F Fe
   0.1415300000000000    0.9222099999999999    0.7204640893134044 F F F Fe
   0.1415300000000000    0.7635999999999999    0.7311927158883867 F F F Fe
   0.6415300000000000    0.5994699999999999    0.7197841681230558 F F F Fe
   0.6415299999999999    0.7843100000000000    0.6848962639273727 F F F Fe
   0.1415300000000000    0.6201800000000000    0.6734877161620417 F F F Fe
   0.1415300000000000    0.4353300000000000    0.7083844505030540 F F F Fe
   0.6415300000000000    0.2712000000000000    0.6969759027377231 F F F Fe
   0.6415300000000000    0.4560500000000000    0.6620879985420400 F F F Fe
   0.1415300000000000    0.2919100000000000    0.6506794507767091 F F F Fe
   0.1415300000000000    0.1070600000000000    0.6855761851177214 F F F Fe
   0.6415299999999999    0.9429300000000000    0.6741676373523904 F F F Fe
   0.6415300000000000    0.1277800000000000    0.6392797331567073 T T T Fe
   0.1415300000000000    0.9636399999999999    0.6278711853913763 T T T Fe
   0.1415300000000000    0.8050300000000000    0.6385998119663587 T T T Fe
   0.6415300000000000    0.6408900000000000    0.6272000943463569 T T T Fe
   0.6415300000000000    0.8257400000000000    0.5923033600053447 T T T Fe
   0.1415300000000000    0.6616100000000000    0.5809036423853428 T T T Fe
   0.1415300000000000    0.4767600000000000    0.6157915465810260 T T T Fe
   0.6415299999999999    0.3126200000000000    0.6043918289610243 T T T Fe
   0.6415300000000000    0.4974700000000000    0.5694950946200119 T T T Fe
   0.1415300000000000    0.3333333333333333    0.5580953770000102 T T T Fe
   0.1415300000000000    0.1484900000000000    0.5929832811956932 T T T Fe
   0.6415299999999999    0.9843499999999999    0.5815835635756916 T T T Fe
   0.6415300000000000    0.1692000000000000    0.5466868292346793 T T T Fe
   0.1415300000000000    0.0050700000000000    0.5352871116146776 T T T Fe
