Ti82 Nb1
1.0
6.391540 0.000000 0.000000
0.000000 9.587310 0.000000
0.000000 0.000000 23.271695
Ti Nb
82 1
Selective dynamics
direct
0.123331 0.083496 0.580866 F F F Ti
0.622891 0.083556 0.580878 F F F Ti
0.124868 0.083365 0.709582 F F F Ti
0.624745 0.083368 0.709580 F F F Ti
0.124992 0.083344 0.838434 F F F Ti
0.624966 0.083344 0.838433 F F F Ti
0.124695 0.417865 0.581480 F F F Ti
0.625041 0.417021 0.580747 F F F Ti
0.124948 0.416767 0.709682 F F F Ti
0.624838 0.416730 0.709609 F F F Ti
0.124993 0.416675 0.838453 F F F Ti
0.624963 0.416671 0.838446 F F F Ti
0.124768 0.750115 0.580856 F F F Ti
0.624759 0.750091 0.580756 F F F Ti
0.124951 0.750114 0.709624 F F F Ti
0.624825 0.750126 0.709617 F F F Ti
0.124989 0.750030 0.838449 F F F Ti
0.624959 0.750032 0.838449 F F F Ti
0.374709 0.250146 0.645116 F F F Ti
0.874381 0.250105 0.645267 F F F Ti
0.374964 0.250002 0.774000 F F F Ti
0.874911 0.250002 0.774028 F F F Ti
0.374994 0.249987 0.902854 F F F Ti
0.875006 0.249988 0.902859 F F F Ti
0.375271 0.583650 0.645248 F F F Ti
0.874538 0.583667 0.645325 F F F Ti
0.374998 0.583390 0.774037 F F F Ti
0.874917 0.583388 0.774050 F F F Ti
0.374988 0.583326 0.902861 F F F Ti
0.874992 0.583326 0.902863 F F F Ti
0.374638 0.916758 0.645070 F F F Ti
0.874507 0.916684 0.645195 F F F Ti
0.374934 0.916706 0.773991 F F F Ti
0.874926 0.916696 0.774015 F F F Ti
0.374981 0.916680 0.902848 F F F Ti
0.875000 0.916677 0.902851 F F F Ti
0.636114 0.167566 0.385472 F F F Ti
0.124354 0.665811 0.386568 F F F Ti
0.626917 0.665258 0.386513 F F F Ti
0.125020 0.166665 -0.000025 F F F Ti
0.625005 0.166661 -0.000031 F F F Ti
0.125019 0.666656 -0.000041 F F F Ti
0.625010 0.666649 -0.000044 F F F Ti
0.125043 0.833310 0.096584 F F F Ti
0.625073 0.833304 0.096567 F F F Ti
0.122977 0.831061 0.483573 F F F Ti
0.624687 0.832414 0.483505 F F F Ti
0.125073 0.333296 0.096633 F F F Ti
0.625045 0.333332 0.096608 F F F Ti
0.116447 0.342097 0.485032 F F F Ti
0.626697 0.335099 0.483458 F F F Ti
0.375737 0.584260 0.483551 F F F Ti
0.873309 0.584810 0.483615 F F F Ti
0.375017 0.583277 0.096586 F F F Ti
0.875123 0.583269 0.096575 F F F Ti
0.375031 0.083340 0.096615 F F F Ti
0.875132 0.083347 0.096603 F F F Ti
0.862614 0.082355 0.484804 F F F Ti
0.376889 0.418749 0.386502 F F F Ti
0.875132 0.417529 0.386574 F F F Ti
0.382613 0.908143 0.384669 F F F Ti
0.873428 0.915012 0.386617 F F F Ti
0.374987 0.416648 -0.000029 F F F Ti
0.875016 0.416644 -0.000030 F F F Ti
0.374998 0.916666 -0.000033 F F F Ti
0.875014 0.916667 -0.000033 F F F Ti
0.376706 0.082916 0.289656 F F F Ti
0.876511 0.082867 0.289814 F F F Ti
0.125252 0.166637 0.193322 F F F Ti
0.625379 0.166631 0.193193 F F F Ti
0.125607 0.333049 0.290128 F F F Ti
0.625805 0.333600 0.289678 F F F Ti
0.375002 0.416563 0.193260 F F F Ti
0.875355 0.416535 0.193246 F F F Ti
0.375203 0.583195 0.289748 F F F Ti
0.875740 0.583066 0.289754 F F F Ti
0.125092 0.666490 0.193171 F F F Ti
0.625229 0.666385 0.193103 F F F Ti
0.124754 0.832861 0.289739 F F F Ti
0.626965 0.832482 0.289374 F F F Ti
0.375112 0.916517 0.193168 F F F Ti
0.875221 0.916626 0.193168 F F F Ti
0.249876 0.123366 0.436478 T T T Nb

0.000000 0.000000 0.000000
0.000000 0.000000 0.000000
0.000000 0.000000 0.000000
0.000000 0.000000 0.000000
0.000000 0.000000 0.000000
0.000000 0.000000 0.000000
0.000000 0.000000 0.000000
0.000000 0.000000 0.000000
0.000000 0.000000 0.000000
0.000000 0.000000 0.000000
0.000000 0.000000 0.000000
0.000000 0.000000 0.000000
0.000000 0.000000 0.000000
0.000000 0.000000 0.000000
0.000000 0.000000 0.000000
0.000000 0.000000 0.000000
0.000000 0.000000 0.000000
0.000000 0.000000 0.000000
0.000000 0.000000 0.000000
0.000000 0.000000 0.000000
0.000000 0.000000 0.000000
0.000000 0.000000 0.000000
0.000000 0.000000 0.000000
0.000000 0.000000 0.000000
0.000000 0.000000 0.000000
0.000000 0.000000 0.000000
0.000000 0.000000 0.000000
0.000000 0.000000 0.000000
0.000000 0.000000 0.000000
0.000000 0.000000 0.000000
0.000000 0.000000 0.000000
0.000000 0.000000 0.000000
0.000000 0.000000 0.000000
0.000000 0.000000 0.000000
0.000000 0.000000 0.000000
0.000000 0.000000 0.000000
0.000000 0.000000 0.000000
0.000000 0.000000 0.000000
0.000000 0.000000 0.000000
0.000000 0.000000 0.000000
0.000000 0.000000 0.000000
0.000000 0.000000 0.000000
0.000000 0.000000 0.000000
0.000000 0.000000 0.000000
0.000000 0.000000 0.000000
0.000000 0.000000 0.000000
0.000000 0.000000 0.000000
0.000000 0.000000 0.000000
0.000000 0.000000 0.000000
0.000000 0.000000 0.000000
0.000000 0.000000 0.000000
0.000000 0.000000 0.000000
0.000000 0.000000 0.000000
0.000000 0.000000 0.000000
0.000000 0.000000 0.000000
0.000000 0.000000 0.000000
0.000000 0.000000 0.000000
0.000000 0.000000 0.000000
0.000000 0.000000 0.000000
0.000000 0.000000 0.000000
0.000000 0.000000 0.000000
0.000000 0.000000 0.000000
0.000000 0.000000 0.000000
0.000000 0.000000 0.000000
0.000000 0.000000 0.000000
0.000000 0.000000 0.000000
0.000000 0.000000 0.000000
0.000000 0.000000 0.000000
0.000000 0.000000 0.000000
0.000000 0.000000 0.000000
0.000000 0.000000 0.000000
0.000000 0.000000 0.000000
0.000000 0.000000 0.000000
0.000000 0.000000 0.000000
0.000000 0.000000 0.000000
0.000000 0.000000 0.000000
0.000000 0.000000 0.000000
0.000000 0.000000 0.000000
0.000000 0.000000 0.000000
0.000000 0.000000 0.000000
0.000000 0.000000 0.000000
0.000000 0.000000 0.000000
0.000000 0.000000 0.000000
