Ti97
1.0
9.513020 0.000000 0.000000
0.000000 9.350860 0.000000
0.000000 0.000000 18.547230
Ti
97
Selective dynamics
direct
0.144492 0.367629 0.402674 T T T Ti
0.657954 0.358928 0.396132 T T T Ti
0.161474 0.864570 0.400007 T T T Ti
0.669503 0.892873 0.406937 T T T Ti
0.160072 0.376033 0.237019 T T T Ti
0.662509 0.369492 0.231503 T T T Ti
0.159948 0.874160 0.234542 T T T Ti
0.659107 0.866680 0.240449 T T T Ti
0.166639 0.375032 0.077585 F F F Ti
0.666687 0.375013 0.077612 F F F Ti
0.166691 0.874948 0.077658 F F F Ti
0.666675 0.874976 0.077678 F F F Ti
0.406961 0.376159 0.315098 T T T Ti
0.906808 0.377619 0.317611 T T T Ti
0.400211 0.891422 0.314012 T T T Ti
0.910388 0.876763 0.319257 T T T Ti
0.416687 0.374996 0.155179 F F F Ti
0.916617 0.374982 0.155148 F F F Ti
0.416618 0.874910 0.155340 F F F Ti
0.916754 0.874934 0.155196 F F F Ti
0.416704 0.375095 0.000102 F F F Ti
0.916587 0.375066 0.000038 F F F Ti
0.416697 0.874909 0.000176 F F F Ti
0.916612 0.874944 0.000072 F F F Ti
0.093192 0.122383 0.317610 T T T Ti
0.593039 0.123842 0.315097 T T T Ti
0.089612 0.623239 0.319256 T T T Ti
0.599789 0.608580 0.314011 T T T Ti
0.083384 0.125040 0.155149 F F F Ti
0.583313 0.125027 0.155179 F F F Ti
0.083246 0.625087 0.155195 F F F Ti
0.583383 0.625107 0.155339 F F F Ti
0.083415 0.124937 0.000040 F F F Ti
0.583297 0.124905 0.000106 F F F Ti
0.083389 0.625063 0.000071 F F F Ti
0.583304 0.625087 0.000175 F F F Ti
0.342045 0.141072 0.396132 T T T Ti
0.855507 0.132371 0.402674 T T T Ti
0.330496 0.607127 0.406937 T T T Ti
0.838525 0.635430 0.400007 T T T Ti
0.337490 0.130513 0.231503 T T T Ti
0.839927 0.123972 0.237019 T T T Ti
0.340892 0.633324 0.240449 T T T Ti
0.840051 0.625844 0.234541 T T T Ti
0.333313 0.125000 0.077613 F F F Ti
0.833361 0.124984 0.077586 F F F Ti
0.333325 0.625039 0.077678 F F F Ti
0.833309 0.625068 0.077657 F F F Ti
0.374996 0.375064 0.824030 F F F Ti
0.874970 0.374934 0.823994 F F F Ti
0.375061 0.874935 0.823854 F F F Ti
0.874979 0.874975 0.823914 F F F Ti
0.125034 0.125048 0.823996 F F F Ti
0.625010 0.124936 0.824033 F F F Ti
0.125025 0.625026 0.823915 F F F Ti
0.624947 0.625050 0.823854 F F F Ti
0.124987 0.375049 0.910216 F F F Ti
0.625003 0.375017 0.910231 F F F Ti
0.125060 0.874950 0.910177 F F F Ti
0.624949 0.874933 0.910180 F F F Ti
0.375003 0.124976 0.910233 F F F Ti
0.875020 0.124947 0.910217 F F F Ti
0.375055 0.625061 0.910178 F F F Ti
0.874944 0.625047 0.910176 F F F Ti
0.386991 0.382276 0.662146 T T T Ti
0.892633 0.385687 0.649604 T T T Ti
0.380864 0.884212 0.661377 T T T Ti
0.897504 0.881074 0.655190 T T T Ti
0.107365 0.114309 0.649603 T T T Ti
0.613006 0.117717 0.662146 T T T Ti
0.102493 0.618920 0.655191 T T T Ti
0.619135 0.615782 0.661378 T T T Ti
0.143976 0.367522 0.570431 T T T Ti
0.643712 0.360057 0.582645 T T T Ti
0.151976 0.856653 0.570453 T T T Ti
0.664471 0.895103 0.568134 T T T Ti
0.356287 0.139941 0.582645 T T T Ti
0.856024 0.132477 0.570431 T T T Ti
0.335529 0.604896 0.568134 T T T Ti
0.848024 0.643345 0.570453 T T T Ti
0.400590 0.363514 0.487583 T T T Ti
0.890015 0.379524 0.489770 T T T Ti
0.373106 0.937316 0.487174 T T T Ti
0.916247 0.882514 0.484191 T T T Ti
0.109985 0.120475 0.489770 T T T Ti
0.599410 0.136486 0.487583 T T T Ti
0.083753 0.617486 0.484191 T T T Ti
0.626894 0.562684 0.487175 T T T Ti
0.125480 0.875005 0.737716 F F F Ti
0.625024 0.874773 0.737637 F F F Ti
0.374969 0.625211 0.737633 F F F Ti
0.874512 0.624976 0.737722 F F F Ti
0.124721 0.375027 0.737828 F F F Ti
0.625237 0.374824 0.737892 F F F Ti
0.374749 0.125145 0.737892 F F F Ti
0.875269 0.124947 0.737826 F F F Ti
0.500000 0.750000 0.490029 T T T Ti

0.000000 0.000000 0.000000
0.000000 0.000000 0.000000
0.000000 0.000000 0.000000
0.000000 0.000000 0.000000
0.000000 0.000000 0.000000
0.000000 0.000000 0.000000
0.000000 0.000000 0.000000
0.000000 0.000000 0.000000
0.000000 0.000000 0.000000
0.000000 0.000000 0.000000
0.000000 0.000000 0.000000
0.000000 0.000000 0.000000
0.000000 0.000000 0.000000
0.000000 0.000000 0.000000
0.000000 0.000000 0.000000
0.000000 0.000000 0.000000
0.000000 0.000000 0.000000
0.000000 0.000000 0.000000
0.000000 0.000000 0.000000
0.000000 0.000000 0.000000
0.000000 0.000000 0.000000
0.000000 0.000000 0.000000
0.000000 0.000000 0.000000
0.000000 0.000000 0.000000
0.000000 0.000000 0.000000
0.000000 0.000000 0.000000
0.000000 0.000000 0.000000
0.000000 0.000000 0.000000
0.000000 0.000000 0.000000
0.000000 0.000000 0.000000
0.000000 0.000000 0.000000
0.000000 0.000000 0.000000
0.000000 0.000000 0.000000
0.000000 0.000000 0.000000
0.000000 0.000000 0.000000
0.000000 0.000000 0.000000
0.000000 0.000000 0.000000
0.000000 0.000000 0.000000
0.000000 0.000000 0.000000
0.000000 0.000000 0.000000
0.000000 0.000000 0.000000
0.000000 0.000000 0.000000
0.000000 0.000000 0.000000
0.000000 0.000000 0.000000
0.000000 0.000000 0.000000
0.000000 0.000000 0.000000
0.000000 0.000000 0.000000
0.000000 0.000000 0.000000
0.000000 0.000000 0.000000
0.000000 0.000000 0.000000
0.000000 0.000000 0.000000
0.000000 0.000000 0.000000
0.000000 0.000000 0.000000
0.000000 0.000000 0.000000
0.000000 0.000000 0.000000
0.000000 0.000000 0.000000
0.000000 0.000000 0.000000
0.000000 0.000000 0.000000
0.000000 0.000000 0.000000
0.000000 0.000000 0.000000
0.000000 0.000000 0.000000
0.000000 0.000000 0.000000
0.000000 0.000000 0.000000
0.000000 0.000000 0.000000
0.000000 0.000000 0.000000
0.000000 0.000000 0.000000
0.000000 0.000000 0.000000
0.000000 0.000000 0.000000
0.000000 0.000000 0.000000
0.000000 0.000000 0.000000
0.000000 0.000000 0.000000
0.000000 0.000000 0.000000
0.000000 0.000000 0.000000
0.000000 0.000000 0.000000
0.000000 0.000000 0.000000
0.000000 0.000000 0.000000
0.000000 0.000000 0.000000
0.000000 0.000000 0.000000
0.000000 0.000000 0.000000
0.000000 0.000000 0.000000
0.000000 0.000000 0.000000
0.000000 0.000000 0.000000
0.000000 0.000000 0.000000
0.000000 0.000000 0.000000
0.000000 0.000000 0.000000
0.000000 0.000000 0.000000
0.000000 0.000000 0.000000
0.000000 0.000000 0.000000
0.000000 0.000000 0.000000
0.000000 0.000000 0.000000
0.000000 0.000000 0.000000
0.000000 0.000000 0.000000
0.000000 0.000000 0.000000
0.000000 0.000000 0.000000
0.000000 0.000000 0.000000
0.000000 0.000000 0.000000
0.000000 0.000000 0.000000
