Ti66 Mo1
1.0
6.309760 0.000000 0.000000
0.000000 9.464640 0.000000
0.000000 0.000000 18.918326
Ti Mo
66 1
Selective dynamics
direct
0.125703 0.032245 0.501655 F F F Ti
0.627560 0.039309 0.499914 F F F Ti
0.125780 0.038737 0.659135 F F F Ti
0.625253 0.038224 0.659294 F F F Ti
0.125227 0.040554 0.817250 F F F Ti
0.625124 0.040500 0.817298 F F F Ti
0.632813 0.373088 0.500144 F F F Ti
0.125463 0.372567 0.658718 F F F Ti
0.626058 0.373562 0.659013 F F F Ti
0.125306 0.374162 0.817131 F F F Ti
0.625304 0.374257 0.817227 F F F Ti
0.124858 0.699876 0.499231 F F F Ti
0.623235 0.706228 0.499621 F F F Ti
0.125457 0.705265 0.658213 F F F Ti
0.624414 0.706096 0.658560 F F F Ti
0.125156 0.707275 0.817050 F F F Ti
0.625015 0.707360 0.817108 F F F Ti
0.381273 0.203935 0.580687 F F F Ti
0.869847 0.202679 0.581744 F F F Ti
0.375643 0.206880 0.738137 F F F Ti
0.875160 0.206761 0.738319 F F F Ti
0.375185 0.207794 0.896291 F F F Ti
0.875160 0.207780 0.896316 F F F Ti
0.376438 0.538244 0.579039 F F F Ti
0.873895 0.539789 0.579643 F F F Ti
0.375150 0.540165 0.737841 F F F Ti
0.875390 0.540357 0.737948 F F F Ti
0.375098 0.541153 0.896272 F F F Ti
0.875164 0.541175 0.896280 F F F Ti
0.375564 0.871602 0.579339 F F F Ti
0.874942 0.871055 0.579463 F F F Ti
0.374956 0.873098 0.737983 F F F Ti
0.875409 0.873003 0.737978 F F F Ti
0.375066 0.874422 0.896341 F F F Ti
0.875096 0.874417 0.896338 F F F Ti
0.125355 0.625262 0.355771 F F F Ti
0.623880 0.630587 0.355214 F F F Ti
0.125221 0.625778 0.118297 F F F Ti
0.624990 0.625830 0.118215 F F F Ti
0.628110 0.124096 0.356070 F F F Ti
0.125486 0.125243 0.118530 F F F Ti
0.625103 0.125204 0.118453 F F F Ti
0.125326 0.375079 0.038967 F F F Ti
0.625099 0.375082 0.039017 F F F Ti
0.124997 0.875304 0.039374 F F F Ti
0.624899 0.875326 0.039362 F F F Ti
0.125793 0.376099 0.276427 F F F Ti
0.624242 0.376096 0.273588 F F F Ti
0.124801 0.876716 0.277494 F F F Ti
0.624896 0.877060 0.277067 F F F Ti
0.374859 0.875908 0.158284 F F F Ti
0.875277 0.875882 0.158223 F F F Ti
0.374251 0.375526 0.157423 F F F Ti
0.876408 0.375597 0.157291 F F F Ti
0.398857 0.380363 0.391547 F F F Ti
0.845335 0.383158 0.389018 F F F Ti
0.373378 0.876771 0.396502 F F F Ti
0.876770 0.875616 0.396505 F F F Ti
0.374724 0.626574 0.236892 F F F Ti
0.875475 0.626666 0.236827 F F F Ti
0.375020 0.625222 -0.000361 F F F Ti
0.875054 0.625234 -0.000358 F F F Ti
0.374848 0.125757 0.237560 F F F Ti
0.875973 0.125726 0.237232 F F F Ti
0.375054 0.124772 -0.000243 F F F Ti
0.875121 0.124776 -0.000217 F F F Ti
0.108229 0.325306 0.470348 T T T Mo

0.000000 0.000000 0.000000
0.000000 0.000000 0.000000
0.000000 0.000000 0.000000
0.000000 0.000000 0.000000
0.000000 0.000000 0.000000
0.000000 0.000000 0.000000
0.000000 0.000000 0.000000
0.000000 0.000000 0.000000
0.000000 0.000000 0.000000
0.000000 0.000000 0.000000
0.000000 0.000000 0.000000
0.000000 0.000000 0.000000
0.000000 0.000000 0.000000
0.000000 0.000000 0.000000
0.000000 0.000000 0.000000
0.000000 0.000000 0.000000
0.000000 0.000000 0.000000
0.000000 0.000000 0.000000
0.000000 0.000000 0.000000
0.000000 0.000000 0.000000
0.000000 0.000000 0.000000
0.000000 0.000000 0.000000
0.000000 0.000000 0.000000
0.000000 0.000000 0.000000
0.000000 0.000000 0.000000
0.000000 0.000000 0.000000
0.000000 0.000000 0.000000
0.000000 0.000000 0.000000
0.000000 0.000000 0.000000
0.000000 0.000000 0.000000
0.000000 0.000000 0.000000
0.000000 0.000000 0.000000
0.000000 0.000000 0.000000
0.000000 0.000000 0.000000
0.000000 0.000000 0.000000
0.000000 0.000000 0.000000
0.000000 0.000000 0.000000
0.000000 0.000000 0.000000
0.000000 0.000000 0.000000
0.000000 0.000000 0.000000
0.000000 0.000000 0.000000
0.000000 0.000000 0.000000
0.000000 0.000000 0.000000
0.000000 0.000000 0.000000
0.000000 0.000000 0.000000
0.000000 0.000000 0.000000
0.000000 0.000000 0.000000
0.000000 0.000000 0.000000
0.000000 0.000000 0.000000
0.000000 0.000000 0.000000
0.000000 0.000000 0.000000
0.000000 0.000000 0.000000
0.000000 0.000000 0.000000
0.000000 0.000000 0.000000
0.000000 0.000000 0.000000
0.000000 0.000000 0.000000
0.000000 0.000000 0.000000
0.000000 0.000000 0.000000
0.000000 0.000000 0.000000
0.000000 0.000000 0.000000
0.000000 0.000000 0.000000
0.000000 0.000000 0.000000
0.000000 0.000000 0.000000
0.000000 0.000000 0.000000
0.000000 0.000000 0.000000
0.000000 0.000000 0.000000
0.000000 0.000000 0.000000
