Ti66 Mo1
1.0
6.309760 0.000000 0.000000
0.000000 9.464640 0.000000
0.000000 0.000000 18.918326
Ti Mo
66 1
Selective dynamics
direct
0.157651 0.029055 0.498587 T T T Ti
0.591014 0.028253 0.498729 T T T Ti
0.134800 0.048632 0.644879 T T T Ti
0.614585 0.048391 0.645051 T T T Ti
0.125230 0.042743 0.817686 F F F Ti
0.624742 0.042754 0.817711 F F F Ti
0.142991 0.366364 0.493637 T T T Ti
0.610776 0.368672 0.496296 T T T Ti
0.137967 0.346529 0.641232 T T T Ti
0.611284 0.346782 0.641830 T T T Ti
0.124999 0.376140 0.818037 F F F Ti
0.624928 0.376121 0.818089 F F F Ti
0.135433 0.681176 0.484306 T T T Ti
0.613861 0.682197 0.484447 T T T Ti
0.105580 0.707363 0.657780 T T T Ti
0.643971 0.707458 0.657833 T T T Ti
0.124966 0.709641 0.817812 F F F Ti
0.624965 0.709651 0.817833 F F F Ti
0.872998 0.193355 0.540522 T T T Ti
0.374811 0.211045 0.738903 F F F Ti
0.875013 0.210447 0.738856 F F F Ti
0.375057 0.208868 0.896884 F F F Ti
0.875066 0.208817 0.896843 F F F Ti
0.374211 0.547705 0.579000 T T T Ti
0.874823 0.524713 0.566160 T T T Ti
0.374830 0.543587 0.738929 F F F Ti
0.874885 0.543192 0.739221 F F F Ti
0.375050 0.542249 0.896905 F F F Ti
0.874969 0.542227 0.896964 F F F Ti
0.374749 0.843160 0.572874 T T T Ti
0.875154 0.860309 0.564323 T T T Ti
0.374943 0.876718 0.738471 F F F Ti
0.874853 0.877234 0.738480 F F F Ti
0.375018 0.875491 0.896801 F F F Ti
0.875002 0.875521 0.896789 F F F Ti
0.131471 0.625186 0.361069 T T T Ti
0.617826 0.626695 0.360903 T T T Ti
0.125208 0.623242 0.119216 F F F Ti
0.624484 0.623232 0.119193 F F F Ti
0.112798 0.136679 0.371539 T T T Ti
0.638749 0.134314 0.371261 T T T Ti
0.124652 0.123251 0.118629 F F F Ti
0.624825 0.123282 0.118515 F F F Ti
0.124940 0.374321 0.039833 F F F Ti
0.624896 0.374368 0.039844 F F F Ti
0.124916 0.874025 0.039593 F F F Ti
0.624671 0.873982 0.039564 F F F Ti
0.134281 0.379061 0.278577 T T T Ti
0.615624 0.379490 0.277868 T T T Ti
0.106762 0.882427 0.281171 T T T Ti
0.642241 0.882136 0.281045 T T T Ti
0.374612 0.872314 0.158182 F F F Ti
0.874476 0.871994 0.157992 F F F Ti
0.374857 0.372799 0.158556 F F F Ti
0.875535 0.373456 0.158533 F F F Ti
0.869842 0.400483 0.396728 T T T Ti
0.373597 0.877415 0.396221 T T T Ti
0.874168 0.878181 0.410425 T T T Ti
0.374530 0.632764 0.245349 T T T Ti
0.874876 0.622497 0.245269 T T T Ti
0.374877 0.624433 0.000461 F F F Ti
0.874833 0.624534 0.000465 F F F Ti
0.374691 0.122119 0.249177 T T T Ti
0.873267 0.132437 0.247232 T T T Ti
0.374939 0.124563 0.000208 F F F Ti
0.874816 0.124521 0.000133 F F F Ti
0.391564 0.313315 0.412345 T T T Mo

0.000000 0.000000 0.000000
0.000000 0.000000 0.000000
0.000000 0.000000 0.000000
0.000000 0.000000 0.000000
0.000000 0.000000 0.000000
0.000000 0.000000 0.000000
0.000000 0.000000 0.000000
0.000000 0.000000 0.000000
0.000000 0.000000 0.000000
0.000000 0.000000 0.000000
0.000000 0.000000 0.000000
0.000000 0.000000 0.000000
0.000000 0.000000 0.000000
0.000000 0.000000 0.000000
0.000000 0.000000 0.000000
0.000000 0.000000 0.000000
0.000000 0.000000 0.000000
0.000000 0.000000 0.000000
0.000000 0.000000 0.000000
0.000000 0.000000 0.000000
0.000000 0.000000 0.000000
0.000000 0.000000 0.000000
0.000000 0.000000 0.000000
0.000000 0.000000 0.000000
0.000000 0.000000 0.000000
0.000000 0.000000 0.000000
0.000000 0.000000 0.000000
0.000000 0.000000 0.000000
0.000000 0.000000 0.000000
0.000000 0.000000 0.000000
0.000000 0.000000 0.000000
0.000000 0.000000 0.000000
0.000000 0.000000 0.000000
0.000000 0.000000 0.000000
0.000000 0.000000 0.000000
0.000000 0.000000 0.000000
0.000000 0.000000 0.000000
0.000000 0.000000 0.000000
0.000000 0.000000 0.000000
0.000000 0.000000 0.000000
0.000000 0.000000 0.000000
0.000000 0.000000 0.000000
0.000000 0.000000 0.000000
0.000000 0.000000 0.000000
0.000000 0.000000 0.000000
0.000000 0.000000 0.000000
0.000000 0.000000 0.000000
0.000000 0.000000 0.000000
0.000000 0.000000 0.000000
0.000000 0.000000 0.000000
0.000000 0.000000 0.000000
0.000000 0.000000 0.000000
0.000000 0.000000 0.000000
0.000000 0.000000 0.000000
0.000000 0.000000 0.000000
0.000000 0.000000 0.000000
0.000000 0.000000 0.000000
0.000000 0.000000 0.000000
0.000000 0.000000 0.000000
0.000000 0.000000 0.000000
0.000000 0.000000 0.000000
0.000000 0.000000 0.000000
0.000000 0.000000 0.000000
0.000000 0.000000 0.000000
0.000000 0.000000 0.000000
0.000000 0.000000 0.000000
0.000000 0.000000 0.000000
