total_Ti
1.0
5.745590 0.000000 0.000000
0.000000 9.072750 0.000000
0.000000 0.000000 29.667173
Ti
64
direct
0.041667 0.875000 0.314592 Ti
0.041667 0.375000 0.314592 Ti
0.541667 0.875000 0.314592 Ti
0.541667 0.375000 0.314592 Ti
0.291667 0.625000 0.343192 Ti
0.291667 0.125000 0.343192 Ti
0.791667 0.625000 0.343192 Ti
0.791667 0.125000 0.343192 Ti
0.291667 0.875000 0.228794 Ti
0.291667 0.375000 0.228794 Ti
0.791667 0.875000 0.228794 Ti
0.791667 0.375000 0.228794 Ti
0.041667 0.625000 0.257394 Ti
0.041667 0.125000 0.257394 Ti
0.541667 0.625000 0.257394 Ti
0.541667 0.125000 0.257394 Ti
0.041667 0.875000 0.142996 Ti
0.041667 0.375000 0.142996 Ti
0.541667 0.875000 0.142996 Ti
0.541667 0.375000 0.142996 Ti
0.291667 0.625000 0.171596 Ti
0.291667 0.125000 0.171596 Ti
0.791667 0.625000 0.171596 Ti
0.791667 0.125000 0.171596 Ti
0.291667 0.875000 0.057198 Ti
0.291667 0.375000 0.057198 Ti
0.791667 0.875000 0.057198 Ti
0.791667 0.375000 0.057198 Ti
0.041667 0.625000 0.085798 Ti
0.041667 0.125000 0.085798 Ti
0.541667 0.625000 0.085798 Ti
0.541667 0.125000 0.085798 Ti
0.458333 0.625000 0.590180 Ti
0.458333 0.125000 0.590180 Ti
0.958333 0.625000 0.590180 Ti
0.958333 0.125000 0.590180 Ti
0.125000 0.625000 0.679667 Ti
0.125000 0.125000 0.679667 Ti
0.625000 0.625000 0.679667 Ti
0.625000 0.125000 0.679667 Ti
0.291667 0.625000 0.769155 Ti
0.291667 0.125000 0.769155 Ti
0.791667 0.625000 0.769155 Ti
0.791667 0.125000 0.769155 Ti
0.125000 0.875000 0.545436 Ti
0.125000 0.375000 0.545436 Ti
0.625000 0.875000 0.545436 Ti
0.625000 0.375000 0.545436 Ti
0.291667 0.875000 0.634924 Ti
0.291667 0.375000 0.634924 Ti
0.791667 0.875000 0.634924 Ti
0.791667 0.375000 0.634924 Ti
0.458333 0.875000 0.724411 Ti
0.458333 0.375000 0.724411 Ti
0.958333 0.875000 0.724411 Ti
0.958333 0.375000 0.724411 Ti
0.125000 0.875000 0.813898 Ti
0.125000 0.375000 0.813898 Ti
0.625000 0.875000 0.813898 Ti
0.625000 0.375000 0.813898 Ti
0.791667 0.125000 0.000000 Ti
0.291667 0.125000 0.000000 Ti
0.791667 0.625000 -0.000000 Ti
0.291667 0.625000 -0.000000 Ti
