Ti66 Nb1
1.0
6.309760 0.000000 0.000000
0.000000 9.464640 0.000000
0.000000 0.000000 18.918326
Ti Nb
66 1
Selective dynamics
direct
0.127340 0.040583 0.456801 T T T Ti
0.629387 0.054787 0.484855 T T T Ti
0.126141 0.047432 0.656701 T T T Ti
0.625800 0.055014 0.644434 T T T Ti
0.125316 0.039612 0.817350 F F F Ti
0.625354 0.039583 0.817451 F F F Ti
0.633574 0.369876 0.481761 T T T Ti
0.126482 0.369657 0.654835 T T T Ti
0.627280 0.359687 0.643947 T T T Ti
0.125626 0.373526 0.817385 F F F Ti
0.625720 0.373625 0.817511 F F F Ti
0.125255 0.712445 0.489613 T T T Ti
0.621315 0.717121 0.500034 T T T Ti
0.126019 0.702764 0.644050 T T T Ti
0.624180 0.711972 0.649709 T T T Ti
0.125287 0.706332 0.817060 F F F Ti
0.625145 0.706507 0.817142 F F F Ti
0.349074 0.211062 0.556336 T T T Ti
0.904075 0.208989 0.557907 T T T Ti
0.376378 0.206627 0.738514 F F F Ti
0.875446 0.206493 0.738665 F F F Ti
0.375468 0.206910 0.896252 F F F Ti
0.875304 0.206897 0.896290 F F F Ti
0.380555 0.524115 0.565261 T T T Ti
0.869889 0.526426 0.566089 T T T Ti
0.376013 0.538832 0.737993 F F F Ti
0.875131 0.539060 0.738058 F F F Ti
0.375369 0.540513 0.896264 F F F Ti
0.875219 0.540545 0.896278 F F F Ti
0.356945 0.897327 0.565088 T T T Ti
0.894527 0.895951 0.565183 T T T Ti
0.375352 0.872100 0.737939 F F F Ti
0.875363 0.871929 0.737887 F F F Ti
0.375235 0.873512 0.896271 F F F Ti
0.875139 0.873488 0.896267 F F F Ti
0.124868 0.603480 0.367163 T T T Ti
0.621141 0.595481 0.373508 T T T Ti
0.125355 0.624081 0.118204 F F F Ti
0.624937 0.624333 0.118004 F F F Ti
0.629792 0.081154 0.354133 T T T Ti
0.126036 0.123019 0.117979 F F F Ti
0.625333 0.123279 0.118069 F F F Ti
0.125507 0.373899 0.038563 F F F Ti
0.625231 0.374019 0.038697 F F F Ti
0.125047 0.873919 0.039255 F F F Ti
0.624922 0.873963 0.039236 F F F Ti
0.126299 0.385432 0.273962 T T T Ti
0.622094 0.375517 0.276197 T T T Ti
0.125683 0.870660 0.283541 T T T Ti
0.624656 0.864655 0.272034 T T T Ti
0.375348 0.873487 0.158173 F F F Ti
0.875145 0.873166 0.158138 F F F Ti
0.373983 0.372940 0.156746 F F F Ti
0.877075 0.373281 0.156724 F F F Ti
0.377454 0.286383 0.380653 T T T Ti
0.862313 0.287094 0.376063 T T T Ti
0.399773 0.854262 0.397327 T T T Ti
0.850776 0.852173 0.397460 T T T Ti
0.376106 0.625350 0.246610 T T T Ti
0.873002 0.625212 0.246706 T T T Ti
0.375042 0.624428 -0.000445 F F F Ti
0.875170 0.624440 -0.000429 F F F Ti
0.365066 0.128367 0.246020 T T T Ti
0.886797 0.128114 0.245022 T T T Ti
0.375493 0.123531 -0.000421 F F F Ti
0.875144 0.123523 -0.000386 F F F Ti
0.098707 0.322581 0.453686 T T T Nb

0.000000 0.000000 0.000000
0.000000 0.000000 0.000000
0.000000 0.000000 0.000000
0.000000 0.000000 0.000000
0.000000 0.000000 0.000000
0.000000 0.000000 0.000000
0.000000 0.000000 0.000000
0.000000 0.000000 0.000000
0.000000 0.000000 0.000000
0.000000 0.000000 0.000000
0.000000 0.000000 0.000000
0.000000 0.000000 0.000000
0.000000 0.000000 0.000000
0.000000 0.000000 0.000000
0.000000 0.000000 0.000000
0.000000 0.000000 0.000000
0.000000 0.000000 0.000000
0.000000 0.000000 0.000000
0.000000 0.000000 0.000000
0.000000 0.000000 0.000000
0.000000 0.000000 0.000000
0.000000 0.000000 0.000000
0.000000 0.000000 0.000000
0.000000 0.000000 0.000000
0.000000 0.000000 0.000000
0.000000 0.000000 0.000000
0.000000 0.000000 0.000000
0.000000 0.000000 0.000000
0.000000 0.000000 0.000000
0.000000 0.000000 0.000000
0.000000 0.000000 0.000000
0.000000 0.000000 0.000000
0.000000 0.000000 0.000000
0.000000 0.000000 0.000000
0.000000 0.000000 0.000000
0.000000 0.000000 0.000000
0.000000 0.000000 0.000000
0.000000 0.000000 0.000000
0.000000 0.000000 0.000000
0.000000 0.000000 0.000000
0.000000 0.000000 0.000000
0.000000 0.000000 0.000000
0.000000 0.000000 0.000000
0.000000 0.000000 0.000000
0.000000 0.000000 0.000000
0.000000 0.000000 0.000000
0.000000 0.000000 0.000000
0.000000 0.000000 0.000000
0.000000 0.000000 0.000000
0.000000 0.000000 0.000000
0.000000 0.000000 0.000000
0.000000 0.000000 0.000000
0.000000 0.000000 0.000000
0.000000 0.000000 0.000000
0.000000 0.000000 0.000000
0.000000 0.000000 0.000000
0.000000 0.000000 0.000000
0.000000 0.000000 0.000000
0.000000 0.000000 0.000000
0.000000 0.000000 0.000000
0.000000 0.000000 0.000000
0.000000 0.000000 0.000000
0.000000 0.000000 0.000000
0.000000 0.000000 0.000000
0.000000 0.000000 0.000000
0.000000 0.000000 0.000000
0.000000 0.000000 0.000000
