Ti66 Sn1
1.0
6.309760 0.000000 0.000000
0.000000 9.464640 0.000000
0.000000 0.000000 18.918326
Ti Sn
66 1
Selective dynamics
direct
0.126431 0.032094 0.506020 F F F Ti
0.628413 0.041808 0.500648 F F F Ti
0.125387 0.040949 0.659802 F F F Ti
0.625070 0.041444 0.659363 F F F Ti
0.125060 0.041577 0.817588 F F F Ti
0.624961 0.041640 0.817570 F F F Ti
0.626605 0.375251 0.501138 F F F Ti
0.125178 0.374729 0.658809 F F F Ti
0.625199 0.374994 0.659036 F F F Ti
0.125078 0.374908 0.817397 F F F Ti
0.625058 0.374950 0.817445 F F F Ti
0.125224 0.709247 0.500221 F F F Ti
0.623461 0.709270 0.500407 F F F Ti
0.125229 0.707715 0.659087 F F F Ti
0.624585 0.707317 0.659309 F F F Ti
0.125024 0.708104 0.817495 F F F Ti
0.624926 0.708035 0.817552 F F F Ti
0.376237 0.207879 0.579988 F F F Ti
0.874829 0.207956 0.580438 F F F Ti
0.375229 0.208297 0.738298 F F F Ti
0.875017 0.208265 0.738365 F F F Ti
0.375022 0.208377 0.896605 F F F Ti
0.875053 0.208367 0.896614 F F F Ti
0.374760 0.541198 0.579496 F F F Ti
0.875262 0.541738 0.579655 F F F Ti
0.374937 0.541213 0.738224 F F F Ti
0.875224 0.541278 0.738252 F F F Ti
0.374983 0.541497 0.896580 F F F Ti
0.875064 0.541509 0.896576 F F F Ti
0.378300 0.873230 0.580760 F F F Ti
0.872451 0.872744 0.580912 F F F Ti
0.375401 0.874517 0.738556 F F F Ti
0.874699 0.874474 0.738561 F F F Ti
0.375053 0.875038 0.896659 F F F Ti
0.874961 0.875040 0.896655 F F F Ti
0.126323 0.628426 0.356408 F F F Ti
0.624225 0.630262 0.355921 F F F Ti
0.125323 0.625987 0.118703 F F F Ti
0.625141 0.625951 0.118647 F F F Ti
0.632045 0.127457 0.357148 F F F Ti
0.125633 0.125822 0.119125 F F F Ti
0.624972 0.125757 0.119063 F F F Ti
0.125276 0.375351 0.039597 F F F Ti
0.625060 0.375321 0.039583 F F F Ti
0.125152 0.875586 0.039676 F F F Ti
0.624994 0.875597 0.039672 F F F Ti
0.125464 0.379563 0.277036 F F F Ti
0.625901 0.377043 0.276498 F F F Ti
0.125349 0.877027 0.277690 F F F Ti
0.625677 0.877773 0.277366 F F F Ti
0.375144 0.876408 0.158629 F F F Ti
0.875398 0.876224 0.158480 F F F Ti
0.375133 0.375960 0.158432 F F F Ti
0.875486 0.376146 0.158203 F F F Ti
0.386558 0.384608 0.396125 F F F Ti
0.859747 0.390474 0.395858 F F F Ti
0.376906 0.876163 0.396874 F F F Ti
0.873823 0.873616 0.396961 F F F Ti
0.375715 0.627210 0.237379 F F F Ti
0.875103 0.627354 0.237335 F F F Ti
0.375068 0.625353 -0.000003 F F F Ti
0.875078 0.625369 -0.000009 F F F Ti
0.375210 0.126950 0.238531 F F F Ti
0.875695 0.126821 0.237637 F F F Ti
0.375101 0.125268 0.000163 F F F Ti
0.875167 0.125272 0.000180 F F F Ti
0.104757 0.181477 0.400125 T T T Sn

0.000000 0.000000 0.000000
0.000000 0.000000 0.000000
0.000000 0.000000 0.000000
0.000000 0.000000 0.000000
0.000000 0.000000 0.000000
0.000000 0.000000 0.000000
0.000000 0.000000 0.000000
0.000000 0.000000 0.000000
0.000000 0.000000 0.000000
0.000000 0.000000 0.000000
0.000000 0.000000 0.000000
0.000000 0.000000 0.000000
0.000000 0.000000 0.000000
0.000000 0.000000 0.000000
0.000000 0.000000 0.000000
0.000000 0.000000 0.000000
0.000000 0.000000 0.000000
0.000000 0.000000 0.000000
0.000000 0.000000 0.000000
0.000000 0.000000 0.000000
0.000000 0.000000 0.000000
0.000000 0.000000 0.000000
0.000000 0.000000 0.000000
0.000000 0.000000 0.000000
0.000000 0.000000 0.000000
0.000000 0.000000 0.000000
0.000000 0.000000 0.000000
0.000000 0.000000 0.000000
0.000000 0.000000 0.000000
0.000000 0.000000 0.000000
0.000000 0.000000 0.000000
0.000000 0.000000 0.000000
0.000000 0.000000 0.000000
0.000000 0.000000 0.000000
0.000000 0.000000 0.000000
0.000000 0.000000 0.000000
0.000000 0.000000 0.000000
0.000000 0.000000 0.000000
0.000000 0.000000 0.000000
0.000000 0.000000 0.000000
0.000000 0.000000 0.000000
0.000000 0.000000 0.000000
0.000000 0.000000 0.000000
0.000000 0.000000 0.000000
0.000000 0.000000 0.000000
0.000000 0.000000 0.000000
0.000000 0.000000 0.000000
0.000000 0.000000 0.000000
0.000000 0.000000 0.000000
0.000000 0.000000 0.000000
0.000000 0.000000 0.000000
0.000000 0.000000 0.000000
0.000000 0.000000 0.000000
0.000000 0.000000 0.000000
0.000000 0.000000 0.000000
0.000000 0.000000 0.000000
0.000000 0.000000 0.000000
0.000000 0.000000 0.000000
0.000000 0.000000 0.000000
0.000000 0.000000 0.000000
0.000000 0.000000 0.000000
0.000000 0.000000 0.000000
0.000000 0.000000 0.000000
0.000000 0.000000 0.000000
0.000000 0.000000 0.000000
0.000000 0.000000 0.000000
0.000000 0.000000 0.000000
