total_Ti
1.0
6.391540 0.000000 0.000000
0.000000 9.587310 0.000000
0.000000 0.000000 24.550000
Ti
84
direct
0.125000 0.083333 0.576375 Ti
0.625000 0.083333 0.576375 Ti
0.125000 0.083333 0.698574 Ti
0.625000 0.083333 0.698574 Ti
0.125000 0.083333 0.820774 Ti
0.625000 0.083333 0.820774 Ti
0.125000 0.416667 0.576375 Ti
0.625000 0.416667 0.576375 Ti
0.125000 0.416667 0.698574 Ti
0.625000 0.416667 0.698574 Ti
0.125000 0.416667 0.820774 Ti
0.625000 0.416667 0.820774 Ti
0.125000 0.750000 0.576375 Ti
0.625000 0.750000 0.576375 Ti
0.125000 0.750000 0.698574 Ti
0.625000 0.750000 0.698574 Ti
0.125000 0.750000 0.820774 Ti
0.625000 0.750000 0.820774 Ti
0.375000 0.250000 0.637475 Ti
0.875000 0.250000 0.637475 Ti
0.375000 0.250000 0.759674 Ti
0.875000 0.250000 0.759674 Ti
0.375000 0.250000 0.881874 Ti
0.875000 0.250000 0.881874 Ti
0.375000 0.583333 0.637475 Ti
0.875000 0.583333 0.637475 Ti
0.375000 0.583333 0.759674 Ti
0.875000 0.583333 0.759674 Ti
0.375000 0.583333 0.881874 Ti
0.875000 0.583333 0.881874 Ti
0.375000 0.916667 0.637475 Ti
0.875000 0.916667 0.637475 Ti
0.375000 0.916667 0.759674 Ti
0.875000 0.916667 0.759674 Ti
0.375000 0.916667 0.881874 Ti
0.875000 0.916667 0.881874 Ti
0.125000 0.166667 0.366599 Ti
0.625000 0.166667 0.366599 Ti
0.125000 0.666667 0.366599 Ti
0.625000 0.666667 0.366599 Ti
0.125000 0.166667 -0.000000 Ti
0.625000 0.166667 -0.000000 Ti
0.125000 0.666667 -0.000000 Ti
0.625000 0.666667 -0.000000 Ti
0.125000 0.833333 0.091650 Ti
0.625000 0.833333 0.091650 Ti
0.125000 0.833333 0.458248 Ti
0.625000 0.833333 0.458248 Ti
0.125000 0.333333 0.091650 Ti
0.625000 0.333333 0.091650 Ti
0.125000 0.333333 0.458248 Ti
0.625000 0.333333 0.458248 Ti
0.375000 0.583333 0.458248 Ti
0.875000 0.583333 0.458248 Ti
0.374999 0.583333 0.091650 Ti
0.874999 0.583333 0.091650 Ti
0.375000 0.083333 0.091650 Ti
0.875000 0.083333 0.091650 Ti
0.375000 0.083333 0.458248 Ti
0.875000 0.083333 0.458248 Ti
0.375000 0.416667 0.366599 Ti
0.875000 0.416667 0.366599 Ti
0.375000 0.916667 0.366599 Ti
0.875000 0.916667 0.366599 Ti
0.375000 0.416667 -0.000000 Ti
0.875000 0.416667 -0.000000 Ti
0.375000 0.916667 -0.000000 Ti
0.875000 0.916667 -0.000000 Ti
0.375000 0.083333 0.274949 Ti
0.875000 0.083333 0.274949 Ti
0.125000 0.166667 0.183299 Ti
0.625000 0.166667 0.183299 Ti
0.125000 0.333333 0.274949 Ti
0.625000 0.333333 0.274949 Ti
0.375000 0.416667 0.183299 Ti
0.875000 0.416667 0.183299 Ti
0.374999 0.583333 0.274949 Ti
0.874999 0.583333 0.274949 Ti
0.125000 0.666667 0.183299 Ti
0.625000 0.666667 0.183299 Ti
0.125000 0.833333 0.274949 Ti
0.625000 0.833333 0.274949 Ti
0.375000 0.916667 0.183299 Ti
0.875000 0.916667 0.183299 Ti
