alpha_Ti
1.0
6.309760 0.000000 0.000000
0.000000 9.464640 0.000000
0.000000 0.000000 29.000004
Ti
32
direct
0.125000 0.625000 0.232759 Ti
0.625000 0.625000 0.232759 Ti
0.125000 0.625000 0.077586 Ti
0.625000 0.625000 0.077586 Ti
0.125000 0.125000 0.232759 Ti
0.625000 0.125000 0.232759 Ti
0.125000 0.125000 0.077586 Ti
0.625000 0.125000 0.077586 Ti
0.125000 0.375000 0.025862 Ti
0.625000 0.375000 0.025862 Ti
0.125000 0.875000 0.025862 Ti
0.625000 0.875000 0.025862 Ti
0.125000 0.375000 0.181035 Ti
0.625000 0.375000 0.181035 Ti
0.125000 0.875000 0.181035 Ti
0.625000 0.875000 0.181035 Ti
0.375000 0.875000 0.103448 Ti
0.875000 0.875000 0.103448 Ti
0.374999 0.375000 0.103448 Ti
0.874999 0.375000 0.103448 Ti
0.375000 0.375000 0.258621 Ti
0.875000 0.375000 0.258621 Ti
0.375000 0.875000 0.258621 Ti
0.875000 0.875000 0.258621 Ti
0.375000 0.625000 0.155172 Ti
0.875000 0.625000 0.155172 Ti
0.375000 0.625000 -0.000000 Ti
0.875000 0.625000 -0.000000 Ti
0.375000 0.125000 0.155172 Ti
0.875000 0.125000 0.155172 Ti
0.375000 0.125000 -0.000000 Ti
0.875000 0.125000 -0.000000 Ti
