Ti66 Mo1
1.0
6.309760 0.000000 0.000000
0.000000 9.464640 0.000000
0.000000 0.000000 18.918326
Ti Mo
66 1
Selective dynamics
direct
0.124784 0.041040 0.500144 F F F Ti
0.625609 0.041250 0.500180 F F F Ti
0.125218 0.041537 0.658720 F F F Ti
0.625179 0.041552 0.658738 F F F Ti
0.125050 0.041647 0.817209 F F F Ti
0.625029 0.041652 0.817213 F F F Ti
0.633116 0.375230 0.501900 F F F Ti
0.125218 0.374995 0.658602 F F F Ti
0.625390 0.375016 0.658878 F F F Ti
0.125020 0.375001 0.817175 F F F Ti
0.625047 0.375003 0.817216 F F F Ti
0.124864 0.708782 0.500113 F F F Ti
0.625433 0.708789 0.500157 F F F Ti
0.125175 0.708428 0.658687 F F F Ti
0.625125 0.708458 0.658726 F F F Ti
0.125021 0.708341 0.817195 F F F Ti
0.625020 0.708342 0.817207 F F F Ti
0.375614 0.208068 0.579561 F F F Ti
0.876027 0.207809 0.579585 F F F Ti
0.375042 0.208309 0.737950 F F F Ti
0.875151 0.208290 0.737959 F F F Ti
0.375005 0.208341 0.896424 F F F Ti
0.875050 0.208338 0.896426 F F F Ti
0.375573 0.541940 0.579549 F F F Ti
0.876071 0.542212 0.579585 F F F Ti
0.375032 0.541690 0.737948 F F F Ti
0.875148 0.541704 0.737958 F F F Ti
0.375000 0.541651 0.896426 F F F Ti
0.875048 0.541652 0.896428 F F F Ti
0.375140 0.875074 0.579390 F F F Ti
0.875056 0.874964 0.579464 F F F Ti
0.375055 0.874992 0.737948 F F F Ti
0.875053 0.874982 0.737961 F F F Ti
0.375018 0.874974 0.896442 F F F Ti
0.875020 0.874977 0.896443 F F F Ti
0.121992 0.627321 0.356287 F F F Ti
0.625597 0.626025 0.356618 F F F Ti
0.124939 0.625028 0.118853 F F F Ti
0.624781 0.625018 0.118845 F F F Ti
0.121814 0.122662 0.356273 F F F Ti
0.625927 0.123986 0.356602 F F F Ti
0.124944 0.124995 0.118844 F F F Ti
0.624795 0.125004 0.118833 F F F Ti
0.124979 0.375004 0.039594 F F F Ti
0.624878 0.375005 0.039577 F F F Ti
0.124984 0.875010 0.039585 F F F Ti
0.624928 0.875007 0.039576 F F F Ti
0.122479 0.375018 0.276790 F F F Ti
0.624132 0.375020 0.277407 F F F Ti
0.124759 0.875110 0.277252 F F F Ti
0.624608 0.875090 0.277348 F F F Ti
0.374973 0.875030 0.158473 F F F Ti
0.874819 0.875012 0.158415 F F F Ti
0.374865 0.375009 0.158534 F F F Ti
0.874392 0.375005 0.158363 F F F Ti
0.869831 0.375028 0.396008 F F F Ti
0.374988 0.875414 0.396447 F F F Ti
0.874413 0.875093 0.396491 F F F Ti
0.374733 0.625078 0.237808 F F F Ti
0.874233 0.625179 0.237570 F F F Ti
0.374972 0.624999 -0.000031 F F F Ti
0.874951 0.625006 -0.000039 F F F Ti
0.374738 0.124974 0.237800 F F F Ti
0.874226 0.124849 0.237557 F F F Ti
0.374975 0.124996 -0.000034 F F F Ti
0.874953 0.124991 -0.000040 F F F Ti
0.325786 0.374003 0.409513 T T T Mo

0.000000 0.000000 0.000000
0.000000 0.000000 0.000000
0.000000 0.000000 0.000000
0.000000 0.000000 0.000000
0.000000 0.000000 0.000000
0.000000 0.000000 0.000000
0.000000 0.000000 0.000000
0.000000 0.000000 0.000000
0.000000 0.000000 0.000000
0.000000 0.000000 0.000000
0.000000 0.000000 0.000000
0.000000 0.000000 0.000000
0.000000 0.000000 0.000000
0.000000 0.000000 0.000000
0.000000 0.000000 0.000000
0.000000 0.000000 0.000000
0.000000 0.000000 0.000000
0.000000 0.000000 0.000000
0.000000 0.000000 0.000000
0.000000 0.000000 0.000000
0.000000 0.000000 0.000000
0.000000 0.000000 0.000000
0.000000 0.000000 0.000000
0.000000 0.000000 0.000000
0.000000 0.000000 0.000000
0.000000 0.000000 0.000000
0.000000 0.000000 0.000000
0.000000 0.000000 0.000000
0.000000 0.000000 0.000000
0.000000 0.000000 0.000000
0.000000 0.000000 0.000000
0.000000 0.000000 0.000000
0.000000 0.000000 0.000000
0.000000 0.000000 0.000000
0.000000 0.000000 0.000000
0.000000 0.000000 0.000000
0.000000 0.000000 0.000000
0.000000 0.000000 0.000000
0.000000 0.000000 0.000000
0.000000 0.000000 0.000000
0.000000 0.000000 0.000000
0.000000 0.000000 0.000000
0.000000 0.000000 0.000000
0.000000 0.000000 0.000000
0.000000 0.000000 0.000000
0.000000 0.000000 0.000000
0.000000 0.000000 0.000000
0.000000 0.000000 0.000000
0.000000 0.000000 0.000000
0.000000 0.000000 0.000000
0.000000 0.000000 0.000000
0.000000 0.000000 0.000000
0.000000 0.000000 0.000000
0.000000 0.000000 0.000000
0.000000 0.000000 0.000000
0.000000 0.000000 0.000000
0.000000 0.000000 0.000000
0.000000 0.000000 0.000000
0.000000 0.000000 0.000000
0.000000 0.000000 0.000000
0.000000 0.000000 0.000000
0.000000 0.000000 0.000000
0.000000 0.000000 0.000000
0.000000 0.000000 0.000000
0.000000 0.000000 0.000000
0.000000 0.000000 0.000000
0.000000 0.000000 0.000000
