Ti66 Al1
1.0
6.309760 0.000000 0.000000
0.000000 9.464640 0.000000
0.000000 0.000000 18.918326
Ti Al
66 1
Selective dynamics
direct
0.140673 -0.018308 0.497413 T T T Ti
0.607451 -0.021306 0.496264 T T T Ti
0.110137 0.017345 0.653854 T T T Ti
0.642593 0.016142 0.654676 T T T Ti
0.127070 -0.002079 0.825480 F F F Ti
0.626573 -0.002191 0.825551 F F F Ti
0.168964 0.329551 0.477847 T T T Ti
0.579725 0.339045 0.474751 T T T Ti
0.109770 0.332917 0.656512 T T T Ti
0.645261 0.334802 0.657577 T T T Ti
0.127035 0.331041 0.825651 F F F Ti
0.626940 0.331145 0.825754 F F F Ti
0.142427 0.674002 0.499587 T T T Ti
0.606799 0.674385 0.499475 T T T Ti
0.106628 0.642452 0.655082 T T T Ti
0.646525 0.642850 0.655314 T T T Ti
0.127378 0.664880 0.825716 F F F Ti
0.626410 0.664949 0.825695 F F F Ti
0.865799 0.180693 0.547544 T T T Ti
0.376880 0.163762 0.746142 F F F Ti
0.876886 0.163366 0.746703 F F F Ti
0.376586 0.165240 0.904706 F F F Ti
0.876469 0.165211 0.904707 F F F Ti
0.376351 0.479827 0.571386 T T T Ti
0.875369 0.473017 0.551468 T T T Ti
0.376853 0.497054 0.746539 F F F Ti
0.877610 0.497969 0.747157 F F F Ti
0.376543 0.498614 0.904888 F F F Ti
0.876523 0.498722 0.904914 F F F Ti
0.375733 0.823944 0.594881 T T T Ti
0.874106 0.837384 0.576965 T T T Ti
0.376418 0.831172 0.745969 F F F Ti
0.877273 0.831065 0.746453 F F F Ti
0.376357 0.832461 0.904782 F F F Ti
0.876446 0.832419 0.904767 F F F Ti
0.127095 0.592078 0.372769 T T T Ti
0.618796 0.593231 0.372314 T T T Ti
0.123549 0.587757 0.126415 F F F Ti
0.622696 0.587759 0.126414 F F F Ti
0.138674 0.098616 0.375156 T T T Ti
0.606521 0.098900 0.374626 T T T Ti
0.123117 0.087688 0.127119 F F F Ti
0.622530 0.087734 0.127125 F F F Ti
0.123850 0.335375 0.047758 F F F Ti
0.623811 0.335413 0.047792 F F F Ti
0.123992 0.835901 0.047774 F F F Ti
0.623404 0.835883 0.047771 F F F Ti
0.143879 0.341868 0.294128 T T T Ti
0.601520 0.342223 0.293883 T T T Ti
0.101155 0.841565 0.285033 T T T Ti
0.643227 0.841631 0.284926 T T T Ti
0.372779 0.839473 0.166526 F F F Ti
0.872814 0.839252 0.166214 F F F Ti
0.373010 0.338526 0.166397 F F F Ti
0.873351 0.338939 0.166220 F F F Ti
0.875475 0.336681 0.406506 T T T Ti
0.371743 0.837491 0.394850 T T T Ti
0.873085 0.844779 0.412251 T T T Ti
0.372629 0.595518 0.253492 T T T Ti
0.872927 0.578705 0.253278 T T T Ti
0.373990 0.584653 0.007952 F F F Ti
0.873876 0.584793 0.007928 F F F Ti
0.371429 0.083587 0.253267 T T T Ti
0.871716 0.101779 0.257609 T T T Ti
0.374006 0.084648 0.008410 F F F Ti
0.873718 0.084565 0.008373 F F F Ti
0.404077 0.178766 0.538366 T T T Al

0.000000 0.000000 0.000000
0.000000 0.000000 0.000000
0.000000 0.000000 0.000000
0.000000 0.000000 0.000000
0.000000 0.000000 0.000000
0.000000 0.000000 0.000000
0.000000 0.000000 0.000000
0.000000 0.000000 0.000000
0.000000 0.000000 0.000000
0.000000 0.000000 0.000000
0.000000 0.000000 0.000000
0.000000 0.000000 0.000000
0.000000 0.000000 0.000000
0.000000 0.000000 0.000000
0.000000 0.000000 0.000000
0.000000 0.000000 0.000000
0.000000 0.000000 0.000000
0.000000 0.000000 0.000000
0.000000 0.000000 0.000000
0.000000 0.000000 0.000000
0.000000 0.000000 0.000000
0.000000 0.000000 0.000000
0.000000 0.000000 0.000000
0.000000 0.000000 0.000000
0.000000 0.000000 0.000000
0.000000 0.000000 0.000000
0.000000 0.000000 0.000000
0.000000 0.000000 0.000000
0.000000 0.000000 0.000000
0.000000 0.000000 0.000000
0.000000 0.000000 0.000000
0.000000 0.000000 0.000000
0.000000 0.000000 0.000000
0.000000 0.000000 0.000000
0.000000 0.000000 0.000000
0.000000 0.000000 0.000000
0.000000 0.000000 0.000000
0.000000 0.000000 0.000000
0.000000 0.000000 0.000000
0.000000 0.000000 0.000000
0.000000 0.000000 0.000000
0.000000 0.000000 0.000000
0.000000 0.000000 0.000000
0.000000 0.000000 0.000000
0.000000 0.000000 0.000000
0.000000 0.000000 0.000000
0.000000 0.000000 0.000000
0.000000 0.000000 0.000000
0.000000 0.000000 0.000000
0.000000 0.000000 0.000000
0.000000 0.000000 0.000000
0.000000 0.000000 0.000000
0.000000 0.000000 0.000000
0.000000 0.000000 0.000000
0.000000 0.000000 0.000000
0.000000 0.000000 0.000000
0.000000 0.000000 0.000000
0.000000 0.000000 0.000000
0.000000 0.000000 0.000000
0.000000 0.000000 0.000000
0.000000 0.000000 0.000000
0.000000 0.000000 0.000000
0.000000 0.000000 0.000000
0.000000 0.000000 0.000000
0.000000 0.000000 0.000000
0.000000 0.000000 0.000000
0.000000 0.000000 0.000000
