beta_Ti
1.0
8.805261 0.000000 0.000000
-4.402630 7.625580 0.000000
0.000000 0.000000 17.388801
Ti
36
direct
0.083333 0.916670 0.485481 Ti
0.083333 0.416670 0.485481 Ti
0.583333 0.916670 0.485481 Ti
0.583333 0.416670 0.485481 Ti
0.250000 0.250004 0.857689 Ti
0.250000 0.750004 0.857689 Ti
0.750000 0.250004 0.857689 Ti
0.750000 0.750004 0.857689 Ti
0.416667 0.083337 0.910861 Ti
0.416667 0.583337 0.910861 Ti
0.916667 0.083337 0.910861 Ti
0.916667 0.583337 0.910861 Ti
0.250000 0.250004 0.538653 Ti
0.250000 0.750004 0.538653 Ti
0.750000 0.250004 0.538653 Ti
0.750000 0.750004 0.538653 Ti
0.416667 0.083337 0.591826 Ti
0.416667 0.583337 0.591826 Ti
0.916667 0.083337 0.591826 Ti
0.916667 0.583337 0.591826 Ti
0.083333 0.916670 0.644998 Ti
0.083333 0.416670 0.644998 Ti
0.583333 0.916670 0.644998 Ti
0.583333 0.416670 0.644998 Ti
0.250000 0.250004 0.698171 Ti
0.250000 0.750004 0.698171 Ti
0.750000 0.250004 0.698171 Ti
0.750000 0.750004 0.698171 Ti
0.416667 0.083337 0.751344 Ti
0.416667 0.583337 0.751344 Ti
0.916667 0.083337 0.751344 Ti
0.916667 0.583337 0.751344 Ti
0.083333 0.916670 0.804516 Ti
0.083333 0.416670 0.804516 Ti
0.583333 0.916670 0.804516 Ti
0.583333 0.416670 0.804516 Ti
