Zr1 Ti82
1.0
6.391540 0.000000 0.000000
0.000000 9.587310 0.000000
0.000000 0.000000 23.271695
Ti Zr
82 1
Selective dynamics
direct
0.627264 0.083325 0.580820 F F F Ti
0.125024 0.083335 0.709490 F F F Ti
0.625110 0.083333 0.709534 F F F Ti
0.124997 0.083333 0.838399 F F F Ti
0.625009 0.083333 0.838405 F F F Ti
0.124911 0.416972 0.580601 F F F Ti
0.625159 0.416788 0.580585 F F F Ti
0.124991 0.416700 0.709504 F F F Ti
0.625073 0.416723 0.709513 F F F Ti
0.124999 0.416670 0.838401 F F F Ti
0.625006 0.416672 0.838404 F F F Ti
0.124899 0.749719 0.580598 F F F Ti
0.625157 0.749883 0.580584 F F F Ti
0.124984 0.749974 0.709504 F F F Ti
0.625070 0.749957 0.709513 F F F Ti
0.124997 0.750000 0.838402 F F F Ti
0.625006 0.749998 0.838404 F F F Ti
0.375354 0.250283 0.645199 F F F Ti
0.875112 0.250101 0.645064 F F F Ti
0.375006 0.250009 0.773959 F F F Ti
0.875014 0.250007 0.773950 F F F Ti
0.374999 0.250001 0.902855 F F F Ti
0.875002 0.250000 0.902854 F F F Ti
0.375043 0.583368 0.645045 F F F Ti
0.874976 0.583341 0.645053 F F F Ti
0.375002 0.583338 0.773951 F F F Ti
0.875009 0.583333 0.773952 F F F Ti
0.374999 0.583333 0.902854 F F F Ti
0.875002 0.583333 0.902855 F F F Ti
0.375330 0.916402 0.645188 F F F Ti
0.875130 0.916577 0.645061 F F F Ti
0.375005 0.916661 0.773958 F F F Ti
0.875013 0.916662 0.773949 F F F Ti
0.374999 0.916666 0.902854 F F F Ti
0.875001 0.916666 0.902854 F F F Ti
0.124895 0.166707 0.386677 F F F Ti
0.624876 0.166695 0.386710 F F F Ti
0.124994 0.666604 0.386687 F F F Ti
0.625012 0.666651 0.386719 F F F Ti
0.124999 0.166667 0.000001 F F F Ti
0.625000 0.166667 0.000001 F F F Ti
0.124999 0.666667 0.000001 F F F Ti
0.625000 0.666667 0.000001 F F F Ti
0.125000 0.833333 0.096682 F F F Ti
0.625000 0.833333 0.096682 F F F Ti
0.124402 0.832440 0.483250 F F F Ti
0.625137 0.833177 0.483404 F F F Ti
0.125000 0.333333 0.096682 F F F Ti
0.624999 0.333333 0.096682 F F F Ti
0.124387 0.334250 0.483240 F F F Ti
0.625086 0.333475 0.483408 F F F Ti
0.375093 0.583390 0.483411 F F F Ti
0.874839 0.583363 0.483406 F F F Ti
0.375000 0.583333 0.096683 F F F Ti
0.874999 0.583333 0.096682 F F F Ti
0.375000 0.083333 0.096683 F F F Ti
0.874999 0.083333 0.096682 F F F Ti
0.873187 0.083325 0.483166 F F F Ti
0.375032 0.416700 0.386709 F F F Ti
0.874889 0.416714 0.386691 F F F Ti
0.374978 0.916626 0.386710 F F F Ti
0.874890 0.916614 0.386678 F F F Ti
0.374999 0.416668 0.000001 F F F Ti
0.874999 0.416667 0.000001 F F F Ti
0.374999 0.916667 0.000001 F F F Ti
0.874999 0.916667 0.000001 F F F Ti
0.374990 0.083332 0.290042 F F F Ti
0.874974 0.083334 0.290034 F F F Ti
0.124999 0.166667 0.193363 F F F Ti
0.624995 0.166667 0.193363 F F F Ti
0.124996 0.333343 0.290036 F F F Ti
0.624983 0.333335 0.290040 F F F Ti
0.374999 0.416668 0.193363 F F F Ti
0.874995 0.416668 0.193362 F F F Ti
0.375009 0.583337 0.290041 F F F Ti
0.874985 0.583337 0.290035 F F F Ti
0.125000 0.666665 0.193362 F F F Ti
0.624996 0.666666 0.193362 F F F Ti
0.124998 0.833328 0.290038 F F F Ti
0.624985 0.833327 0.290039 F F F Ti
0.374997 0.916666 0.193363 F F F Ti
0.874996 0.916665 0.193362 F F F Ti
0.250365 0.085280 0.538246 T T T Zr

0.000000 0.000000 0.000000
0.000000 0.000000 0.000000
0.000000 0.000000 0.000000
0.000000 0.000000 0.000000
0.000000 0.000000 0.000000
0.000000 0.000000 0.000000
0.000000 0.000000 0.000000
0.000000 0.000000 0.000000
0.000000 0.000000 0.000000
0.000000 0.000000 0.000000
0.000000 0.000000 0.000000
0.000000 0.000000 0.000000
0.000000 0.000000 0.000000
0.000000 0.000000 0.000000
0.000000 0.000000 0.000000
0.000000 0.000000 0.000000
0.000000 0.000000 0.000000
0.000000 0.000000 0.000000
0.000000 0.000000 0.000000
0.000000 0.000000 0.000000
0.000000 0.000000 0.000000
0.000000 0.000000 0.000000
0.000000 0.000000 0.000000
0.000000 0.000000 0.000000
0.000000 0.000000 0.000000
0.000000 0.000000 0.000000
0.000000 0.000000 0.000000
0.000000 0.000000 0.000000
0.000000 0.000000 0.000000
0.000000 0.000000 0.000000
0.000000 0.000000 0.000000
0.000000 0.000000 0.000000
0.000000 0.000000 0.000000
0.000000 0.000000 0.000000
0.000000 0.000000 0.000000
0.000000 0.000000 0.000000
0.000000 0.000000 0.000000
0.000000 0.000000 0.000000
0.000000 0.000000 0.000000
0.000000 0.000000 0.000000
0.000000 0.000000 0.000000
0.000000 0.000000 0.000000
0.000000 0.000000 0.000000
0.000000 0.000000 0.000000
0.000000 0.000000 0.000000
0.000000 0.000000 0.000000
0.000000 0.000000 0.000000
0.000000 0.000000 0.000000
0.000000 0.000000 0.000000
0.000000 0.000000 0.000000
0.000000 0.000000 0.000000
0.000000 0.000000 0.000000
0.000000 0.000000 0.000000
0.000000 0.000000 0.000000
0.000000 0.000000 0.000000
0.000000 0.000000 0.000000
0.000000 0.000000 0.000000
0.000000 0.000000 0.000000
0.000000 0.000000 0.000000
0.000000 0.000000 0.000000
0.000000 0.000000 0.000000
0.000000 0.000000 0.000000
0.000000 0.000000 0.000000
0.000000 0.000000 0.000000
0.000000 0.000000 0.000000
0.000000 0.000000 0.000000
0.000000 0.000000 0.000000
0.000000 0.000000 0.000000
0.000000 0.000000 0.000000
0.000000 0.000000 0.000000
0.000000 0.000000 0.000000
0.000000 0.000000 0.000000
0.000000 0.000000 0.000000
0.000000 0.000000 0.000000
0.000000 0.000000 0.000000
0.000000 0.000000 0.000000
0.000000 0.000000 0.000000
0.000000 0.000000 0.000000
0.000000 0.000000 0.000000
0.000000 0.000000 0.000000
0.000000 0.000000 0.000000
0.000000 0.000000 0.000000
0.000000 0.000000 0.000000
