Ti66 Nb1
1.0
6.309760 0.000000 0.000000
0.000000 9.464640 0.000000
0.000000 0.000000 18.918326
Ti Nb
66 1
Selective dynamics
direct
0.126981 0.025996 0.497915 T T T Ti
0.573774 0.023798 0.487108 T T T Ti
0.101104 0.064263 0.646520 T T T Ti
0.649980 0.068376 0.644975 T T T Ti
0.125000 0.041667 0.817153 F F F Ti
0.625000 0.041667 0.817153 F F F Ti
0.543025 0.375000 0.440866 T T T Ti
0.097239 0.375000 0.637459 T T T Ti
0.645075 0.375000 0.648624 T T T Ti
0.125000 0.375000 0.817153 F F F Ti
0.625000 0.375000 0.817153 F F F Ti
0.126981 0.724004 0.497915 T T T Ti
0.573774 0.726202 0.487108 T T T Ti
0.101104 0.685737 0.646520 T T T Ti
0.649980 0.681624 0.644975 T T T Ti
0.125000 0.708333 0.817153 F F F Ti
0.625000 0.708333 0.817153 F F F Ti
0.385430 0.226306 0.561759 T T T Ti
0.842342 0.231515 0.531972 T T T Ti
0.375000 0.208333 0.737865 F F F Ti
0.875000 0.208333 0.737865 F F F Ti
0.375000 0.208333 0.896441 F F F Ti
0.875000 0.208333 0.896441 F F F Ti
0.385430 0.523694 0.561759 T T T Ti
0.842342 0.518485 0.531972 T T T Ti
0.375000 0.541667 0.737865 F F F Ti
0.875000 0.541667 0.737865 F F F Ti
0.375000 0.541667 0.896441 F F F Ti
0.875000 0.541667 0.896441 F F F Ti
0.373954 0.875000 0.592308 T T T Ti
0.844689 0.875000 0.564242 T T T Ti
0.375000 0.875000 0.737865 F F F Ti
0.875000 0.875000 0.737865 F F F Ti
0.375000 0.875000 0.896441 F F F Ti
0.875000 0.875000 0.896441 F F F Ti
0.168106 0.613019 0.372889 T T T Ti
0.638444 0.624829 0.364397 T T T Ti
0.125000 0.625000 0.118932 F F F Ti
0.625000 0.625000 0.118932 F F F Ti
0.168106 0.136981 0.372889 T T T Ti
0.638444 0.125171 0.364397 T T T Ti
0.125000 0.125000 0.118932 F F F Ti
0.625000 0.125000 0.118932 F F F Ti
0.125000 0.375000 0.039644 F F F Ti
0.625000 0.375000 0.039644 F F F Ti
0.125000 0.875000 0.039644 F F F Ti
0.625000 0.875000 0.039644 F F F Ti
0.164674 0.375000 0.284995 T T T Ti
0.597543 0.375000 0.281712 T T T Ti
0.085802 0.875000 0.278818 T T T Ti
0.634221 0.875000 0.279335 T T T Ti
0.375000 0.875000 0.158576 F F F Ti
0.875000 0.875000 0.158576 F F F Ti
0.374999 0.375000 0.158576 F F F Ti
0.874999 0.375000 0.158576 F F F Ti
-0.126542 0.375000 0.383288 T T T Ti
0.345191 0.875000 0.387737 T T T Ti
0.879074 0.875000 0.407142 T T T Ti
0.369459 0.638066 0.245543 T T T Ti
0.881220 0.612050 0.250504 T T T Ti
0.375000 0.625000 0.000000 F F F Ti
0.875000 0.625000 0.000000 F F F Ti
0.369459 0.111934 0.245544 T T T Ti
0.881220 0.137950 0.250505 T T T Ti
0.375000 0.125000 0.000000 F F F Ti
0.875000 0.125000 0.000000 F F F Ti
0.166526 0.375000 0.465453 T T T Nb

0.000000 0.000000 0.000000
0.000000 0.000000 0.000000
0.000000 0.000000 0.000000
0.000000 0.000000 0.000000
0.000000 0.000000 0.000000
0.000000 0.000000 0.000000
0.000000 0.000000 0.000000
0.000000 0.000000 0.000000
0.000000 0.000000 0.000000
0.000000 0.000000 0.000000
0.000000 0.000000 0.000000
0.000000 0.000000 0.000000
0.000000 0.000000 0.000000
0.000000 0.000000 0.000000
0.000000 0.000000 0.000000
0.000000 0.000000 0.000000
0.000000 0.000000 0.000000
0.000000 0.000000 0.000000
0.000000 0.000000 0.000000
0.000000 0.000000 0.000000
0.000000 0.000000 0.000000
0.000000 0.000000 0.000000
0.000000 0.000000 0.000000
0.000000 0.000000 0.000000
0.000000 0.000000 0.000000
0.000000 0.000000 0.000000
0.000000 0.000000 0.000000
0.000000 0.000000 0.000000
0.000000 0.000000 0.000000
0.000000 0.000000 0.000000
0.000000 0.000000 0.000000
0.000000 0.000000 0.000000
0.000000 0.000000 0.000000
0.000000 0.000000 0.000000
0.000000 0.000000 0.000000
0.000000 0.000000 0.000000
0.000000 0.000000 0.000000
0.000000 0.000000 0.000000
0.000000 0.000000 0.000000
0.000000 0.000000 0.000000
0.000000 0.000000 0.000000
0.000000 0.000000 0.000000
0.000000 0.000000 0.000000
0.000000 0.000000 0.000000
0.000000 0.000000 0.000000
0.000000 0.000000 0.000000
0.000000 0.000000 0.000000
0.000000 0.000000 0.000000
0.000000 0.000000 0.000000
0.000000 0.000000 0.000000
0.000000 0.000000 0.000000
0.000000 0.000000 0.000000
0.000000 0.000000 0.000000
0.000000 0.000000 0.000000
0.000000 0.000000 0.000000
0.000000 0.000000 0.000000
0.000000 0.000000 0.000000
0.000000 0.000000 0.000000
0.000000 0.000000 0.000000
0.000000 0.000000 0.000000
0.000000 0.000000 0.000000
0.000000 0.000000 0.000000
0.000000 0.000000 0.000000
0.000000 0.000000 0.000000
0.000000 0.000000 0.000000
0.000000 0.000000 0.000000
0.000000 0.000000 0.000000
