Ti96 Sn1
1.0
9.513020 0.000000 0.000000
0.000000 9.350860 0.000000
0.000000 0.000000 18.547230
Ti Sn
96 1
Selective dynamics
direct
0.145799 0.379273 0.401449 T T T Ti
0.657013 0.342641 0.392537 T T T Ti
0.129568 0.860097 0.398694 T T T Ti
0.674853 0.862838 0.403473 T T T Ti
0.162444 0.369947 0.236361 T T T Ti
0.655398 0.373446 0.233763 T T T Ti
0.165368 0.874846 0.234326 T T T Ti
0.657446 0.871288 0.234152 T T T Ti
0.166674 0.375036 0.077661 F F F Ti
0.666677 0.375010 0.077635 F F F Ti
0.166665 0.874989 0.077677 F F F Ti
0.666683 0.874984 0.077651 F F F Ti
0.405073 0.395313 0.318623 T T T Ti
0.905963 0.378765 0.318150 T T T Ti
0.398120 0.884503 0.325735 T T T Ti
0.907451 0.880640 0.310155 T T T Ti
0.416692 0.375005 0.155250 F F F Ti
0.916682 0.374970 0.155238 F F F Ti
0.416661 0.875000 0.155279 F F F Ti
0.916691 0.874975 0.155264 F F F Ti
0.416663 0.375035 -0.000023 F F F Ti
0.916637 0.375022 -0.000013 F F F Ti
0.416658 0.874977 -0.000041 F F F Ti
0.916649 0.874986 -0.000024 F F F Ti
0.094037 0.121236 0.318149 T T T Ti
0.594927 0.104688 0.318622 T T T Ti
0.092549 0.619360 0.310154 T T T Ti
0.601880 0.615497 0.325734 T T T Ti
0.083318 0.125040 0.155238 F F F Ti
0.583308 0.125004 0.155250 F F F Ti
0.083309 0.625035 0.155264 F F F Ti
0.583340 0.625009 0.155278 F F F Ti
0.083365 0.124985 -0.000012 F F F Ti
0.583338 0.124974 -0.000021 F F F Ti
0.083352 0.625026 -0.000024 F F F Ti
0.583343 0.625034 -0.000041 F F F Ti
0.342986 0.157359 0.392537 T T T Ti
0.854200 0.120727 0.401449 T T T Ti
0.325146 0.637162 0.403473 T T T Ti
0.870431 0.639903 0.398694 T T T Ti
0.344601 0.126556 0.233763 T T T Ti
0.837555 0.130055 0.236362 T T T Ti
0.342553 0.628714 0.234152 T T T Ti
0.834631 0.625156 0.234326 T T T Ti
0.333322 0.124999 0.077636 F F F Ti
0.833326 0.124973 0.077662 F F F Ti
0.333316 0.625026 0.077651 F F F Ti
0.833335 0.625020 0.077677 F F F Ti
0.374970 0.375046 0.823920 F F F Ti
0.874983 0.374974 0.823925 F F F Ti
0.375048 0.874903 0.823794 F F F Ti
0.875052 0.874986 0.823853 F F F Ti
0.125021 0.125016 0.823925 F F F Ti
0.625036 0.124955 0.823921 F F F Ti
0.124953 0.625014 0.823854 F F F Ti
0.624956 0.625090 0.823795 F F F Ti
0.124983 0.375032 0.910181 F F F Ti
0.625009 0.375027 0.910168 F F F Ti
0.125026 0.874963 0.910143 F F F Ti
0.624993 0.874966 0.910133 F F F Ti
0.374997 0.124972 0.910169 F F F Ti
0.875023 0.124966 0.910181 F F F Ti
0.375011 0.625035 0.910132 F F F Ti
0.874979 0.625037 0.910142 F F F Ti
0.386229 0.375394 0.668058 T T T Ti
0.879047 0.391077 0.646525 T T T Ti
0.382991 0.890458 0.654861 T T T Ti
0.895807 0.881033 0.661471 T T T Ti
0.120952 0.108920 0.646524 T T T Ti
0.613769 0.124601 0.668058 T T T Ti
0.104190 0.618962 0.661472 T T T Ti
0.617008 0.609538 0.654861 T T T Ti
0.137745 0.363401 0.574684 T T T Ti
0.629046 0.344816 0.574670 T T T Ti
0.147659 0.849809 0.571885 T T T Ti
0.674592 0.912783 0.579536 T T T Ti
0.370953 0.155182 0.574670 T T T Ti
0.862254 0.136598 0.574683 T T T Ti
0.325408 0.587216 0.579536 T T T Ti
0.852340 0.650189 0.571885 T T T Ti
0.398190 0.388282 0.480471 T T T Ti
0.888413 0.375056 0.488296 T T T Ti
0.340902 0.946415 0.478273 T T T Ti
0.913211 0.894726 0.491617 T T T Ti
0.111587 0.124943 0.488296 T T T Ti
0.601810 0.111717 0.480471 T T T Ti
0.086789 0.605274 0.491617 T T T Ti
0.659098 0.553584 0.478273 T T T Ti
0.125413 0.875030 0.737698 F F F Ti
0.625063 0.874844 0.737683 F F F Ti
0.374928 0.625139 0.737681 F F F Ti
0.874578 0.624952 0.737702 F F F Ti
0.124795 0.374881 0.737759 F F F Ti
0.625100 0.374831 0.737768 F F F Ti
0.374891 0.125146 0.737767 F F F Ti
0.875195 0.125096 0.737756 F F F Ti
0.500000 0.750000 0.513037 T T T Sn

0.000000 0.000000 0.000000
0.000000 0.000000 0.000000
0.000000 0.000000 0.000000
0.000000 0.000000 0.000000
0.000000 0.000000 0.000000
0.000000 0.000000 0.000000
0.000000 0.000000 0.000000
0.000000 0.000000 0.000000
0.000000 0.000000 0.000000
0.000000 0.000000 0.000000
0.000000 0.000000 0.000000
0.000000 0.000000 0.000000
0.000000 0.000000 0.000000
0.000000 0.000000 0.000000
0.000000 0.000000 0.000000
0.000000 0.000000 0.000000
0.000000 0.000000 0.000000
0.000000 0.000000 0.000000
0.000000 0.000000 0.000000
0.000000 0.000000 0.000000
0.000000 0.000000 0.000000
0.000000 0.000000 0.000000
0.000000 0.000000 0.000000
0.000000 0.000000 0.000000
0.000000 0.000000 0.000000
0.000000 0.000000 0.000000
0.000000 0.000000 0.000000
0.000000 0.000000 0.000000
0.000000 0.000000 0.000000
0.000000 0.000000 0.000000
0.000000 0.000000 0.000000
0.000000 0.000000 0.000000
0.000000 0.000000 0.000000
0.000000 0.000000 0.000000
0.000000 0.000000 0.000000
0.000000 0.000000 0.000000
0.000000 0.000000 0.000000
0.000000 0.000000 0.000000
0.000000 0.000000 0.000000
0.000000 0.000000 0.000000
0.000000 0.000000 0.000000
0.000000 0.000000 0.000000
0.000000 0.000000 0.000000
0.000000 0.000000 0.000000
0.000000 0.000000 0.000000
0.000000 0.000000 0.000000
0.000000 0.000000 0.000000
0.000000 0.000000 0.000000
0.000000 0.000000 0.000000
0.000000 0.000000 0.000000
0.000000 0.000000 0.000000
0.000000 0.000000 0.000000
0.000000 0.000000 0.000000
0.000000 0.000000 0.000000
0.000000 0.000000 0.000000
0.000000 0.000000 0.000000
0.000000 0.000000 0.000000
0.000000 0.000000 0.000000
0.000000 0.000000 0.000000
0.000000 0.000000 0.000000
0.000000 0.000000 0.000000
0.000000 0.000000 0.000000
0.000000 0.000000 0.000000
0.000000 0.000000 0.000000
0.000000 0.000000 0.000000
0.000000 0.000000 0.000000
0.000000 0.000000 0.000000
0.000000 0.000000 0.000000
0.000000 0.000000 0.000000
0.000000 0.000000 0.000000
0.000000 0.000000 0.000000
0.000000 0.000000 0.000000
0.000000 0.000000 0.000000
0.000000 0.000000 0.000000
0.000000 0.000000 0.000000
0.000000 0.000000 0.000000
0.000000 0.000000 0.000000
0.000000 0.000000 0.000000
0.000000 0.000000 0.000000
0.000000 0.000000 0.000000
0.000000 0.000000 0.000000
0.000000 0.000000 0.000000
0.000000 0.000000 0.000000
0.000000 0.000000 0.000000
0.000000 0.000000 0.000000
0.000000 0.000000 0.000000
0.000000 0.000000 0.000000
0.000000 0.000000 0.000000
0.000000 0.000000 0.000000
0.000000 0.000000 0.000000
0.000000 0.000000 0.000000
0.000000 0.000000 0.000000
0.000000 0.000000 0.000000
0.000000 0.000000 0.000000
0.000000 0.000000 0.000000
0.000000 0.000000 0.000000
0.000000 0.000000 0.000000
