Ti82 Mo1
1.0
6.391540 0.000000 0.000000
0.000000 9.587310 0.000000
0.000000 0.000000 23.271695
Ti Mo
82 1
Selective dynamics
direct
0.631265 0.081951 0.580293 F F F Ti
0.123658 0.082568 0.710327 F F F Ti
0.625133 0.083054 0.709653 F F F Ti
0.124936 0.083307 0.838538 F F F Ti
0.624872 0.083324 0.838487 F F F Ti
0.122752 0.420008 0.580285 F F F Ti
0.625370 0.417158 0.580448 F F F Ti
0.124732 0.416818 0.709571 F F F Ti
0.624403 0.416824 0.709585 F F F Ti
0.124999 0.416655 0.838456 F F F Ti
0.624877 0.416676 0.838464 F F F Ti
0.125054 0.750291 0.580590 F F F Ti
0.625385 0.749696 0.580504 F F F Ti
0.124909 0.749753 0.709633 F F F Ti
0.625326 0.749635 0.709678 F F F Ti
0.124974 0.749914 0.838493 F F F Ti
0.624949 0.749888 0.838511 F F F Ti
0.871443 0.251173 0.645494 F F F Ti
0.374871 0.249959 0.774002 F F F Ti
0.874608 0.250141 0.774108 F F F Ti
0.374980 0.250006 0.902899 F F F Ti
0.874941 0.250017 0.902912 F F F Ti
0.375044 0.583444 0.645074 F F F Ti
0.874594 0.583708 0.645168 F F F Ti
0.374904 0.583279 0.774031 F F F Ti
0.874959 0.583255 0.774058 F F F Ti
0.374967 0.583296 0.902906 F F F Ti
0.874991 0.583289 0.902911 F F F Ti
0.377060 0.914548 0.645485 F F F Ti
0.875169 0.916226 0.645256 F F F Ti
0.375161 0.916430 0.774116 F F F Ti
0.874646 0.916389 0.774131 F F F Ti
0.374991 0.916628 0.902917 F F F Ti
0.874936 0.916631 0.902916 F F F Ti
0.125088 0.166727 0.386663 F F F Ti
0.625299 0.166736 0.386622 F F F Ti
0.125052 0.666847 0.386730 F F F Ti
0.624956 0.666775 0.386688 F F F Ti
0.124993 0.166666 0.000024 F F F Ti
0.624980 0.166666 0.000025 F F F Ti
0.124992 0.666669 0.000020 F F F Ti
0.624976 0.666666 0.000022 F F F Ti
0.124996 0.833335 0.096686 F F F Ti
0.624988 0.833335 0.096687 F F F Ti
0.125186 0.833528 0.483424 F F F Ti
0.625312 0.833240 0.483343 F F F Ti
0.124998 0.333335 0.096683 F F F Ti
0.624986 0.333336 0.096683 F F F Ti
0.124852 0.334019 0.483159 F F F Ti
0.625647 0.333556 0.483274 F F F Ti
0.375209 0.583638 0.483312 F F F Ti
0.874811 0.583694 0.483281 F F F Ti
0.375000 0.583329 0.096685 F F F Ti
0.875010 0.583331 0.096686 F F F Ti
0.374993 0.083338 0.096684 F F F Ti
0.875005 0.083338 0.096684 F F F Ti
0.376489 0.083199 0.482984 F F F Ti
0.875714 0.083461 0.483250 F F F Ti
0.375118 0.416764 0.386658 F F F Ti
0.874971 0.416801 0.386637 F F F Ti
0.375071 0.916635 0.386657 F F F Ti
0.875070 0.916695 0.386697 F F F Ti
0.374981 0.416669 0.000023 F F F Ti
0.874984 0.416671 0.000026 F F F Ti
0.374986 0.916660 0.000035 F F F Ti
0.874979 0.916660 0.000035 F F F Ti
0.375018 0.083346 0.290015 F F F Ti
0.875021 0.083336 0.290016 F F F Ti
0.124996 0.166671 0.193356 F F F Ti
0.625002 0.166669 0.193351 F F F Ti
0.125005 0.333362 0.290018 F F F Ti
0.625014 0.333366 0.290004 F F F Ti
0.374991 0.416679 0.193353 F F F Ti
0.874996 0.416680 0.193352 F F F Ti
0.375000 0.583368 0.290021 F F F Ti
0.875024 0.583378 0.290018 F F F Ti
0.124999 0.666678 0.193362 F F F Ti
0.624991 0.666674 0.193358 F F F Ti
0.124990 0.833349 0.290027 F F F Ti
0.625028 0.833342 0.290016 F F F Ti
0.374992 0.916667 0.193356 F F F Ti
0.874995 0.916667 0.193356 F F F Ti
0.237634 0.155471 0.601791 T T T Mo

0.000000 0.000000 0.000000
0.000000 0.000000 0.000000
0.000000 0.000000 0.000000
0.000000 0.000000 0.000000
0.000000 0.000000 0.000000
0.000000 0.000000 0.000000
0.000000 0.000000 0.000000
0.000000 0.000000 0.000000
0.000000 0.000000 0.000000
0.000000 0.000000 0.000000
0.000000 0.000000 0.000000
0.000000 0.000000 0.000000
0.000000 0.000000 0.000000
0.000000 0.000000 0.000000
0.000000 0.000000 0.000000
0.000000 0.000000 0.000000
0.000000 0.000000 0.000000
0.000000 0.000000 0.000000
0.000000 0.000000 0.000000
0.000000 0.000000 0.000000
0.000000 0.000000 0.000000
0.000000 0.000000 0.000000
0.000000 0.000000 0.000000
0.000000 0.000000 0.000000
0.000000 0.000000 0.000000
0.000000 0.000000 0.000000
0.000000 0.000000 0.000000
0.000000 0.000000 0.000000
0.000000 0.000000 0.000000
0.000000 0.000000 0.000000
0.000000 0.000000 0.000000
0.000000 0.000000 0.000000
0.000000 0.000000 0.000000
0.000000 0.000000 0.000000
0.000000 0.000000 0.000000
0.000000 0.000000 0.000000
0.000000 0.000000 0.000000
0.000000 0.000000 0.000000
0.000000 0.000000 0.000000
0.000000 0.000000 0.000000
0.000000 0.000000 0.000000
0.000000 0.000000 0.000000
0.000000 0.000000 0.000000
0.000000 0.000000 0.000000
0.000000 0.000000 0.000000
0.000000 0.000000 0.000000
0.000000 0.000000 0.000000
0.000000 0.000000 0.000000
0.000000 0.000000 0.000000
0.000000 0.000000 0.000000
0.000000 0.000000 0.000000
0.000000 0.000000 0.000000
0.000000 0.000000 0.000000
0.000000 0.000000 0.000000
0.000000 0.000000 0.000000
0.000000 0.000000 0.000000
0.000000 0.000000 0.000000
0.000000 0.000000 0.000000
0.000000 0.000000 0.000000
0.000000 0.000000 0.000000
0.000000 0.000000 0.000000
0.000000 0.000000 0.000000
0.000000 0.000000 0.000000
0.000000 0.000000 0.000000
0.000000 0.000000 0.000000
0.000000 0.000000 0.000000
0.000000 0.000000 0.000000
0.000000 0.000000 0.000000
0.000000 0.000000 0.000000
0.000000 0.000000 0.000000
0.000000 0.000000 0.000000
0.000000 0.000000 0.000000
0.000000 0.000000 0.000000
0.000000 0.000000 0.000000
0.000000 0.000000 0.000000
0.000000 0.000000 0.000000
0.000000 0.000000 0.000000
0.000000 0.000000 0.000000
0.000000 0.000000 0.000000
0.000000 0.000000 0.000000
0.000000 0.000000 0.000000
0.000000 0.000000 0.000000
0.000000 0.000000 0.000000
