Ti96 Cr1
1.0
9.513020 0.000000 0.000000
0.000000 9.350860 0.000000
0.000000 0.000000 18.547230
Ti Cr
96 1
Selective dynamics
direct
0.142004 0.379148 0.405435 T T T Ti
0.646605 0.360971 0.407067 T T T Ti
0.167241 0.884836 0.403467 T T T Ti
0.640359 0.932114 0.414089 T T T Ti
0.159913 0.380667 0.237096 T T T Ti
0.659490 0.376014 0.231798 T T T Ti
0.162461 0.876136 0.237988 T T T Ti
0.656568 0.883370 0.235099 T T T Ti
0.166645 0.375004 0.077532 F F F Ti
0.666704 0.375018 0.077627 F F F Ti
0.166664 0.874989 0.077547 F F F Ti
0.666683 0.874967 0.077734 F F F Ti
0.397913 0.364260 0.319762 T T T Ti
0.905413 0.363712 0.313696 T T T Ti
0.417311 0.861081 0.323975 T T T Ti
0.918201 0.900545 0.323173 T T T Ti
0.416699 0.375006 0.155126 F F F Ti
0.916697 0.374978 0.155203 F F F Ti
0.416792 0.875050 0.155227 F F F Ti
0.916531 0.874896 0.155332 F F F Ti
0.416692 0.375011 -0.000055 F F F Ti
0.916627 0.375013 -0.000014 F F F Ti
0.416714 0.874991 -0.000019 F F F Ti
0.916603 0.874975 0.000022 F F F Ti
0.102088 0.135741 0.319761 T T T Ti
0.594587 0.136289 0.313695 T T T Ti
0.082689 0.638920 0.323974 T T T Ti
0.581799 0.599456 0.323172 T T T Ti
0.083305 0.125011 0.155127 F F F Ti
0.583300 0.125036 0.155202 F F F Ti
0.083211 0.624963 0.155228 F F F Ti
0.583468 0.625113 0.155331 F F F Ti
0.083311 0.124994 -0.000055 F F F Ti
0.583369 0.124991 -0.000013 F F F Ti
0.083287 0.625011 -0.000021 F F F Ti
0.583394 0.625026 0.000020 F F F Ti
0.357995 0.120852 0.405435 T T T Ti
0.853394 0.139029 0.407067 T T T Ti
0.332758 0.615164 0.403467 T T T Ti
0.859639 0.567886 0.414089 T T T Ti
0.340087 0.119336 0.237096 T T T Ti
0.840509 0.123989 0.231798 T T T Ti
0.337539 0.623867 0.237988 T T T Ti
0.843431 0.616632 0.235099 T T T Ti
0.333354 0.125009 0.077533 F F F Ti
0.833296 0.124991 0.077628 F F F Ti
0.333334 0.625024 0.077547 F F F Ti
0.833316 0.625039 0.077733 F F F Ti
0.374950 0.375039 0.823825 F F F Ti
0.874992 0.375029 0.823846 F F F Ti
0.375022 0.874956 0.823823 F F F Ti
0.875005 0.874939 0.823762 F F F Ti
0.125049 0.124954 0.823825 F F F Ti
0.625008 0.124964 0.823848 F F F Ti
0.124981 0.625035 0.823821 F F F Ti
0.625000 0.625055 0.823761 F F F Ti
0.124937 0.375042 0.910124 F F F Ti
0.625044 0.375079 0.910153 F F F Ti
0.124919 0.874961 0.910137 F F F Ti
0.625070 0.874939 0.910177 F F F Ti
0.375066 0.124953 0.910126 F F F Ti
0.874958 0.124913 0.910155 F F F Ti
0.375083 0.625029 0.910136 F F F Ti
0.874931 0.625051 0.910175 F F F Ti
0.397349 0.366628 0.649176 T T T Ti
0.895616 0.367195 0.657439 T T T Ti
0.393795 0.865560 0.656445 T T T Ti
0.897917 0.864911 0.652908 T T T Ti
0.102650 0.133370 0.649176 T T T Ti
0.604383 0.132802 0.657439 T T T Ti
0.106204 0.634437 0.656444 T T T Ti
0.602082 0.635087 0.652908 T T T Ti
0.152127 0.388836 0.572499 T T T Ti
0.653852 0.389885 0.574885 T T T Ti
0.151175 0.878848 0.572323 T T T Ti
0.645072 0.883359 0.575801 T T T Ti
0.347872 0.111163 0.572499 T T T Ti
0.846147 0.110114 0.574885 T T T Ti
0.348825 0.621151 0.572323 T T T Ti
0.854928 0.616641 0.575801 T T T Ti
0.395825 0.368796 0.490988 T T T Ti
0.906877 0.354540 0.499654 T T T Ti
0.404037 0.860670 0.488381 T T T Ti
0.907140 0.873686 0.480553 T T T Ti
0.104175 0.131204 0.490988 T T T Ti
0.593123 0.145460 0.499654 T T T Ti
0.095963 0.639329 0.488381 T T T Ti
0.592860 0.626314 0.480553 T T T Ti
0.125028 0.875022 0.737532 F F F Ti
0.625037 0.874904 0.737516 F F F Ti
0.374970 0.624966 0.737532 F F F Ti
0.874960 0.625088 0.737514 F F F Ti
0.125035 0.375029 0.737563 F F F Ti
0.624790 0.375275 0.737598 F F F Ti
0.374962 0.124959 0.737564 F F F Ti
0.875204 0.124710 0.737601 F F F Ti
0.750000 0.750000 0.372420 T T T Cr

0.000000 0.000000 0.000000
0.000000 0.000000 0.000000
0.000000 0.000000 0.000000
0.000000 0.000000 0.000000
0.000000 0.000000 0.000000
0.000000 0.000000 0.000000
0.000000 0.000000 0.000000
0.000000 0.000000 0.000000
0.000000 0.000000 0.000000
0.000000 0.000000 0.000000
0.000000 0.000000 0.000000
0.000000 0.000000 0.000000
0.000000 0.000000 0.000000
0.000000 0.000000 0.000000
0.000000 0.000000 0.000000
0.000000 0.000000 0.000000
0.000000 0.000000 0.000000
0.000000 0.000000 0.000000
0.000000 0.000000 0.000000
0.000000 0.000000 0.000000
0.000000 0.000000 0.000000
0.000000 0.000000 0.000000
0.000000 0.000000 0.000000
0.000000 0.000000 0.000000
0.000000 0.000000 0.000000
0.000000 0.000000 0.000000
0.000000 0.000000 0.000000
0.000000 0.000000 0.000000
0.000000 0.000000 0.000000
0.000000 0.000000 0.000000
0.000000 0.000000 0.000000
0.000000 0.000000 0.000000
0.000000 0.000000 0.000000
0.000000 0.000000 0.000000
0.000000 0.000000 0.000000
0.000000 0.000000 0.000000
0.000000 0.000000 0.000000
0.000000 0.000000 0.000000
0.000000 0.000000 0.000000
0.000000 0.000000 0.000000
0.000000 0.000000 0.000000
0.000000 0.000000 0.000000
0.000000 0.000000 0.000000
0.000000 0.000000 0.000000
0.000000 0.000000 0.000000
0.000000 0.000000 0.000000
0.000000 0.000000 0.000000
0.000000 0.000000 0.000000
0.000000 0.000000 0.000000
0.000000 0.000000 0.000000
0.000000 0.000000 0.000000
0.000000 0.000000 0.000000
0.000000 0.000000 0.000000
0.000000 0.000000 0.000000
0.000000 0.000000 0.000000
0.000000 0.000000 0.000000
0.000000 0.000000 0.000000
0.000000 0.000000 0.000000
0.000000 0.000000 0.000000
0.000000 0.000000 0.000000
0.000000 0.000000 0.000000
0.000000 0.000000 0.000000
0.000000 0.000000 0.000000
0.000000 0.000000 0.000000
0.000000 0.000000 0.000000
0.000000 0.000000 0.000000
0.000000 0.000000 0.000000
0.000000 0.000000 0.000000
0.000000 0.000000 0.000000
0.000000 0.000000 0.000000
0.000000 0.000000 0.000000
0.000000 0.000000 0.000000
0.000000 0.000000 0.000000
0.000000 0.000000 0.000000
0.000000 0.000000 0.000000
0.000000 0.000000 0.000000
0.000000 0.000000 0.000000
0.000000 0.000000 0.000000
0.000000 0.000000 0.000000
0.000000 0.000000 0.000000
0.000000 0.000000 0.000000
0.000000 0.000000 0.000000
0.000000 0.000000 0.000000
0.000000 0.000000 0.000000
0.000000 0.000000 0.000000
0.000000 0.000000 0.000000
0.000000 0.000000 0.000000
0.000000 0.000000 0.000000
0.000000 0.000000 0.000000
0.000000 0.000000 0.000000
0.000000 0.000000 0.000000
0.000000 0.000000 0.000000
0.000000 0.000000 0.000000
0.000000 0.000000 0.000000
0.000000 0.000000 0.000000
0.000000 0.000000 0.000000
0.000000 0.000000 0.000000
