Ti72
1.0
8.805261 0.000000 0.000000
-4.402630 7.625579 0.000000
0.000000 0.000000 18.188801
Ti
72
direct
0.000000 0.000000 0.486119 Ti
1.000000 0.500000 0.486119 Ti
0.500000 0.000000 0.486119 Ti
0.500000 0.500000 0.486119 Ti
0.166667 0.333333 0.841956 Ti
0.166667 0.833333 0.841956 Ti
0.666667 0.333333 0.841956 Ti
0.666667 0.833333 0.841956 Ti
0.333333 0.166667 0.892790 Ti
0.333333 0.666667 0.892790 Ti
0.833333 0.166667 0.892790 Ti
0.833333 0.666667 0.892790 Ti
0.166667 0.333333 0.536953 Ti
0.166667 0.833333 0.536953 Ti
0.666667 0.333333 0.536953 Ti
0.666667 0.833333 0.536953 Ti
0.333333 0.166667 0.587787 Ti
0.333333 0.666667 0.587787 Ti
0.833333 0.166667 0.587787 Ti
0.833333 0.666667 0.587787 Ti
0.000000 0.000000 0.638621 Ti
1.000000 0.500000 0.638621 Ti
0.500000 0.000000 0.638621 Ti
0.500000 0.500000 0.638621 Ti
0.166667 0.333333 0.689455 Ti
0.166667 0.833333 0.689455 Ti
0.666667 0.333333 0.689455 Ti
0.666667 0.833333 0.689455 Ti
0.333333 0.166667 0.740289 Ti
0.333333 0.666667 0.740289 Ti
0.833333 0.166667 0.740289 Ti
0.833333 0.666667 0.740289 Ti
0.000000 0.000000 0.791123 Ti
1.000000 0.500000 0.791123 Ti
0.500000 0.000000 0.791123 Ti
0.500000 0.500000 0.791123 Ti
0.111111 0.888889 -0.000000 Ti
0.111111 0.888889 0.252607 Ti
0.111111 0.555556 -0.000000 Ti
0.222222 0.777778 0.126304 Ti
0.111111 0.555556 0.252607 Ti
0.444444 0.888889 -0.000000 Ti
0.111111 0.222222 -0.000000 Ti
0.222222 0.777778 0.378911 Ti
0.222222 0.444444 0.126304 Ti
0.444444 0.888889 0.252607 Ti
0.111111 0.222222 0.252607 Ti
0.444444 0.555556 -0.000000 Ti
0.222222 0.444444 0.378911 Ti
0.555556 0.777778 0.126304 Ti
0.222222 0.111111 0.126304 Ti
0.444444 0.555556 0.252607 Ti
0.777778 0.888889 -0.000000 Ti
0.444444 0.222222 -0.000000 Ti
0.555556 0.777778 0.378911 Ti
0.222222 0.111111 0.378911 Ti
0.555556 0.444444 0.126304 Ti
0.777778 0.888889 0.252607 Ti
0.444444 0.222222 0.252607 Ti
0.777778 0.555556 -0.000000 Ti
0.555556 0.444444 0.378911 Ti
0.888889 0.777778 0.126304 Ti
0.555556 0.111111 0.126304 Ti
0.777778 0.555556 0.252607 Ti
0.777778 0.222222 -0.000000 Ti
0.888889 0.777778 0.378911 Ti
0.555556 0.111111 0.378911 Ti
0.888889 0.444444 0.126304 Ti
0.777778 0.222222 0.252607 Ti
0.888889 0.444444 0.378911 Ti
0.888889 0.111111 0.126304 Ti
0.888889 0.111111 0.378911 Ti

0.000000 0.000000 0.000000
0.000000 0.000000 0.000000
0.000000 0.000000 0.000000
0.000000 0.000000 0.000000
0.000000 0.000000 0.000000
0.000000 0.000000 0.000000
0.000000 0.000000 0.000000
0.000000 0.000000 0.000000
0.000000 0.000000 0.000000
0.000000 0.000000 0.000000
0.000000 0.000000 0.000000
0.000000 0.000000 0.000000
0.000000 0.000000 0.000000
0.000000 0.000000 0.000000
0.000000 0.000000 0.000000
0.000000 0.000000 0.000000
0.000000 0.000000 0.000000
0.000000 0.000000 0.000000
0.000000 0.000000 0.000000
0.000000 0.000000 0.000000
0.000000 0.000000 0.000000
0.000000 0.000000 0.000000
0.000000 0.000000 0.000000
0.000000 0.000000 0.000000
0.000000 0.000000 0.000000
0.000000 0.000000 0.000000
0.000000 0.000000 0.000000
0.000000 0.000000 0.000000
0.000000 0.000000 0.000000
0.000000 0.000000 0.000000
0.000000 0.000000 0.000000
0.000000 0.000000 0.000000
0.000000 0.000000 0.000000
0.000000 0.000000 0.000000
0.000000 0.000000 0.000000
0.000000 0.000000 0.000000
0.000000 0.000000 0.000000
0.000000 0.000000 0.000000
0.000000 0.000000 0.000000
0.000000 0.000000 0.000000
0.000000 0.000000 0.000000
0.000000 0.000000 0.000000
0.000000 0.000000 0.000000
0.000000 0.000000 0.000000
0.000000 0.000000 0.000000
0.000000 0.000000 0.000000
0.000000 0.000000 0.000000
0.000000 0.000000 0.000000
0.000000 0.000000 0.000000
0.000000 0.000000 0.000000
0.000000 0.000000 0.000000
0.000000 0.000000 0.000000
0.000000 0.000000 0.000000
0.000000 0.000000 0.000000
0.000000 0.000000 0.000000
0.000000 0.000000 0.000000
0.000000 0.000000 0.000000
0.000000 0.000000 0.000000
0.000000 0.000000 0.000000
0.000000 0.000000 0.000000
0.000000 0.000000 0.000000
0.000000 0.000000 0.000000
0.000000 0.000000 0.000000
0.000000 0.000000 0.000000
0.000000 0.000000 0.000000
0.000000 0.000000 0.000000
0.000000 0.000000 0.000000
0.000000 0.000000 0.000000
0.000000 0.000000 0.000000
0.000000 0.000000 0.000000
0.000000 0.000000 0.000000
0.000000 0.000000 0.000000
