Ti36
1.0
8.805261 0.000000 0.000000
-4.402630 7.625579 0.000000
0.000000 0.000000 18.188801
Ti
36
direct
0.000000 0.000000 0.486119 Ti
1.000000 0.500000 0.486119 Ti
0.500000 0.000000 0.486119 Ti
0.500000 0.500000 0.486119 Ti
0.166667 0.333333 0.841956 Ti
0.166667 0.833333 0.841956 Ti
0.666667 0.333333 0.841956 Ti
0.666667 0.833333 0.841956 Ti
0.333333 0.166667 0.892790 Ti
0.333333 0.666667 0.892790 Ti
0.833333 0.166667 0.892790 Ti
0.833333 0.666667 0.892790 Ti
0.166667 0.333333 0.536953 Ti
0.166667 0.833333 0.536953 Ti
0.666667 0.333333 0.536953 Ti
0.666667 0.833333 0.536953 Ti
0.333333 0.166667 0.587787 Ti
0.333333 0.666667 0.587787 Ti
0.833333 0.166667 0.587787 Ti
0.833333 0.666667 0.587787 Ti
0.000000 0.000000 0.638621 Ti
1.000000 0.500000 0.638621 Ti
0.500000 0.000000 0.638621 Ti
0.500000 0.500000 0.638621 Ti
0.166667 0.333333 0.689455 Ti
0.166667 0.833333 0.689455 Ti
0.666667 0.333333 0.689455 Ti
0.666667 0.833333 0.689455 Ti
0.333333 0.166667 0.740289 Ti
0.333333 0.666667 0.740289 Ti
0.833333 0.166667 0.740289 Ti
0.833333 0.666667 0.740289 Ti
0.000000 0.000000 0.791123 Ti
1.000000 0.500000 0.791123 Ti
0.500000 0.000000 0.791123 Ti
0.500000 0.500000 0.791123 Ti

0.000000 0.000000 0.000000
0.000000 0.000000 0.000000
0.000000 0.000000 0.000000
0.000000 0.000000 0.000000
0.000000 0.000000 0.000000
0.000000 0.000000 0.000000
0.000000 0.000000 0.000000
0.000000 0.000000 0.000000
0.000000 0.000000 0.000000
0.000000 0.000000 0.000000
0.000000 0.000000 0.000000
0.000000 0.000000 0.000000
0.000000 0.000000 0.000000
0.000000 0.000000 0.000000
0.000000 0.000000 0.000000
0.000000 0.000000 0.000000
0.000000 0.000000 0.000000
0.000000 0.000000 0.000000
0.000000 0.000000 0.000000
0.000000 0.000000 0.000000
0.000000 0.000000 0.000000
0.000000 0.000000 0.000000
0.000000 0.000000 0.000000
0.000000 0.000000 0.000000
0.000000 0.000000 0.000000
0.000000 0.000000 0.000000
0.000000 0.000000 0.000000
0.000000 0.000000 0.000000
0.000000 0.000000 0.000000
0.000000 0.000000 0.000000
0.000000 0.000000 0.000000
0.000000 0.000000 0.000000
0.000000 0.000000 0.000000
0.000000 0.000000 0.000000
0.000000 0.000000 0.000000
0.000000 0.000000 0.000000
