Ti66 Sn1
1.0
6.309760 0.000000 0.000000
0.000000 9.464640 0.000000
0.000000 0.000000 18.918326
Ti Sn
66 1
Selective dynamics
direct
0.108850 0.034749 0.498471 F F F Ti
0.640027 0.033870 0.497849 F F F Ti
0.123564 0.042301 0.658139 F F F Ti
0.624912 0.041933 0.658603 F F F Ti
0.125067 0.042296 0.816982 F F F Ti
0.624723 0.042301 0.817053 F F F Ti
0.100301 0.386674 0.498578 F F F Ti
0.655485 0.392885 0.497897 F F F Ti
0.123825 0.376134 0.658144 F F F Ti
0.626310 0.377312 0.658997 F F F Ti
0.125117 0.375125 0.816924 F F F Ti
0.624779 0.375187 0.817112 F F F Ti
0.123704 0.709721 0.499787 F F F Ti
0.623377 0.710801 0.499728 F F F Ti
0.125786 0.709658 0.659159 F F F Ti
0.623229 0.709914 0.659378 F F F Ti
0.125219 0.708779 0.817366 F F F Ti
0.624642 0.708819 0.817406 F F F Ti
0.868939 0.209147 0.579171 F F F Ti
0.374683 0.209038 0.737098 F F F Ti
0.874748 0.208862 0.737675 F F F Ti
0.374927 0.208572 0.896148 F F F Ti
0.875053 0.208575 0.896265 F F F Ti
0.374563 0.544883 0.579093 F F F Ti
0.874460 0.547170 0.581404 F F F Ti
0.374711 0.542106 0.737918 F F F Ti
0.875278 0.542551 0.738444 F F F Ti
0.374966 0.541657 0.896334 F F F Ti
0.875064 0.541682 0.896425 F F F Ti
0.374227 0.875583 0.578982 F F F Ti
0.873524 0.873565 0.580308 F F F Ti
0.374499 0.876078 0.737918 F F F Ti
0.874979 0.875673 0.738223 F F F Ti
0.374980 0.875452 0.896380 F F F Ti
0.874994 0.875407 0.896444 F F F Ti
0.125383 0.624931 0.356174 F F F Ti
0.623788 0.625660 0.355833 F F F Ti
0.125118 0.624981 0.118573 F F F Ti
0.624826 0.625000 0.118546 F F F Ti
0.123988 0.124525 0.356128 F F F Ti
0.627379 0.124050 0.355442 F F F Ti
0.125228 0.124995 0.118576 F F F Ti
0.624851 0.124976 0.118546 F F F Ti
0.125120 0.374957 0.039506 F F F Ti
0.624811 0.374973 0.039495 F F F Ti
0.125081 0.875148 0.039459 F F F Ti
0.624801 0.875131 0.039447 F F F Ti
0.126137 0.374815 0.276961 F F F Ti
0.623923 0.375018 0.276610 F F F Ti
0.125050 0.874808 0.276813 F F F Ti
0.624761 0.874618 0.276653 F F F Ti
0.374978 0.874970 0.158152 F F F Ti
0.875064 0.874900 0.158067 F F F Ti
0.374982 0.374902 0.158199 F F F Ti
0.875176 0.374986 0.158141 F F F Ti
0.874199 0.375183 0.393190 F F F Ti
0.374427 0.874483 0.395665 F F F Ti
0.875533 0.872305 0.394861 F F F Ti
0.374807 0.624918 0.237329 F F F Ti
0.875092 0.624897 0.237176 F F F Ti
0.374939 0.624971 -0.000235 F F F Ti
0.874864 0.625017 -0.000173 F F F Ti
0.375007 0.124837 0.237494 F F F Ti
0.875424 0.124821 0.237064 F F F Ti
0.374987 0.125167 -0.000352 F F F Ti
0.874835 0.125125 -0.000269 F F F Ti
0.386928 0.235019 0.530076 T T T Sn

0.000000 0.000000 0.000000
0.000000 0.000000 0.000000
0.000000 0.000000 0.000000
0.000000 0.000000 0.000000
0.000000 0.000000 0.000000
0.000000 0.000000 0.000000
0.000000 0.000000 0.000000
0.000000 0.000000 0.000000
0.000000 0.000000 0.000000
0.000000 0.000000 0.000000
0.000000 0.000000 0.000000
0.000000 0.000000 0.000000
0.000000 0.000000 0.000000
0.000000 0.000000 0.000000
0.000000 0.000000 0.000000
0.000000 0.000000 0.000000
0.000000 0.000000 0.000000
0.000000 0.000000 0.000000
0.000000 0.000000 0.000000
0.000000 0.000000 0.000000
0.000000 0.000000 0.000000
0.000000 0.000000 0.000000
0.000000 0.000000 0.000000
0.000000 0.000000 0.000000
0.000000 0.000000 0.000000
0.000000 0.000000 0.000000
0.000000 0.000000 0.000000
0.000000 0.000000 0.000000
0.000000 0.000000 0.000000
0.000000 0.000000 0.000000
0.000000 0.000000 0.000000
0.000000 0.000000 0.000000
0.000000 0.000000 0.000000
0.000000 0.000000 0.000000
0.000000 0.000000 0.000000
0.000000 0.000000 0.000000
0.000000 0.000000 0.000000
0.000000 0.000000 0.000000
0.000000 0.000000 0.000000
0.000000 0.000000 0.000000
0.000000 0.000000 0.000000
0.000000 0.000000 0.000000
0.000000 0.000000 0.000000
0.000000 0.000000 0.000000
0.000000 0.000000 0.000000
0.000000 0.000000 0.000000
0.000000 0.000000 0.000000
0.000000 0.000000 0.000000
0.000000 0.000000 0.000000
0.000000 0.000000 0.000000
0.000000 0.000000 0.000000
0.000000 0.000000 0.000000
0.000000 0.000000 0.000000
0.000000 0.000000 0.000000
0.000000 0.000000 0.000000
0.000000 0.000000 0.000000
0.000000 0.000000 0.000000
0.000000 0.000000 0.000000
0.000000 0.000000 0.000000
0.000000 0.000000 0.000000
0.000000 0.000000 0.000000
0.000000 0.000000 0.000000
0.000000 0.000000 0.000000
0.000000 0.000000 0.000000
0.000000 0.000000 0.000000
0.000000 0.000000 0.000000
0.000000 0.000000 0.000000
