alpha_Ti
1.0
8.805261 0.000000 0.000000
-4.402630 7.625580 0.000000
0.000000 0.000000 18.688801
Ti
36
direct
0.138888 0.861107 -0.000000 Ti
0.138888 0.861107 0.245849 Ti
0.138888 0.527774 -0.000000 Ti
0.249999 0.749996 0.122924 Ti
0.138888 0.527774 0.245849 Ti
0.472221 0.861107 -0.000000 Ti
0.138888 0.194441 -0.000000 Ti
0.249999 0.749996 0.368773 Ti
0.250000 0.416663 0.122924 Ti
0.472221 0.861107 0.245849 Ti
0.138888 0.194441 0.245849 Ti
0.472221 0.527774 -0.000000 Ti
0.250000 0.416663 0.368773 Ti
0.583333 0.749996 0.122924 Ti
0.250000 0.083330 0.122924 Ti
0.472221 0.527774 0.245849 Ti
0.805555 0.861107 -0.000000 Ti
0.472222 0.194441 -0.000000 Ti
0.583333 0.749996 0.368773 Ti
0.250000 0.083330 0.368773 Ti
0.583333 0.416663 0.122924 Ti
0.805555 0.861107 0.245849 Ti
0.472222 0.194441 0.245849 Ti
0.805555 0.527774 -0.000000 Ti
0.583333 0.416663 0.368773 Ti
0.916666 0.749996 0.122924 Ti
0.583333 0.083330 0.122924 Ti
0.805555 0.527774 0.245849 Ti
0.805555 0.194441 -0.000000 Ti
0.916666 0.749996 0.368773 Ti
0.583333 0.083330 0.368773 Ti
0.916666 0.416663 0.122924 Ti
0.805555 0.194441 0.245849 Ti
0.916666 0.416663 0.368773 Ti
0.916666 0.083330 0.122924 Ti
0.916666 0.083330 0.368773 Ti
