total_structure
1.0
   3.5062000000000002    0.0000000000000000    0.0000000000000002
   0.0000000000000019   12.0001999999999995    0.0000000000000007
   0.0000000000000000    0.0000000000000000   29.8249410620000006
Cr Fe N
24 36 24
Selective dynamics
direct
   0.1440500000000000    0.0017200000000000    0.3946521810900335 T T T Cr
   0.6440500000000000    0.3767200000000000    0.3189171359711034 T T T Cr
   0.6440500000000000    0.1267200000000000    0.3189171359711034 T T T Cr
   0.1440500000000000    0.2517200000000000    0.3946521810900335 T T T Cr
   0.1440500000000000    0.0017200000000000    0.2431820908521734 T T T Cr
   0.6440500000000000    0.3767200000000000    0.1674567640760020 F F F Cr
   0.6440500000000000    0.1267200000000000    0.1674567640760020 F F F Cr
   0.1440500000000000    0.2517200000000000    0.2431820908521734 T T T Cr
   0.1440500000000000    0.5017199999999999    0.3946521810900335 T T T Cr
   0.6440500000000000    0.8767200000000001    0.3189171359711034 T T T Cr
   0.6440500000000000    0.6267199999999999    0.3189171359711034 T T T Cr
   0.1440500000000000    0.7517199999999999    0.3946521810900335 T T T Cr
   0.1440500000000000    0.5017199999999999    0.2431820908521734 T T T Cr
   0.6440500000000000    0.8767200000000001    0.1674567640760020 F F F Cr
   0.6440500000000000    0.6267199999999999    0.1674567640760020 F F F Cr
   0.1440500000000000    0.7517199999999999    0.2431820908521734 T T T Cr
   0.1275900000000000    0.0033700000000000    0.0918383390701770 F F F Cr
   0.6275900000000000    0.3783700000000000    0.0161032939512469 F F F Cr
   0.6275900000000000    0.1283700000000000    0.0161032939512469 F F F Cr
   0.1275900000000000    0.2533700000000000    0.0918383390701770 F F F Cr
   0.1275900000000000    0.5033700000000000    0.0918383390701770 F F F Cr
   0.6275900000000000    0.8783700000000000    0.0161032939512469 F F F Cr
   0.6275900000000000    0.6283700000000000    0.0161032939512469 F F F Cr
   0.1275900000000000    0.7533699999999999    0.0918383390701770 F F F Cr
   0.1373800000000000    0.7201700000000000    0.8060413152208898 F F F Fe
   0.6373799999999998    0.5560300000000000    0.7934852163765862 F F F Fe
   0.6373799999999998    0.7408799999999999    0.7550880441367694 F F F Fe
   0.1373800000000000    0.5767400000000000    0.7425416636352246 F F F Fe
   0.1373800000000000    0.3919000000000000    0.7809388358750414 F F F Fe
   0.6373799999999999    0.2277600000000000    0.7683827370307379 F F F Fe
   0.6373799999999999    0.4126100000000000    0.7299855647909210 F F F Fe
   0.1373800000000000    0.2484800000000000    0.7174391842893763 F F F Fe
   0.1373800000000000    0.0636300000000000    0.7558363565291930 F F F Fe
   0.6373799999999999    0.8994900000000000    0.7432802576848896 F F F Fe
   0.6373799999999999    0.0843400000000000    0.7048830854450726 F F F Fe
   0.1373800000000000    0.9202099999999999    0.6923367049435278 F F F Fe
   0.1373800000000000    0.7615900000000000    0.7041347730526489 F F F Fe
   0.6373799999999999    0.5974600000000000    0.6915883925511042 F F F Fe
   0.6373799999999998    0.7823099999999999    0.6531912203112873 F F F Fe
   0.1373800000000000    0.6181700000000000    0.6406351214669838 F F F Fe
   0.1373800000000000    0.4333199999999999    0.6790322937068006 F F F Fe
   0.6373799999999999    0.2691900000000000    0.6664859132052557 F F F Fe
   0.6373799999999999    0.4540399999999999    0.6280887409654390 F F F Fe
   0.1373800000000000    0.2899000000000000    0.6155326421211353 F F F Fe
   0.1373800000000000    0.1050500000000000    0.6539298143609522 F F F Fe
   0.6373799999999998    0.9409200000000000    0.6413834338594074 F F F Fe
   0.6373799999999999    0.1257700000000000    0.6029862616195906 F F F Fe
   0.1373800000000000    0.9616299999999999    0.5904301627752869 T T T Fe
   0.1373800000000000    0.8030199999999998    0.6022379492271669 F F F Fe
   0.6373799999999999    0.6388900000000000    0.5896818503828634 T T T Fe
   0.6373799999999999    0.8237400000000000    0.5512846781430465 T T T Fe
   0.1373800000000000    0.6595999999999999    0.5387382976415016 T T T Fe
   0.1373800000000000    0.4747499999999999    0.5771354698813186 T T T Fe
   0.6373799999999998    0.3106200000000000    0.5645793710370149 T T T Fe
   0.6373799999999999    0.4954700000000000    0.5261821987971981 T T T Fe
   0.1373800000000000    0.3313300000000000    0.5136358182956533 T T T Fe
   0.1373800000000000    0.1464800000000000    0.5520329905354702 T T T Fe
   0.6373799999999998    0.9823499999999998    0.5394768916911665 T T T Fe
   0.6373799999999999    0.1672000000000000    0.5010797194513498 T T T Fe
   0.1373800000000000    0.0030600000000000    0.4885333389498049 T T T Fe
   0.6440500000000000    0.3767200000000000    0.3946521810900335 T T T N
   0.1440500000000000    0.0017200000000000    0.3189171359711034 T T T N
   0.1440500000000000    0.2517200000000000    0.3189171359711034 T T T N
   0.6440500000000000    0.1267200000000000    0.3946521810900335 T T T N
   0.6440500000000000    0.3767200000000000    0.2431820908521733 T T T N
   0.1440500000000000    0.0017200000000000    0.1674567640760020 F F F N
   0.1440500000000000    0.2517200000000000    0.1674567640760020 F F F N
   0.6440500000000000    0.1267200000000000    0.2431820908521734 T T T N
   0.6440500000000000    0.8767200000000001    0.3946521810900335 T T T N
   0.1440500000000000    0.5017199999999999    0.3189171359711034 T T T N
   0.1440500000000000    0.7517199999999999    0.3189171359711034 T T T N
   0.6440500000000000    0.6267199999999999    0.3946521810900335 T T T N
   0.6440500000000000    0.8767200000000001    0.2431820908521734 T T T N
   0.1440500000000000    0.5017199999999999    0.1674567640760020 F F F N
   0.1440500000000000    0.7517199999999999    0.1674567640760020 F F F N
   0.6440500000000000    0.6267199999999999    0.2431820908521734 T T T N
   0.6275900000000000    0.3783700000000000    0.0918383390701770 F F F N
   0.1275900000000000    0.0033700000000000    0.0161032939512469 F F F N
   0.1275900000000000    0.2533700000000000    0.0161032939512469 F F F N
   0.6275900000000000    0.1283700000000000    0.0918383390701770 F F F N
   0.6275900000000000    0.8783700000000000    0.0918383390701770 F F F N
   0.1275900000000000    0.5033700000000000    0.0161032939512469 F F F N
   0.1275900000000000    0.7533699999999999    0.0161032939512469 F F F N
   0.6275900000000000    0.6283700000000000    0.0918383390701770 F F F N
