substance_top
1.0
   3.0750000000000002    0.0000000000000000    0.0000000000000002
   0.0000000000000026   16.0000000000000000    0.0000000000000010
   0.0000000000000000    0.0000000000000000   53.5109925000000004
Fe W
54 6
Selective dynamics
direct
   0.3530400000000000    0.0286600000000000    0.3699516786200518 T T T Fe
   0.3478800000000001    0.1409000000000000    0.4157747868346864 T T T Fe
   0.3467900000000000    0.0900100000000000    0.4930721570899662 F F F Fe
   0.3427100000000000    0.2531300000000000    0.4616076033349596 T T T Fe
   0.3457200000000000    0.0391300000000000    0.5703598190596073 F F F Fe
   0.3416299999999999    0.2022400000000000    0.5389049735902395 F F F Fe
   0.3375500000000000    0.3653700000000000    0.5074404198352330 F F F Fe
   0.3489500000000000    0.1917800000000000    0.3384871248650453 T T T Fe
   0.3437799999999999    0.3040200000000000    0.3843199413653186 T T T Fe
   0.3396900000000000    0.4671400000000000    0.3528650958959507 T T T Fe
   0.3386200000000000    0.4162500000000000    0.4301430495799532 T T T Fe
   0.3345300000000000    0.5793800000000000    0.3986882041105854 T T T Fe
   0.3304300000000000    0.7425000000000000    0.3672333586412176 T T T Fe
   0.3334500000000000    0.5284799999999999    0.4759855743658651 F F F Fe
   0.3293600000000000    0.6916099999999999    0.4445210206108587 T T T Fe
   0.3252700000000000    0.8547400000000001    0.4130564668558521 T T T Fe
   0.3405600000000000    0.1513600000000000    0.6161926355598805 F F F Fe
   0.3364600000000000    0.3144800000000000    0.5847280818048741 F F F Fe
   0.3323800000000000    0.4776000000000000    0.5532732363355063 F F F Fe
   0.3272200000000001    0.5898400000000000    0.5991060528357796 F F F Fe
   0.3282900000000000    0.6407200000000000    0.5218086825804997 F F F Fe
   0.3242000000000000    0.8038500000000000    0.4903538371111320 F F F Fe
   0.3200999999999999    0.9669700000000000    0.4588892833561254 T T T Fe
   0.3231200000000000    0.7529500000000000    0.5676414990807730 F F F Fe
   0.3190300000000000    0.9160800000000000    0.5361866536114053 F F F Fe
   0.3179600000000000    0.8652000000000000    0.6134743155810463 F F F Fe
   0.8304500000000001    0.1161200000000000    0.4544817216761584 T T T Fe
   0.8293800000000001    0.0652400000000000    0.5317693836457996 F F F Fe
   0.8252899999999999    0.2283500000000000    0.5003145381764317 F F F Fe
   0.8366900000000000    0.0547800000000000    0.3313612432062440 T T T Fe
   0.8315300000000000    0.1670100000000000    0.3771843514208787 T T T Fe
   0.8274300000000000    0.3301300000000000    0.3457295059515109 T T T Fe
   0.8263600000000000    0.2792400000000000    0.4230171679211518 T T T Fe
   0.8222699999999999    0.4423600000000000    0.3915623224517842 T T T Fe
   0.8181899999999999    0.6054900000000000    0.3600977686967776 T T T Fe
   0.8212000000000000    0.3914800000000000    0.4688499844214253 F F F Fe
   0.8171000000000000    0.5546000000000000    0.4373854306664187 T T T Fe
   0.8130200000000001    0.7177200000000000    0.4059305851970509 T T T Fe
   0.8089300000000000    0.8808500000000000    0.3744660314420443 T T T Fe
   0.8283100000000001    0.0143500000000000    0.6090667539010793 F F F Fe
   0.8242200000000000    0.1774700000000000    0.5776119084317115 F F F Fe
   0.8201200000000000    0.3405900000000000    0.5461376463910662 F F F Fe
   0.8149600000000001    0.4528200000000000    0.5919801711769783 F F F Fe
   0.8160300000000000    0.5037100000000000    0.5146828009216986 F F F Fe
   0.8119400000000000    0.6668300000000000    0.4832279554523308 F F F Fe
   0.8078600000000001    0.8299600000000000    0.4517536934116856 T T T Fe
   0.8030800000000000    0.0063900000000000    0.4080178666093701 T T T Fe
   0.8108699999999999    0.6159500000000000    0.5605059091363331 F F F Fe
   0.8067699999999999    0.7790700000000000    0.5290510636669653 F F F Fe
   0.8026899999999999    0.9421900000000000    0.4975962181975975 F F F Fe
   0.8057000000000000    0.7281800000000000    0.6063484339222450 F F F Fe
   0.8016100000000000    0.8913000000000000    0.5748838801672386 F F F Fe
   0.3238700000000000    0.9110900000000000    0.3361183031692040 T T T Fe
   0.8118499999999998    0.7695300000000000    0.3286040900848550 T T T Fe
   0.3310199999999999    0.7398700000000000    0.2947512980627299 T T T W
   0.8235800000000000    0.9073300000000000    0.2954211697717997 T T T W
   0.3457900000000000    0.4065500000000000    0.2947512980627299 T T T W
   0.8383500000000002    0.5740100000000000    0.2954211697717997 T T T W
   0.3605600000000000    0.0732200000000000    0.2947512980627299 T T T W
   0.8531199999999999    0.2406800000000000    0.2954211697717997 T T T W
