total_structure
1.0
   2.9630000000000001    0.0000000000000000    0.0000000000000002
   0.0000000000000025   15.3989999999999991    0.0000000000000009
   0.0000000000000000    0.0000000000000000   50.1920000000000002
Cr Fe N
36 52 36
Selective dynamics
direct
   0.3179800000000000    0.8541699999999999    0.1764524226968441 T T T Cr
   0.3171400000000000    0.9636600000000000    0.2250059770481352 T T T Cr
   0.8244300000000000    0.7978400000000000    0.2246473541600254 T T T Cr
   0.3310200000000000    0.7398700000000000    0.2725135479757730 T T T Cr
   0.8235799999999999    0.9073299999999999    0.2732009085113166 T T T Cr
   0.3327500000000000    0.5208500000000000    0.1764524226968441 T T T Cr
   0.3319100000000000    0.6303400000000000    0.2250059770481351 T T T Cr
   0.8252700000000001    0.6883500000000000    0.1761037615556264 T T T Cr
   0.8391900000000002    0.4645200000000000    0.2246473541600255 T T T Cr
   0.3457900000000000    0.4065500000000000    0.2725135479757730 T T T Cr
   0.8383500000000000    0.5740100000000000    0.2732009085113165 T T T Cr
   0.3475200000000000    0.1875300000000000    0.1764524226968441 T T T Cr
   0.3466800000000000    0.2970200000000000    0.2250059770481351 T T T Cr
   0.8400400000000001    0.3550300000000000    0.1760937998087344 T T T Cr
   0.8539600000000001    0.1311900000000000    0.2246473541600255 T T T Cr
   0.3605600000000000    0.0732200000000000    0.2725135479757730 T T T Cr
   0.8531200000000000    0.2406800000000000    0.2732009085113165 T T T Cr
   0.3190500000000000    0.8541799999999999    0.0318277813197322 F F F Cr
   0.3182000000000000    0.9636700000000000    0.0803813356710233 F F F Cr
   0.8254899999999999    0.7978400000000000    0.0800227127829136 F F F Cr
   0.3320900000000001    0.7398700000000000    0.1278889065986611 F F F Cr
   0.8246500000000000    0.9073299999999999    0.1285762671342046 F F F Cr
   0.3338200000000001    0.5208600000000000    0.0318277813197322 F F F Cr
   0.3329700000000000    0.6303500000000000    0.0803813356710233 F F F Cr
   0.8263400000000001    0.6883500000000000    0.0314791201785145 F F F Cr
   0.8402600000000001    0.4645200000000000    0.0800227127829136 F F F Cr
   0.3468600000000001    0.4065500000000000    0.1278889065986611 F F F Cr
   0.8394100000000000    0.5740100000000000    0.1285762671342046 F F F Cr
   0.3485900000000000    0.1875400000000000    0.0318277813197322 F F F Cr
   0.3477400000000000    0.2970300000000000    0.0803813356710233 F F F Cr
   0.8411000000000000    0.3550300000000000    0.0314691584316226 F F F Cr
   0.8550300000000001    0.1312000000000000    0.0800227127829136 F F F Cr
   0.3616200000000001    0.0732300000000000    0.1278889065986611 F F F Cr
   0.8541799999999999    0.2406900000000000    0.1285762671342046 F F F Cr
   0.8400400000000001    0.0233600000000000    0.1760937998087344 T T T Cr
   0.8411000000000001    0.0233700000000000    0.0314691584316226 F F F Cr
   0.3530400000000001    0.0451600000000000    0.3686543672298375 T T T Fe
   0.3478800000000001    0.1587300000000000    0.4153749601530125 T T T Fe
   0.3467900000000000    0.1101100000000000    0.4948198916161938 F F F Fe
   0.3427100000000000    0.2723000000000000    0.4621055148230794 F F F Fe
   0.3457200000000001    0.0614800000000000    0.5742648230793752 F F F Fe
   0.3416300000000000    0.2236700000000000    0.5415504462862608 F F F Fe
   0.3375500000000000    0.3858699999999999    0.5088261077462544 F F F Fe
   0.3489500000000000    0.2073600000000000    0.3359300286898311 T T T Fe
   0.3437800000000000    0.3209400000000000    0.3826605833598981 T T T Fe
   0.3396899999999999    0.4831299999999999    0.3499462065667836 T T T Fe
   0.3386200000000000    0.4344999999999999    0.4293811762830730 T T T Fe
   0.3345300000000000    0.5967000000000000    0.3966667994899585 T T T Fe
   0.3304300000000001    0.7588900000000000    0.3639524226968441 T T T Fe
   0.3334500000000000    0.5480600000000000    0.4761117309531400 F F F Fe
   0.3293600000000000    0.7102600000000000    0.4433973541600255 T T T Fe
   0.3252700000000000    0.8724700000000000    0.4106730156200192 T T T Fe
   0.3405600000000000    0.1750400000000000    0.6209854160025503 F F F Fe
   0.3364600000000000    0.3372400000000000    0.5882710392094358 F F F Fe
   0.3323800000000000    0.4994300000000000    0.5555566624163213 F F F Fe
   0.3272200000000001    0.6130100000000001    0.6022772553394964 F F F Fe
   0.3282900000000001    0.6616400000000000    0.5228323238763150 F F F Fe
   0.3242000000000000    0.8238400000000000    0.4901179470832005 F F F Fe
   0.3201000000000000    0.9860300000000000    0.4574035702900862 F F F Fe
   0.3231200000000000    0.7752000000000000    0.5695628785463820 F F F Fe
   0.3190300000000000    0.9374000000000000    0.5368485017532676 F F F Fe
   0.3179600000000001    0.8887699999999999    0.6162834714695569 F F F Fe
   0.8304500000000001    0.1350900000000000    0.4551522154925088 F F F Fe
   0.8293799999999999    0.0864600000000000    0.5345971469556902 F F F Fe
   0.8252900000000000    0.2486500000000000    0.5018827701625758 F F F Fe
   0.8366899999999999    0.0701500000000000    0.3289866911061524 T T T Fe
   0.8315300000000000    0.1837200000000000    0.3757072840293274 T T T Fe
   0.8274300000000000    0.3459199999999999    0.3429929072362130 T T T Fe
   0.8263600000000001    0.2972799999999999    0.4224378386993943 T T T Fe
   0.8222700000000002    0.4594800000000000    0.3897234619062799 T T T Fe
   0.8181899999999999    0.6216800000000000    0.3569991233662736 T T T Fe
   0.8212000000000000    0.4108500000000000    0.4691584316225693 F F F Fe
   0.8171000000000002    0.5730499999999999    0.4364440548294549 T T T Fe
   0.8130200000000000    0.7352500000000000    0.4037296780363406 T T T Fe
   0.8089300000000000    0.8974500000000000    0.3710053394963341 T T T Fe
   0.8283100000000000    0.0378300000000000    0.6140420784188716 F F F Fe
   0.8242200000000000    0.2000200000000000    0.5813277016257572 F F F Fe
   0.8201199999999998    0.3622300000000000    0.5486033630857508 F F F Fe
   0.8149600000000000    0.4757900000000000    0.5953339177558177 F F F Fe
   0.8160300000000000    0.5244200000000000    0.5158889862926364 F F F Fe
   0.8119400000000001    0.6866200000000000    0.4831746094995219 F F F Fe
   0.8078600000000001    0.8488200000000000    0.4504502709595156 T T T Fe
   0.8037600000000000    0.0110100000000000    0.4177358941664011 T T T Fe
   0.8108700000000001    0.6379899999999999    0.5626095792158113 F F F Fe
   0.8067700000000001    0.8001900000000000    0.5298952024226968 F F F Fe
   0.8026900000000000    0.9623800000000000    0.4971808256295825 F F F Fe
   0.8056999999999999    0.7515500000000001    0.6093401338858784 F F F Fe
   0.8016100000000000    0.9137599999999999    0.5766257570927638 F F F Fe
   0.8174800000000000    0.9097299999999999    0.2008985495696525 T T T N
   0.3249200000000000    0.7422700000000000    0.2002012272872171 T T T N
   0.3240800000000000    0.8517599999999999    0.2487547816385081 T T T N
   0.8315900000000001    0.7954300000000000    0.1523350334714695 T T T N
   0.3243000000000000    0.9612600000000000    0.1526836946126872 T T T N
   0.8322500000000000    0.5764100000000000    0.2008985495696525 T T T N
   0.8313700000000002    0.6859400000000000    0.2484061204972904 T T T N
   0.3396900000000000    0.4089500000000000    0.2002012272872171 T T T N
   0.3388500000000000    0.5184400000000000    0.2487547816385081 T T T N
   0.8463600000000002    0.4621100000000000    0.1523350334714696 T T T N
   0.3390700000000000    0.6279400000000001    0.1526836946126873 T T T N
   0.8470199999999999    0.2430900000000000    0.2008985495696525 T T T N
   0.8461400000000000    0.3526200000000000    0.2484061204972904 T T T N
   0.3544600000000001    0.0756300000000000    0.2002012272872171 T T T N
   0.3536199999999999    0.1851200000000000    0.2487547816385081 T T T N
   0.8611300000000001    0.1287900000000000    0.1523350334714695 T T T N
   0.3538400000000000    0.2946199999999999    0.1526836946126872 T T T N
   0.8185500000000000    0.9097399999999999    0.0562739081925406 F F F N
   0.3259900000000001    0.7422800000000001    0.0555765859101052 F F F N
   0.3251400000000000    0.8517699999999999    0.1041301402613962 F F F N
   0.8326500000000000    0.7954400000000000    0.0077103920943577 F F F N
   0.3253600000000000    0.9612699999999998    0.0080590532355754 F F F N
   0.8333199999999999    0.5764200000000000    0.0562739081925406 F F F N
   0.8324300000000001    0.6859400000000000    0.1037814791201785 F F F N
   0.3407600000000001    0.4089600000000000    0.0555765859101052 F F F N
   0.3399100000000000    0.5184500000000000    0.1041301402613962 F F F N
   0.8474200000000002    0.4621199999999999    0.0077103920943577 F F F N
   0.3401300000000000    0.6279400000000001    0.0080590532355754 F F F N
   0.8480899999999999    0.2431000000000000    0.0562739081925406 F F F N
   0.8472000000000000    0.3526200000000000    0.1037814791201785 F F F N
   0.3555300000000000    0.0756400000000000    0.0555765859101052 F F F N
   0.3546800000000000    0.1851300000000000    0.1041301402613962 F F F N
   0.8621900000000001    0.1288000000000000    0.0077103920943577 F F F N
   0.3549000000000000    0.2946199999999999    0.0080590532355754 F F F N
   0.8461400000000001    0.0209600000000000    0.2484061204972904 T T T N
   0.8472000000000000    0.0209600000000000    0.1037814791201785 F F F N
