total_structure
1.0
   3.5062000000000002    0.0000000000000000    0.0000000000000002
   0.0000000000000019   12.0001999999999995    0.0000000000000007
   0.0000000000000000    0.0000000000000000   29.8249410620000006
Cr Fe Mo N
20 36 4 24
Selective dynamics
direct
   0.6482100000000000    0.3787300000000000    0.3189268543138623 T T T Cr
   0.6482100000000000    0.1287300000000000    0.3189268543138623 T T T Cr
   0.1482100000000000    0.0037300000000000    0.2432015275376908 T T T Cr
   0.6482100000000000    0.3787300000000000    0.1674664824187608 F F F Cr
   0.6482100000000000    0.1287300000000000    0.1674664824187608 F F F Cr
   0.1482100000000000    0.2537300000000000    0.2432015275376908 T T T Cr
   0.6482100000000000    0.8787300000000000    0.3189268543138623 T T T Cr
   0.6482100000000000    0.6287300000000000    0.3189268543138623 T T T Cr
   0.1482100000000000    0.5037300000000000    0.2432015275376908 T T T Cr
   0.6482100000000000    0.8787300000000000    0.1674664824187608 F F F Cr
   0.6482100000000000    0.6287300000000000    0.1674664824187608 F F F Cr
   0.1482100000000000    0.7537299999999999    0.2432015275376908 T T T Cr
   0.1317400000000000    0.0053800000000000    0.0918480574129357 F F F Cr
   0.6317400000000001    0.3803800000000000    0.0161130122940057 F F F Cr
   0.6317400000000000    0.1303800000000000    0.0161130122940057 F F F Cr
   0.1317400000000000    0.2553800000000000    0.0918480574129357 F F F Cr
   0.1317400000000000    0.5053800000000001    0.0918480574129357 F F F Cr
   0.6317400000000001    0.8803800000000001    0.0161130122940056 F F F Cr
   0.6317400000000001    0.6303800000000001    0.0161130122940057 F F F Cr
   0.1317400000000000    0.7553800000000001    0.0918480574129357 F F F Cr
   0.1415300000000000    0.7221700000000000    0.8060510335636485 F F F Fe
   0.6415299999999999    0.5580400000000000    0.7935046530621037 F F F Fe
   0.6415299999999999    0.7428899999999999    0.7550977624795281 F F F Fe
   0.1415300000000000    0.5787500000000000    0.7425513819779833 F F F Fe
   0.1415300000000000    0.3939000000000000    0.7809485542178001 F F F Fe
   0.6415300000000000    0.2297700000000000    0.7684021737162553 F F F Fe
   0.6415300000000000    0.4146200000000000    0.7299952831336797 F F F Fe
   0.1415300000000000    0.2504800000000000    0.7174489026321349 F F F Fe
   0.1415300000000000    0.0656300000000000    0.7558460748719518 F F F Fe
   0.6415300000000000    0.9015000000000000    0.7432996943704069 F F F Fe
   0.6415300000000000    0.0863500000000000    0.7048928037878314 F F F Fe
   0.1415300000000000    0.9222099999999999    0.6923464232862865 F F F Fe
   0.1415300000000000    0.7635999999999999    0.7041542097381664 F F F Fe
   0.6415300000000000    0.5994699999999999    0.6915981108938629 F F F Fe
   0.6415299999999999    0.7843100000000000    0.6532009386540460 F F F Fe
   0.1415300000000000    0.6201800000000000    0.6406448398097424 F F F Fe
   0.1415300000000000    0.4353300000000000    0.6790517303923180 F F F Fe
   0.6415300000000000    0.2712000000000000    0.6664956315480145 F F F Fe
   0.6415300000000000    0.4560500000000000    0.6280984593081976 F F F Fe
   0.1415300000000000    0.2919100000000000    0.6155423604638941 F F F Fe
   0.1415300000000000    0.1070600000000000    0.6539492510464698 F F F Fe
   0.6415299999999999    0.9429300000000000    0.6413931522021661 F F F Fe
   0.6415300000000000    0.1277800000000000    0.6029959799623493 T T T Fe
   0.1415300000000000    0.9636399999999999    0.5904398811180457 T T T Fe
   0.1415300000000000    0.8050300000000000    0.6022476675699256 T T T Fe
   0.6415300000000000    0.6408900000000000    0.5897012870683809 T T T Fe
   0.6415300000000000    0.8257400000000000    0.5512943964858052 T T T Fe
   0.1415300000000000    0.6616100000000000    0.5387480159842604 T T T Fe
   0.1415300000000000    0.4767600000000000    0.5771451882240773 T T T Fe
   0.6415299999999999    0.3126200000000000    0.5645988077225326 T T T Fe
   0.6415300000000000    0.4974700000000000    0.5261919171399569 T T T Fe
   0.1415300000000000    0.3333333333333333    0.5136455366384121 T T T Fe
   0.1415300000000000    0.1484900000000000    0.5520427088782289 T T T Fe
   0.6415299999999999    0.9843499999999999    0.5394963283766842 T T T Fe
   0.6415300000000000    0.1692000000000000    0.5010894377941085 T T T Fe
   0.1415300000000000    0.0050700000000000    0.4885430572925637 T T T Fe
   0.1482100000000000    0.0037300000000000    0.3946618994327923 T T T Mo
   0.1482100000000000    0.2537300000000000    0.3946618994327923 T T T Mo
   0.1482100000000000    0.5037300000000000    0.3946618994327923 T T T Mo
   0.1482100000000000    0.7537299999999999    0.3946618994327923 T T T Mo
   0.6482100000000000    0.3787300000000000    0.3946618994327923 T T T N
   0.1482100000000000    0.0037300000000000    0.3189268543138623 T T T N
   0.1482100000000000    0.2537300000000000    0.3189268543138623 T T T N
   0.6482100000000000    0.1287300000000000    0.3946618994327923 T T T N
   0.6482100000000000    0.3787300000000000    0.2432015275376908 T T T N
   0.1482100000000000    0.0037300000000000    0.1674664824187608 F F F N
   0.1482100000000000    0.2537300000000000    0.1674664824187608 F F F N
   0.6482100000000000    0.1287300000000000    0.2432015275376908 T T T N
   0.6482100000000000    0.8787300000000000    0.3946618994327923 T T T N
   0.1482100000000000    0.5037300000000000    0.3189268543138623 T T T N
   0.1482100000000000    0.7537299999999999    0.3189268543138623 T T T N
   0.6482100000000000    0.6287300000000000    0.3946618994327923 T T T N
   0.6482100000000000    0.8787300000000000    0.2432015275376908 T T T N
   0.1482100000000000    0.5037300000000000    0.1674664824187608 F F F N
   0.1482100000000000    0.7537299999999999    0.1674664824187608 F F F N
   0.6482100000000000    0.6287300000000000    0.2432015275376908 T T T N
   0.6317400000000001    0.3803800000000000    0.0918480574129357 F F F N
   0.1317400000000000    0.0053800000000000    0.0161130122940057 F F F N
   0.1317400000000000    0.2553800000000000    0.0161130122940057 F F F N
   0.6317400000000000    0.1303800000000000    0.0918480574129357 F F F N
   0.6317400000000001    0.8803800000000001    0.0918480574129357 F F F N
   0.1317400000000000    0.5053800000000001    0.0161130122940057 F F F N
   0.1317400000000000    0.7553800000000001    0.0161130122940057 F F F N
   0.6317400000000001    0.6303800000000001    0.0918480574129357 F F F N
