total_structure
1.0
   3.5061499999999999    0.0000000000000000    0.0000000000000002
   0.0000000000000019   12.0001999999999995    0.0000000000000007
   0.0000000000000000    0.0000000000000000   26.5616049620000041
Cr Fe N
16 36 16
Selective dynamics
direct
   0.0000000000000000    0.0000000000000000    0.2366694644767678 F F F Cr
  -0.0000000000000000    0.2500000000000000    0.2366694644767678 F F F Cr
   0.5000000000000000    0.1250000000000000    0.1577762684519816 F F F Cr
   0.5000000000000000    0.3750000000000000    0.1577762684519816 F F F Cr
   0.0000000000000000    0.0000000000000000    0.0788931960247862 F F F Cr
  -0.0000000000000000    0.2500000000000000    0.0788931960247862 F F F Cr
   0.5000000000000000    0.1250000000000000   -0.0000000000000000 F F F Cr
   0.5000000000000000    0.3750000000000000   -0.0000000000000000 F F F Cr
  -0.0000000000000000    0.5000000000000000    0.2366694644767678 F F F Cr
  -0.0000000000000000    0.7500000000000000    0.2366694644767678 F F F Cr
   0.5000000000000000    0.6250000000000000    0.1577762684519816 F F F Cr
   0.4999999999999999    0.8749999999999999    0.1577762684519816 F F F Cr
  -0.0000000000000000    0.5000000000000000    0.0788931960247862 F F F Cr
  -0.0000000000000000    0.7500000000000000    0.0788931960247862 F F F Cr
   0.5000000000000000    0.6250000000000000   -0.0000000000000000 F F F Cr
   0.4999999999999999    0.8749999999999999   -0.0000000000000000 F F F Cr
   0.9933200000000000    0.7184400000000000    0.6235135291972571 F F F Fe
   0.4933200000000000    0.5543100000000000    0.6104439647075871 F F F Fe
   0.4933200000000000    0.7391600000000000    0.5704355070289068 F F F Fe
   0.9933200000000000    0.5750200000000000    0.5573659425392368 F F F Fe
   0.9933200000000001    0.3901700000000000    0.5973642766203262 F F F Fe
   0.4933200000000000    0.2260400000000000    0.5842947121306561 F F F Fe
   0.4933200000000000    0.4108899999999999    0.5442862544519759 F F F Fe
   0.9933200000000001    0.2467500000000000    0.5312166899623058 F F F Fe
   0.9933200000000000    0.0619000000000000    0.5712150240433953 F F F Fe
   0.4933200000000000    0.8977699999999998    0.5581454595537252 F F F Fe
   0.4933200000000000    0.0826200000000000    0.5181370018750450 F F F Fe
   0.9933200000000000    0.9184800000000000    0.5050674373853749 F F F Fe
   0.9933200000000000    0.7598700000000000    0.5173676084581472 F F F Fe
   0.4933200000000000    0.5957300000000000    0.5042879203708864 F F F Fe
   0.4933200000000000    0.7805800000000001    0.4642895862897969 F F F Fe
   0.9933200000000001    0.6164500000000001    0.4512098982025360 F F F Fe
   0.9933200000000001    0.4315999999999999    0.4912183558812163 F F F Fe
   0.4933200000000000    0.2674600000000000    0.4781386677939555 F F F Fe
   0.4933200000000000    0.4523100000000000    0.4381403337128660 F F F Fe
   0.9933200000000001    0.2881800000000000    0.4250606456256051 F F F Fe
   0.9933199999999999    0.1033300000000000    0.4650691033042854 F F F Fe
   0.4933200000000000    0.9391999999999999    0.4519894152170245 F F F Fe
   0.4933200000000000    0.1240400000000000    0.4119910811359351 F F F Fe
   0.9933200000000000    0.9599100000000000    0.3989113930486742 F F F Fe
   0.9933200000000000    0.8013000000000000    0.4112115641214465 F F F Fe
   0.4933200000000000    0.6371599999999998    0.3981419996317765 F F F Fe
   0.4933200000000000    0.8220099999999999    0.3581335419530963 F F F Fe
   0.9933200000000001    0.6578799999999999    0.3450639774634263 F F F Fe
   0.9933200000000001    0.4730300000000000    0.3850623115445156 F F F Fe
   0.4933200000000000    0.3088900000000000    0.3719927470548456 F F F Fe
   0.4933200000000000    0.4937400000000000    0.3319842893761654 F F F Fe
   0.9933200000000000    0.3296100000000000    0.3189147248864954 F F F Fe
   0.9933200000000001    0.1447600000000000    0.3589130589675847 F F F Fe
   0.4933200000000000    0.9806200000000000    0.3458434944779146 F F F Fe
   0.4933200000000000    0.1654700000000000    0.3058350367992345 F F F Fe
   0.9933200000000000    0.0013400000000000    0.2927654723095644 F F F Fe
   0.5000000000000000    0.1250000000000000    0.2366694644767678 F F F N
   0.5000000000000000    0.3750000000000000    0.2366694644767678 F F F N
   0.0000000000000000    0.0000000000000000    0.1577762684519816 F F F N
  -0.0000000000000000    0.2500000000000000    0.1577762684519816 F F F N
   0.5000000000000000    0.1250000000000000    0.0788931960247862 F F F N
   0.5000000000000000    0.3750000000000000    0.0788931960247862 F F F N
   0.0000000000000000    0.0000000000000000    0.0000000000000000 F F F N
  -0.0000000000000000    0.2500000000000000   -0.0000000000000000 F F F N
   0.5000000000000000    0.6250000000000000    0.2366694644767678 F F F N
   0.4999999999999999    0.8749999999999999    0.2366694644767678 F F F N
  -0.0000000000000000    0.5000000000000000    0.1577762684519816 F F F N
  -0.0000000000000000    0.7500000000000000    0.1577762684519816 F F F N
   0.5000000000000000    0.6250000000000000    0.0788931960247862 F F F N
   0.4999999999999999    0.8749999999999999    0.0788931960247862 F F F N
  -0.0000000000000000    0.5000000000000000   -0.0000000000000000 F F F N
  -0.0000000000000000    0.7500000000000000   -0.0000000000000000 F F F N
