Ti66 Sn1
1.0
6.309760 0.000000 0.000000
0.000000 9.464640 0.000000
0.000000 0.000000 18.918326
Ti Sn
66 1
Selective dynamics
direct
0.625714 0.041613 0.500021 F F F Ti
0.125028 0.041698 0.658550 F F F Ti
0.625018 0.041676 0.658581 F F F Ti
0.125010 0.041673 0.817140 F F F Ti
0.625003 0.041672 0.817149 F F F Ti
0.125123 0.376309 0.500275 F F F Ti
0.625289 0.375108 0.500139 F F F Ti
0.125042 0.375053 0.658636 F F F Ti
0.625010 0.375028 0.658634 F F F Ti
0.125007 0.374998 0.817159 F F F Ti
0.624998 0.374994 0.817164 F F F Ti
0.125043 0.708313 0.500064 F F F Ti
0.624983 0.708158 0.500155 F F F Ti
0.125028 0.708396 0.658618 F F F Ti
0.624982 0.708404 0.658640 F F F Ti
0.125004 0.708347 0.817160 F F F Ti
0.624995 0.708350 0.817167 F F F Ti
0.375129 0.208429 0.579315 F F F Ti
0.874972 0.208499 0.579397 F F F Ti
0.375011 0.208328 0.737867 F F F Ti
0.875010 0.208331 0.737878 F F F Ti
0.374978 0.208311 0.896408 F F F Ti
0.875027 0.208312 0.896408 F F F Ti
0.375207 0.541817 0.579416 F F F Ti
0.874879 0.541843 0.579434 F F F Ti
0.375023 0.541693 0.737901 F F F Ti
0.874995 0.541694 0.737906 F F F Ti
0.374990 0.541643 0.896421 F F F Ti
0.875015 0.541643 0.896421 F F F Ti
0.375039 0.875061 0.579274 F F F Ti
0.875045 0.874969 0.579328 F F F Ti
0.374995 0.875031 0.737866 F F F Ti
0.875013 0.875025 0.737875 F F F Ti
0.374980 0.875021 0.896404 F F F Ti
0.875025 0.875020 0.896405 F F F Ti
0.125128 0.624830 0.356728 F F F Ti
0.624983 0.624770 0.356650 F F F Ti
0.125027 0.624965 0.118888 F F F Ti
0.625008 0.624969 0.118878 F F F Ti
0.626689 0.124961 0.356761 F F F Ti
0.125057 0.124983 0.118938 F F F Ti
0.624985 0.124993 0.118916 F F F Ti
0.125014 0.374980 0.039634 F F F Ti
0.624993 0.374984 0.039628 F F F Ti
0.125018 0.875000 0.039617 F F F Ti
0.625002 0.875002 0.039609 F F F Ti
0.125043 0.375048 0.277528 F F F Ti
0.625123 0.374942 0.277434 F F F Ti
0.125070 0.874473 0.277374 F F F Ti
0.625186 0.874925 0.277327 F F F Ti
0.375039 0.874985 0.158528 F F F Ti
0.875017 0.874955 0.158502 F F F Ti
0.374997 0.374941 0.158571 F F F Ti
0.875033 0.374971 0.158541 F F F Ti
0.376244 0.376302 0.396500 F F F Ti
0.873725 0.376819 0.396499 F F F Ti
0.377176 0.873115 0.396337 F F F Ti
0.872599 0.872488 0.396330 F F F Ti
0.375082 0.624900 0.237779 F F F Ti
0.874981 0.624876 0.237766 F F F Ti
0.375000 0.624991 -0.000024 F F F Ti
0.875006 0.624990 -0.000025 F F F Ti
0.375073 0.124937 0.237930 F F F Ti
0.875067 0.124945 0.237773 F F F Ti
0.374997 0.125002 -0.000014 F F F Ti
0.875015 0.125003 -0.000015 F F F Ti
0.121011 0.113015 0.402595 T T T Sn

0.000000 0.000000 0.000000
0.000000 0.000000 0.000000
0.000000 0.000000 0.000000
0.000000 0.000000 0.000000
0.000000 0.000000 0.000000
0.000000 0.000000 0.000000
0.000000 0.000000 0.000000
0.000000 0.000000 0.000000
0.000000 0.000000 0.000000
0.000000 0.000000 0.000000
0.000000 0.000000 0.000000
0.000000 0.000000 0.000000
0.000000 0.000000 0.000000
0.000000 0.000000 0.000000
0.000000 0.000000 0.000000
0.000000 0.000000 0.000000
0.000000 0.000000 0.000000
0.000000 0.000000 0.000000
0.000000 0.000000 0.000000
0.000000 0.000000 0.000000
0.000000 0.000000 0.000000
0.000000 0.000000 0.000000
0.000000 0.000000 0.000000
0.000000 0.000000 0.000000
0.000000 0.000000 0.000000
0.000000 0.000000 0.000000
0.000000 0.000000 0.000000
0.000000 0.000000 0.000000
0.000000 0.000000 0.000000
0.000000 0.000000 0.000000
0.000000 0.000000 0.000000
0.000000 0.000000 0.000000
0.000000 0.000000 0.000000
0.000000 0.000000 0.000000
0.000000 0.000000 0.000000
0.000000 0.000000 0.000000
0.000000 0.000000 0.000000
0.000000 0.000000 0.000000
0.000000 0.000000 0.000000
0.000000 0.000000 0.000000
0.000000 0.000000 0.000000
0.000000 0.000000 0.000000
0.000000 0.000000 0.000000
0.000000 0.000000 0.000000
0.000000 0.000000 0.000000
0.000000 0.000000 0.000000
0.000000 0.000000 0.000000
0.000000 0.000000 0.000000
0.000000 0.000000 0.000000
0.000000 0.000000 0.000000
0.000000 0.000000 0.000000
0.000000 0.000000 0.000000
0.000000 0.000000 0.000000
0.000000 0.000000 0.000000
0.000000 0.000000 0.000000
0.000000 0.000000 0.000000
0.000000 0.000000 0.000000
0.000000 0.000000 0.000000
0.000000 0.000000 0.000000
0.000000 0.000000 0.000000
0.000000 0.000000 0.000000
0.000000 0.000000 0.000000
0.000000 0.000000 0.000000
0.000000 0.000000 0.000000
0.000000 0.000000 0.000000
0.000000 0.000000 0.000000
0.000000 0.000000 0.000000
