Ti66 Cr1
1.0
6.309760 0.000000 0.000000
0.000000 9.464640 0.000000
0.000000 0.000000 18.918326
Ti Cr
66 1
Selective dynamics
direct
0.077211 0.025166 0.491532 T T T Ti
0.605055 0.022803 0.489443 T T T Ti
0.129056 0.066672 0.647276 T T T Ti
0.608355 0.069171 0.643512 T T T Ti
0.124972 0.041545 0.817459 F F F Ti
0.625723 0.041600 0.817318 F F F Ti
0.570797 0.375479 0.446229 T T T Ti
0.123414 0.375046 0.644597 T T T Ti
0.602589 0.375035 0.642536 T T T Ti
0.124695 0.375003 0.817495 F F F Ti
0.625817 0.375029 0.817329 F F F Ti
0.077347 0.724781 0.491500 T T T Ti
0.604855 0.727263 0.489420 T T T Ti
0.129062 0.683314 0.647270 T T T Ti
0.608329 0.680811 0.643501 T T T Ti
0.124959 0.708448 0.817460 F F F Ti
0.625724 0.708407 0.817319 F F F Ti
0.340733 0.226961 0.543409 T T T Ti
0.864394 0.233917 0.545631 T T T Ti
0.374870 0.208288 0.738956 F F F Ti
0.874415 0.208242 0.737938 F F F Ti
0.375170 0.208311 0.896538 F F F Ti
0.874974 0.208291 0.896473 F F F Ti
0.340551 0.522977 0.543342 T T T Ti
0.864495 0.516122 0.545628 T T T Ti
0.374867 0.541689 0.738955 F F F Ti
0.874420 0.541767 0.737937 F F F Ti
0.375168 0.541685 0.896544 F F F Ti
0.874974 0.541695 0.896480 F F F Ti
0.346127 0.874951 0.577182 T T T Ti
0.853731 0.874949 0.580614 T T T Ti
0.375139 0.874947 0.738580 F F F Ti
0.874565 0.874995 0.738104 F F F Ti
0.375248 0.874972 0.896585 F F F Ti
0.874990 0.874975 0.896549 F F F Ti
0.202843 0.613949 0.374548 T T T Ti
0.674841 0.613273 0.367932 T T T Ti
0.124965 0.624827 0.118608 F F F Ti
0.625282 0.625019 0.118741 F F F Ti
0.202528 0.135781 0.374430 T T T Ti
0.675094 0.136860 0.367974 T T T Ti
0.124962 0.125192 0.118595 F F F Ti
0.625275 0.124979 0.118730 F F F Ti
0.124699 0.374996 0.039331 F F F Ti
0.625173 0.374963 0.039295 F F F Ti
0.124824 0.875010 0.039440 F F F Ti
0.625497 0.875015 0.039492 F F F Ti
0.145973 0.375166 0.283419 T T T Ti
0.617210 0.374969 0.281473 T T T Ti
0.130192 0.875230 0.280065 T T T Ti
0.607952 0.875121 0.282262 T T T Ti
0.375049 0.874938 0.157689 F F F Ti
0.875054 0.875066 0.158501 F F F Ti
0.375378 0.374934 0.157476 F F F Ti
0.874453 0.375024 0.158233 F F F Ti
-0.083658 0.375188 0.407609 T T T Ti
0.355540 0.875508 0.400096 T T T Ti
0.876371 0.874786 0.394270 T T T Ti
0.382351 0.624197 0.245833 T T T Ti
0.890720 0.622028 0.248989 T T T Ti
0.375117 0.625049 -0.000039 F F F Ti
0.874865 0.625017 -0.000055 F F F Ti
0.382397 0.125883 0.245800 T T T Ti
0.890648 0.128086 0.248973 T T T Ti
0.375117 0.124932 -0.000050 F F F Ti
0.874870 0.124969 -0.000064 F F F Ti
0.243169 0.373739 0.425900 T T T Cr

0.000000 0.000000 0.000000
0.000000 0.000000 0.000000
0.000000 0.000000 0.000000
0.000000 0.000000 0.000000
0.000000 0.000000 0.000000
0.000000 0.000000 0.000000
0.000000 0.000000 0.000000
0.000000 0.000000 0.000000
0.000000 0.000000 0.000000
0.000000 0.000000 0.000000
0.000000 0.000000 0.000000
0.000000 0.000000 0.000000
0.000000 0.000000 0.000000
0.000000 0.000000 0.000000
0.000000 0.000000 0.000000
0.000000 0.000000 0.000000
0.000000 0.000000 0.000000
0.000000 0.000000 0.000000
0.000000 0.000000 0.000000
0.000000 0.000000 0.000000
0.000000 0.000000 0.000000
0.000000 0.000000 0.000000
0.000000 0.000000 0.000000
0.000000 0.000000 0.000000
0.000000 0.000000 0.000000
0.000000 0.000000 0.000000
0.000000 0.000000 0.000000
0.000000 0.000000 0.000000
0.000000 0.000000 0.000000
0.000000 0.000000 0.000000
0.000000 0.000000 0.000000
0.000000 0.000000 0.000000
0.000000 0.000000 0.000000
0.000000 0.000000 0.000000
0.000000 0.000000 0.000000
0.000000 0.000000 0.000000
0.000000 0.000000 0.000000
0.000000 0.000000 0.000000
0.000000 0.000000 0.000000
0.000000 0.000000 0.000000
0.000000 0.000000 0.000000
0.000000 0.000000 0.000000
0.000000 0.000000 0.000000
0.000000 0.000000 0.000000
0.000000 0.000000 0.000000
0.000000 0.000000 0.000000
0.000000 0.000000 0.000000
0.000000 0.000000 0.000000
0.000000 0.000000 0.000000
0.000000 0.000000 0.000000
0.000000 0.000000 0.000000
0.000000 0.000000 0.000000
0.000000 0.000000 0.000000
0.000000 0.000000 0.000000
0.000000 0.000000 0.000000
0.000000 0.000000 0.000000
0.000000 0.000000 0.000000
0.000000 0.000000 0.000000
0.000000 0.000000 0.000000
0.000000 0.000000 0.000000
0.000000 0.000000 0.000000
0.000000 0.000000 0.000000
0.000000 0.000000 0.000000
0.000000 0.000000 0.000000
0.000000 0.000000 0.000000
0.000000 0.000000 0.000000
0.000000 0.000000 0.000000
