Ti66 Cr1
1.0
6.309760 0.000000 0.000000
0.000000 9.464640 0.000000
0.000000 0.000000 18.918326
Ti Cr
66 1
Selective dynamics
direct
0.109722 0.026111 0.495332 T T T Ti
0.583763 0.021158 0.488094 T T T Ti
0.109056 0.066778 0.646805 T T T Ti
0.633289 0.069771 0.643679 T T T Ti
0.124822 0.041618 0.817266 F F F Ti
0.624864 0.041553 0.817402 F F F Ti
0.539979 0.375397 0.434206 T T T Ti
0.103487 0.375012 0.640695 T T T Ti
0.623639 0.375035 0.646426 T T T Ti
0.125094 0.375012 0.817271 F F F Ti
0.624790 0.375012 0.817425 F F F Ti
0.109856 0.723796 0.495313 T T T Ti
0.583566 0.728871 0.488082 T T T Ti
0.109104 0.683198 0.646797 T T T Ti
0.633214 0.680197 0.643667 T T T Ti
0.124833 0.708383 0.817266 F F F Ti
0.624846 0.708434 0.817401 F F F Ti
0.369105 0.228451 0.548828 T T T Ti
0.844574 0.234148 0.538538 T T T Ti
0.374358 0.208178 0.738039 F F F Ti
0.874748 0.208341 0.738562 F F F Ti
0.374902 0.208293 0.896436 F F F Ti
0.875037 0.208333 0.896517 F F F Ti
0.368892 0.521456 0.548769 T T T Ti
0.844686 0.515831 0.538525 T T T Ti
0.374352 0.541824 0.738035 F F F Ti
0.874779 0.541640 0.738559 F F F Ti
0.374900 0.541699 0.896441 F F F Ti
0.875039 0.541658 0.896522 F F F Ti
0.360266 0.875036 0.585156 T T T Ti
0.847129 0.874876 0.573570 T T T Ti
0.374243 0.875008 0.737988 F F F Ti
0.874934 0.874945 0.738416 F F F Ti
0.374878 0.874984 0.896475 F F F Ti
0.875028 0.874972 0.896570 F F F Ti
0.191966 0.611538 0.375438 T T T Ti
0.667542 0.619041 0.366215 T T T Ti
0.125366 0.625105 0.118632 F F F Ti
0.625198 0.625125 0.118643 F F F Ti
0.191818 0.138343 0.375362 T T T Ti
0.667717 0.131102 0.366252 T T T Ti
0.125381 0.124914 0.118627 F F F Ti
0.625199 0.124890 0.118637 F F F Ti
0.125019 0.374988 0.039406 F F F Ti
0.625085 0.374989 0.039388 F F F Ti
0.125159 0.875026 0.039487 F F F Ti
0.625011 0.875015 0.039491 F F F Ti
0.157438 0.375074 0.285487 T T T Ti
0.617231 0.375034 0.280557 T T T Ti
0.104498 0.875186 0.279431 T T T Ti
0.633385 0.875139 0.280740 T T T Ti
0.375528 0.874991 0.158394 F F F Ti
0.875337 0.875013 0.157978 F F F Ti
0.375483 0.375010 0.157837 F F F Ti
0.874891 0.374977 0.158080 F F F Ti
-0.098799 0.375097 0.398708 T T T Ti
0.355054 0.875388 0.393337 T T T Ti
0.883617 0.874755 0.400854 T T T Ti
0.381870 0.629667 0.246462 T T T Ti
0.893982 0.617433 0.249701 T T T Ti
0.375079 0.625087 -0.000089 F F F Ti
0.875018 0.625050 -0.000055 F F F Ti
0.381913 0.120441 0.246442 T T T Ti
0.893918 0.132658 0.249693 T T T Ti
0.375107 0.124904 -0.000096 F F F Ti
0.875019 0.124939 -0.000061 F F F Ti
0.203510 0.374074 0.448176 T T T Cr

0.000000 0.000000 0.000000
0.000000 0.000000 0.000000
0.000000 0.000000 0.000000
0.000000 0.000000 0.000000
0.000000 0.000000 0.000000
0.000000 0.000000 0.000000
0.000000 0.000000 0.000000
0.000000 0.000000 0.000000
0.000000 0.000000 0.000000
0.000000 0.000000 0.000000
0.000000 0.000000 0.000000
0.000000 0.000000 0.000000
0.000000 0.000000 0.000000
0.000000 0.000000 0.000000
0.000000 0.000000 0.000000
0.000000 0.000000 0.000000
0.000000 0.000000 0.000000
0.000000 0.000000 0.000000
0.000000 0.000000 0.000000
0.000000 0.000000 0.000000
0.000000 0.000000 0.000000
0.000000 0.000000 0.000000
0.000000 0.000000 0.000000
0.000000 0.000000 0.000000
0.000000 0.000000 0.000000
0.000000 0.000000 0.000000
0.000000 0.000000 0.000000
0.000000 0.000000 0.000000
0.000000 0.000000 0.000000
0.000000 0.000000 0.000000
0.000000 0.000000 0.000000
0.000000 0.000000 0.000000
0.000000 0.000000 0.000000
0.000000 0.000000 0.000000
0.000000 0.000000 0.000000
0.000000 0.000000 0.000000
0.000000 0.000000 0.000000
0.000000 0.000000 0.000000
0.000000 0.000000 0.000000
0.000000 0.000000 0.000000
0.000000 0.000000 0.000000
0.000000 0.000000 0.000000
0.000000 0.000000 0.000000
0.000000 0.000000 0.000000
0.000000 0.000000 0.000000
0.000000 0.000000 0.000000
0.000000 0.000000 0.000000
0.000000 0.000000 0.000000
0.000000 0.000000 0.000000
0.000000 0.000000 0.000000
0.000000 0.000000 0.000000
0.000000 0.000000 0.000000
0.000000 0.000000 0.000000
0.000000 0.000000 0.000000
0.000000 0.000000 0.000000
0.000000 0.000000 0.000000
0.000000 0.000000 0.000000
0.000000 0.000000 0.000000
0.000000 0.000000 0.000000
0.000000 0.000000 0.000000
0.000000 0.000000 0.000000
0.000000 0.000000 0.000000
0.000000 0.000000 0.000000
0.000000 0.000000 0.000000
0.000000 0.000000 0.000000
0.000000 0.000000 0.000000
0.000000 0.000000 0.000000
