beta_Ti
1.0
8.805261 0.000000 0.000000
-4.402630 7.625580 0.000000
0.000000 0.000000 18.988801
Ti
36
direct
0.967272 0.027818 0.486704 Ti
0.967272 0.527818 0.486704 Ti
0.467272 0.027818 0.486704 Ti
0.467272 0.527818 0.486704 Ti
0.133938 0.361151 0.827550 Ti
0.133938 0.861151 0.827550 Ti
0.633938 0.361151 0.827550 Ti
0.633938 0.861151 0.827550 Ti
0.300605 0.194485 0.876242 Ti
0.300605 0.694485 0.876242 Ti
0.800605 0.194485 0.876242 Ti
0.800605 0.694485 0.876242 Ti
0.133938 0.361151 0.535396 Ti
0.133938 0.861151 0.535396 Ti
0.633938 0.361151 0.535396 Ti
0.633938 0.861151 0.535396 Ti
0.300605 0.194485 0.584089 Ti
0.300605 0.694485 0.584089 Ti
0.800605 0.194485 0.584089 Ti
0.800605 0.694485 0.584089 Ti
0.967272 0.027818 0.632781 Ti
0.967272 0.527818 0.632781 Ti
0.467272 0.027818 0.632781 Ti
0.467272 0.527818 0.632781 Ti
0.133938 0.361151 0.681473 Ti
0.133938 0.861151 0.681473 Ti
0.633938 0.361151 0.681473 Ti
0.633938 0.861151 0.681473 Ti
0.300605 0.194485 0.730165 Ti
0.300605 0.694485 0.730165 Ti
0.800605 0.194485 0.730165 Ti
0.800605 0.694485 0.730165 Ti
0.967272 0.027818 0.778857 Ti
0.967272 0.527818 0.778857 Ti
0.467272 0.027818 0.778857 Ti
0.467272 0.527818 0.778857 Ti
