Zr1 Ti96
1.0
9.513020 0.000000 0.000000
0.000000 9.350860 0.000000
0.000000 0.000000 18.547230
Ti Zr
96 1
Selective dynamics
direct
0.148859 0.372610 0.397575 T T T Ti
0.650649 0.373130 0.397538 T T T Ti
0.166881 0.884663 0.388980 T T T Ti
0.656955 0.893067 0.403150 T T T Ti
0.162403 0.376521 0.236584 T T T Ti
0.661426 0.376616 0.235087 T T T Ti
0.160330 0.874631 0.234514 T T T Ti
0.662718 0.875957 0.234795 T T T Ti
0.166667 0.375001 0.077684 F F F Ti
0.666665 0.374996 0.077684 F F F Ti
0.166670 0.875007 0.077694 F F F Ti
0.666666 0.875004 0.077691 F F F Ti
0.411587 0.373562 0.315872 T T T Ti
0.907502 0.373321 0.314668 T T T Ti
0.415337 0.875863 0.316502 T T T Ti
0.905659 0.870545 0.318219 T T T Ti
0.416670 0.374991 0.155365 F F F Ti
0.916661 0.374985 0.155365 F F F Ti
0.416669 0.875019 0.155367 F F F Ti
0.916685 0.875016 0.155366 F F F Ti
0.416665 0.375003 -0.000005 F F F Ti
0.916666 0.375001 -0.000003 F F F Ti
0.416665 0.875001 0.000003 F F F Ti
0.916669 0.875002 0.000005 F F F Ti
0.088413 0.126438 0.315871 T T T Ti
0.592498 0.126679 0.314667 T T T Ti
0.084663 0.624137 0.316501 T T T Ti
0.594341 0.629455 0.318218 T T T Ti
0.083330 0.125010 0.155365 F F F Ti
0.583339 0.125015 0.155365 F F F Ti
0.083331 0.624981 0.155367 F F F Ti
0.583315 0.624985 0.155366 F F F Ti
0.083335 0.124999 -0.000006 F F F Ti
0.583334 0.125000 -0.000003 F F F Ti
0.083335 0.624999 0.000002 F F F Ti
0.583331 0.624998 0.000005 F F F Ti
0.351140 0.127390 0.397575 T T T Ti
0.849350 0.126870 0.397538 T T T Ti
0.333118 0.615337 0.388980 T T T Ti
0.843044 0.606933 0.403150 T T T Ti
0.337596 0.123479 0.236584 T T T Ti
0.838573 0.123384 0.235087 T T T Ti
0.339669 0.625369 0.234514 T T T Ti
0.837281 0.624043 0.234795 T T T Ti
0.333332 0.125000 0.077684 F F F Ti
0.833334 0.125005 0.077684 F F F Ti
0.333329 0.624993 0.077694 F F F Ti
0.833333 0.624997 0.077691 F F F Ti
0.374990 0.375019 0.823757 F F F Ti
0.875002 0.375025 0.823750 F F F Ti
0.375001 0.875004 0.823778 F F F Ti
0.875009 0.874992 0.823763 F F F Ti
0.125010 0.124982 0.823757 F F F Ti
0.624998 0.124976 0.823750 F F F Ti
0.124999 0.624996 0.823778 F F F Ti
0.624992 0.625008 0.823762 F F F Ti
0.124997 0.375005 0.910088 F F F Ti
0.625001 0.375012 0.910083 F F F Ti
0.125001 0.875002 0.910100 F F F Ti
0.625002 0.874998 0.910095 F F F Ti
0.375004 0.124995 0.910088 F F F Ti
0.874999 0.124989 0.910083 F F F Ti
0.375000 0.624998 0.910100 F F F Ti
0.874998 0.625003 0.910094 F F F Ti
0.400177 0.378947 0.645848 T T T Ti
0.883814 0.344678 0.653128 T T T Ti
0.369068 0.873050 0.673421 T T T Ti
0.885009 0.873343 0.658662 T T T Ti
0.099823 0.121052 0.645849 T T T Ti
0.616185 0.155321 0.653128 T T T Ti
0.130932 0.626949 0.673421 T T T Ti
0.614991 0.626657 0.658662 T T T Ti
0.148085 0.381280 0.574945 T T T Ti
0.659558 0.402486 0.563371 T T T Ti
0.144398 0.868142 0.576863 T T T Ti
0.568941 0.920404 0.585090 T T T Ti
0.351915 0.118720 0.574945 T T T Ti
0.840442 0.097514 0.563371 T T T Ti
0.355602 0.631858 0.576863 T T T Ti
0.931059 0.579596 0.585090 T T T Ti
0.384622 0.366134 0.487738 T T T Ti
0.905645 0.354615 0.487914 T T T Ti
0.378106 0.861223 0.479355 T T T Ti
-0.053459 -0.105217 0.471634 T T T Ti
0.115378 0.133866 0.487738 T T T Ti
0.594355 0.145385 0.487914 T T T Ti
0.121894 0.638777 0.479355 T T T Ti
0.553459 0.605217 0.471634 T T T Ti
0.125048 0.875038 0.737469 F F F Ti
0.625012 0.875040 0.737477 F F F Ti
0.374951 0.624960 0.737469 F F F Ti
0.874987 0.624957 0.737478 F F F Ti
0.125027 0.375025 0.737441 F F F Ti
0.624956 0.375178 0.737453 F F F Ti
0.374973 0.124974 0.737442 F F F Ti
0.875043 0.124821 0.737454 F F F Ti
0.750000 0.750000 0.531963 T T T Zr

0.000000 0.000000 0.000000
0.000000 0.000000 0.000000
0.000000 0.000000 0.000000
0.000000 0.000000 0.000000
0.000000 0.000000 0.000000
0.000000 0.000000 0.000000
0.000000 0.000000 0.000000
0.000000 0.000000 0.000000
0.000000 0.000000 0.000000
0.000000 0.000000 0.000000
0.000000 0.000000 0.000000
0.000000 0.000000 0.000000
0.000000 0.000000 0.000000
0.000000 0.000000 0.000000
0.000000 0.000000 0.000000
0.000000 0.000000 0.000000
0.000000 0.000000 0.000000
0.000000 0.000000 0.000000
0.000000 0.000000 0.000000
0.000000 0.000000 0.000000
0.000000 0.000000 0.000000
0.000000 0.000000 0.000000
0.000000 0.000000 0.000000
0.000000 0.000000 0.000000
0.000000 0.000000 0.000000
0.000000 0.000000 0.000000
0.000000 0.000000 0.000000
0.000000 0.000000 0.000000
0.000000 0.000000 0.000000
0.000000 0.000000 0.000000
0.000000 0.000000 0.000000
0.000000 0.000000 0.000000
0.000000 0.000000 0.000000
0.000000 0.000000 0.000000
0.000000 0.000000 0.000000
0.000000 0.000000 0.000000
0.000000 0.000000 0.000000
0.000000 0.000000 0.000000
0.000000 0.000000 0.000000
0.000000 0.000000 0.000000
0.000000 0.000000 0.000000
0.000000 0.000000 0.000000
0.000000 0.000000 0.000000
0.000000 0.000000 0.000000
0.000000 0.000000 0.000000
0.000000 0.000000 0.000000
0.000000 0.000000 0.000000
0.000000 0.000000 0.000000
0.000000 0.000000 0.000000
0.000000 0.000000 0.000000
0.000000 0.000000 0.000000
0.000000 0.000000 0.000000
0.000000 0.000000 0.000000
0.000000 0.000000 0.000000
0.000000 0.000000 0.000000
0.000000 0.000000 0.000000
0.000000 0.000000 0.000000
0.000000 0.000000 0.000000
0.000000 0.000000 0.000000
0.000000 0.000000 0.000000
0.000000 0.000000 0.000000
0.000000 0.000000 0.000000
0.000000 0.000000 0.000000
0.000000 0.000000 0.000000
0.000000 0.000000 0.000000
0.000000 0.000000 0.000000
0.000000 0.000000 0.000000
0.000000 0.000000 0.000000
0.000000 0.000000 0.000000
0.000000 0.000000 0.000000
0.000000 0.000000 0.000000
0.000000 0.000000 0.000000
0.000000 0.000000 0.000000
0.000000 0.000000 0.000000
0.000000 0.000000 0.000000
0.000000 0.000000 0.000000
0.000000 0.000000 0.000000
0.000000 0.000000 0.000000
0.000000 0.000000 0.000000
0.000000 0.000000 0.000000
0.000000 0.000000 0.000000
0.000000 0.000000 0.000000
0.000000 0.000000 0.000000
0.000000 0.000000 0.000000
0.000000 0.000000 0.000000
0.000000 0.000000 0.000000
0.000000 0.000000 0.000000
0.000000 0.000000 0.000000
0.000000 0.000000 0.000000
0.000000 0.000000 0.000000
0.000000 0.000000 0.000000
0.000000 0.000000 0.000000
0.000000 0.000000 0.000000
0.000000 0.000000 0.000000
0.000000 0.000000 0.000000
0.000000 0.000000 0.000000
0.000000 0.000000 0.000000
