Zr1 Ti66
1.0
6.309760 0.000000 0.000000
0.000000 9.464640 0.000000
0.000000 0.000000 18.918326
Ti Zr
66 1
Selective dynamics
direct
0.108947 0.035472 0.498444 F F F Ti
0.639734 0.034737 0.497845 F F F Ti
0.123590 0.042735 0.658112 F F F Ti
0.624928 0.042366 0.658573 F F F Ti
0.125071 0.042479 0.816945 F F F Ti
0.624695 0.042496 0.817019 F F F Ti
0.098374 0.387208 0.498610 F F F Ti
0.658811 0.394485 0.497875 F F F Ti
0.124092 0.376336 0.658003 F F F Ti
0.626241 0.377603 0.658931 F F F Ti
0.125131 0.375300 0.816862 F F F Ti
0.624732 0.375349 0.817072 F F F Ti
0.123879 0.710064 0.499772 F F F Ti
0.623102 0.711372 0.499771 F F F Ti
0.126149 0.710052 0.659102 F F F Ti
0.622922 0.710369 0.659309 F F F Ti
0.125232 0.708950 0.817297 F F F Ti
0.624566 0.709001 0.817343 F F F Ti
0.868895 0.209458 0.579212 F F F Ti
0.374705 0.209320 0.737019 F F F Ti
0.874796 0.209142 0.737648 F F F Ti
0.374902 0.208696 0.896118 F F F Ti
0.875052 0.208701 0.896234 F F F Ti
0.374615 0.545051 0.578945 F F F Ti
0.874774 0.547968 0.581598 F F F Ti
0.374705 0.542295 0.737825 F F F Ti
0.875177 0.542766 0.738377 F F F Ti
0.374940 0.541791 0.896285 F F F Ti
0.875046 0.541827 0.896383 F F F Ti
0.374244 0.876936 0.578826 F F F Ti
0.873828 0.874189 0.580234 F F F Ti
0.374469 0.876486 0.737822 F F F Ti
0.874882 0.875993 0.738136 F F F Ti
0.374960 0.875577 0.896330 F F F Ti
0.874983 0.875521 0.896394 F F F Ti
0.125414 0.625138 0.356210 F F F Ti
0.623431 0.625896 0.355833 F F F Ti
0.125108 0.625069 0.118545 F F F Ti
0.624797 0.625084 0.118512 F F F Ti
0.123496 0.124644 0.355943 F F F Ti
0.627707 0.124213 0.355209 F F F Ti
0.125161 0.125027 0.118513 F F F Ti
0.624785 0.125013 0.118456 F F F Ti
0.125116 0.375026 0.039440 F F F Ti
0.624808 0.375051 0.039426 F F F Ti
0.125060 0.875200 0.039432 F F F Ti
0.624765 0.875174 0.039411 F F F Ti
0.126144 0.374948 0.276832 F F F Ti
0.623827 0.375220 0.276438 F F F Ti
0.124896 0.874959 0.276870 F F F Ti
0.624506 0.874724 0.276647 F F F Ti
0.374891 0.875028 0.158142 F F F Ti
0.874964 0.874942 0.158057 F F F Ti
0.374944 0.374985 0.158105 F F F Ti
0.875190 0.375085 0.158046 F F F Ti
0.874072 0.375410 0.392883 F F F Ti
0.374224 0.875284 0.395761 F F F Ti
0.874380 0.872723 0.394945 F F F Ti
0.374701 0.625045 0.237315 F F F Ti
0.875069 0.625024 0.237173 F F F Ti
0.374921 0.625051 -0.000274 F F F Ti
0.874889 0.625103 -0.000207 F F F Ti
0.374893 0.124908 0.237382 F F F Ti
0.875043 0.124892 0.236933 F F F Ti
0.374956 0.125215 -0.000392 F F F Ti
0.874832 0.125168 -0.000313 F F F Ti
0.388844 0.239712 0.528795 T T T Zr

0.000000 0.000000 0.000000
0.000000 0.000000 0.000000
0.000000 0.000000 0.000000
0.000000 0.000000 0.000000
0.000000 0.000000 0.000000
0.000000 0.000000 0.000000
0.000000 0.000000 0.000000
0.000000 0.000000 0.000000
0.000000 0.000000 0.000000
0.000000 0.000000 0.000000
0.000000 0.000000 0.000000
0.000000 0.000000 0.000000
0.000000 0.000000 0.000000
0.000000 0.000000 0.000000
0.000000 0.000000 0.000000
0.000000 0.000000 0.000000
0.000000 0.000000 0.000000
0.000000 0.000000 0.000000
0.000000 0.000000 0.000000
0.000000 0.000000 0.000000
0.000000 0.000000 0.000000
0.000000 0.000000 0.000000
0.000000 0.000000 0.000000
0.000000 0.000000 0.000000
0.000000 0.000000 0.000000
0.000000 0.000000 0.000000
0.000000 0.000000 0.000000
0.000000 0.000000 0.000000
0.000000 0.000000 0.000000
0.000000 0.000000 0.000000
0.000000 0.000000 0.000000
0.000000 0.000000 0.000000
0.000000 0.000000 0.000000
0.000000 0.000000 0.000000
0.000000 0.000000 0.000000
0.000000 0.000000 0.000000
0.000000 0.000000 0.000000
0.000000 0.000000 0.000000
0.000000 0.000000 0.000000
0.000000 0.000000 0.000000
0.000000 0.000000 0.000000
0.000000 0.000000 0.000000
0.000000 0.000000 0.000000
0.000000 0.000000 0.000000
0.000000 0.000000 0.000000
0.000000 0.000000 0.000000
0.000000 0.000000 0.000000
0.000000 0.000000 0.000000
0.000000 0.000000 0.000000
0.000000 0.000000 0.000000
0.000000 0.000000 0.000000
0.000000 0.000000 0.000000
0.000000 0.000000 0.000000
0.000000 0.000000 0.000000
0.000000 0.000000 0.000000
0.000000 0.000000 0.000000
0.000000 0.000000 0.000000
0.000000 0.000000 0.000000
0.000000 0.000000 0.000000
0.000000 0.000000 0.000000
0.000000 0.000000 0.000000
0.000000 0.000000 0.000000
0.000000 0.000000 0.000000
0.000000 0.000000 0.000000
0.000000 0.000000 0.000000
0.000000 0.000000 0.000000
0.000000 0.000000 0.000000
