Ti66 Mo1
1.0
6.309760 0.000000 0.000000
0.000000 9.464640 0.000000
0.000000 0.000000 18.918326
Ti Mo
66 1
Selective dynamics
direct
0.133134 0.044470 0.479575 T T T Ti
0.629585 0.063874 0.488432 T T T Ti
0.125866 0.064431 0.651140 T T T Ti
0.625493 0.077332 0.644178 T T T Ti
0.125176 0.042224 0.817987 F F F Ti
0.625032 0.042352 0.818013 F F F Ti
0.623604 0.389853 0.483734 T T T Ti
0.124697 0.377418 0.656093 T T T Ti
0.624410 0.383582 0.641686 T T T Ti
0.124786 0.376071 0.817985 F F F Ti
0.624893 0.376150 0.818093 F F F Ti
0.125953 0.748281 0.488312 T T T Ti
0.621223 0.729325 0.500640 T T T Ti
0.125292 0.707348 0.643402 T T T Ti
0.623972 0.705648 0.649524 T T T Ti
0.124840 0.709715 0.817848 F F F Ti
0.624705 0.709570 0.817931 F F F Ti
0.341369 0.237344 0.553399 T T T Ti
0.910496 0.237889 0.553782 T T T Ti
0.375500 0.208981 0.739121 F F F Ti
0.874759 0.208909 0.739134 F F F Ti
0.375029 0.209441 0.896838 F F F Ti
0.874991 0.209408 0.896832 F F F Ti
0.343322 0.531877 0.552720 T T T Ti
0.905063 0.533131 0.552951 T T T Ti
0.374802 0.543337 0.738920 F F F Ti
0.874756 0.543473 0.738887 F F F Ti
0.374782 0.542964 0.896904 F F F Ti
0.874892 0.543005 0.896898 F F F Ti
0.382572 0.901338 0.574874 T T T Ti
0.869133 0.900669 0.574821 T T T Ti
0.375960 0.876217 0.738703 F F F Ti
0.874055 0.876144 0.738655 F F F Ti
0.375039 0.876168 0.896995 F F F Ti
0.874820 0.876171 0.896968 F F F Ti
0.128155 0.597695 0.375952 T T T Ti
0.620235 0.616176 0.375552 T T T Ti
0.125710 0.629403 0.118700 F F F Ti
0.624987 0.629293 0.118486 F F F Ti
0.640800 0.118971 0.361413 T T T Ti
0.126588 0.129242 0.118651 F F F Ti
0.625564 0.129047 0.118294 F F F Ti
0.125661 0.377747 0.039209 F F F Ti
0.625361 0.377728 0.039171 F F F Ti
0.125164 0.877804 0.039750 F F F Ti
0.624918 0.877663 0.039667 F F F Ti
0.127600 0.385718 0.276856 T T T Ti
0.627349 0.382913 0.284137 T T T Ti
0.125727 0.861063 0.281867 T T T Ti
0.625778 0.878579 0.274414 T T T Ti
0.375404 0.880411 0.158540 F F F Ti
0.875230 0.879771 0.158263 F F F Ti
0.375867 0.380422 0.157641 F F F Ti
0.876591 0.381277 0.157335 F F F Ti
0.352908 0.328158 0.399364 T T T Ti
0.894195 0.342474 0.400420 T T T Ti
0.400973 0.873233 0.395606 T T T Ti
0.849400 0.867791 0.396283 T T T Ti
0.380871 0.626578 0.248315 T T T Ti
0.870098 0.626836 0.248511 T T T Ti
0.374880 0.627435 0.000119 F F F Ti
0.875178 0.627450 0.000128 F F F Ti
0.386716 0.133408 0.247274 T T T Ti
0.866453 0.133872 0.244786 T T T Ti
0.375311 0.126850 0.000174 F F F Ti
0.875483 0.126852 0.000179 F F F Ti
0.085840 0.148353 0.376941 T T T Mo

0.000000 0.000000 0.000000
0.000000 0.000000 0.000000
0.000000 0.000000 0.000000
0.000000 0.000000 0.000000
0.000000 0.000000 0.000000
0.000000 0.000000 0.000000
0.000000 0.000000 0.000000
0.000000 0.000000 0.000000
0.000000 0.000000 0.000000
0.000000 0.000000 0.000000
0.000000 0.000000 0.000000
0.000000 0.000000 0.000000
0.000000 0.000000 0.000000
0.000000 0.000000 0.000000
0.000000 0.000000 0.000000
0.000000 0.000000 0.000000
0.000000 0.000000 0.000000
0.000000 0.000000 0.000000
0.000000 0.000000 0.000000
0.000000 0.000000 0.000000
0.000000 0.000000 0.000000
0.000000 0.000000 0.000000
0.000000 0.000000 0.000000
0.000000 0.000000 0.000000
0.000000 0.000000 0.000000
0.000000 0.000000 0.000000
0.000000 0.000000 0.000000
0.000000 0.000000 0.000000
0.000000 0.000000 0.000000
0.000000 0.000000 0.000000
0.000000 0.000000 0.000000
0.000000 0.000000 0.000000
0.000000 0.000000 0.000000
0.000000 0.000000 0.000000
0.000000 0.000000 0.000000
0.000000 0.000000 0.000000
0.000000 0.000000 0.000000
0.000000 0.000000 0.000000
0.000000 0.000000 0.000000
0.000000 0.000000 0.000000
0.000000 0.000000 0.000000
0.000000 0.000000 0.000000
0.000000 0.000000 0.000000
0.000000 0.000000 0.000000
0.000000 0.000000 0.000000
0.000000 0.000000 0.000000
0.000000 0.000000 0.000000
0.000000 0.000000 0.000000
0.000000 0.000000 0.000000
0.000000 0.000000 0.000000
0.000000 0.000000 0.000000
0.000000 0.000000 0.000000
0.000000 0.000000 0.000000
0.000000 0.000000 0.000000
0.000000 0.000000 0.000000
0.000000 0.000000 0.000000
0.000000 0.000000 0.000000
0.000000 0.000000 0.000000
0.000000 0.000000 0.000000
0.000000 0.000000 0.000000
0.000000 0.000000 0.000000
0.000000 0.000000 0.000000
0.000000 0.000000 0.000000
0.000000 0.000000 0.000000
0.000000 0.000000 0.000000
0.000000 0.000000 0.000000
0.000000 0.000000 0.000000
