Ti82 Cr1
1.0
6.391540 0.000000 0.000000
0.000000 9.587310 0.000000
0.000000 0.000000 23.271695
Ti Cr
82 1
Selective dynamics
direct
0.123401 0.083390 0.581460 F F F Ti
0.624049 0.083571 0.580459 F F F Ti
0.124946 0.083355 0.709687 F F F Ti
0.624840 0.083366 0.709548 F F F Ti
0.125001 0.083340 0.838463 F F F Ti
0.624995 0.083343 0.838444 F F F Ti
0.124825 0.418251 0.581790 F F F Ti
0.625205 0.416924 0.580717 F F F Ti
0.124991 0.416789 0.709761 F F F Ti
0.624917 0.416721 0.709633 F F F Ti
0.124999 0.416673 0.838481 F F F Ti
0.624985 0.416668 0.838465 F F F Ti
0.124809 0.749813 0.581087 F F F Ti
0.625079 0.750278 0.580683 F F F Ti
0.124972 0.750106 0.709691 F F F Ti
0.624920 0.750160 0.709635 F F F Ti
0.124990 0.750030 0.838476 F F F Ti
0.624984 0.750039 0.838468 F F F Ti
0.375150 0.250164 0.645218 F F F Ti
0.874382 0.250095 0.645255 F F F Ti
0.375060 0.250003 0.774041 F F F Ti
0.874889 0.249991 0.774039 F F F Ti
0.375021 0.249979 0.902867 F F F Ti
0.875009 0.249978 0.902865 F F F Ti
0.375625 0.583729 0.645326 F F F Ti
0.874369 0.583667 0.645384 F F F Ti
0.375069 0.583408 0.774076 F F F Ti
0.874898 0.583388 0.774077 F F F Ti
0.375008 0.583321 0.902876 F F F Ti
0.874990 0.583316 0.902875 F F F Ti
0.375079 0.916711 0.645150 F F F Ti
0.874494 0.916709 0.645176 F F F Ti
0.375024 0.916700 0.774029 F F F Ti
0.874902 0.916703 0.774023 F F F Ti
0.375004 0.916682 0.902861 F F F Ti
0.875001 0.916682 0.902859 F F F Ti
0.636485 0.167185 0.385551 F F F Ti
0.124331 0.665146 0.386515 F F F Ti
0.628775 0.665150 0.386517 F F F Ti
0.125034 0.166658 -0.000010 F F F Ti
0.625031 0.166653 -0.000008 F F F Ti
0.125022 0.666654 -0.000031 F F F Ti
0.625039 0.666653 -0.000027 F F F Ti
0.125082 0.833317 0.096598 F F F Ti
0.625181 0.833319 0.096603 F F F Ti
0.123099 0.828960 0.483817 F F F Ti
0.626315 0.833334 0.483397 F F F Ti
0.125127 0.333270 0.096650 F F F Ti
0.625105 0.333281 0.096650 F F F Ti
0.115882 0.344470 0.485447 F F F Ti
0.627061 0.334488 0.483414 F F F Ti
0.376763 0.584446 0.483601 F F F Ti
0.873169 0.584577 0.483623 F F F Ti
0.375086 0.583252 0.096593 F F F Ti
0.875174 0.583218 0.096595 F F F Ti
0.375122 0.083331 0.096643 F F F Ti
0.875228 0.083346 0.096654 F F F Ti
0.874580 0.083614 0.483853 F F F Ti
0.377806 0.419346 0.386485 F F F Ti
0.877368 0.416325 0.386674 F F F Ti
0.385122 0.904962 0.384114 F F F Ti
0.878764 0.916517 0.386849 F F F Ti
0.375018 0.416633 -0.000013 F F F Ti
0.875027 0.416623 -0.000011 F F F Ti
0.375029 0.916666 -0.000015 F F F Ti
0.875034 0.916678 -0.000013 F F F Ti
0.377217 0.082671 0.289796 F F F Ti
0.878982 0.083063 0.290226 F F F Ti
0.125564 0.166607 0.193362 F F F Ti
0.625685 0.166522 0.193323 F F F Ti
0.126429 0.333001 0.290144 F F F Ti
0.625945 0.333355 0.289787 F F F Ti
0.375219 0.416474 0.193285 F F F Ti
0.875585 0.416378 0.193313 F F F Ti
0.375673 0.583103 0.289693 F F F Ti
0.876244 0.582664 0.289799 F F F Ti
0.125167 0.666408 0.193139 F F F Ti
0.625500 0.666379 0.193126 F F F Ti
0.125050 0.832493 0.289638 F F F Ti
0.628387 0.832565 0.289416 F F F Ti
0.375410 0.916509 0.193223 F F F Ti
0.875562 0.916767 0.193270 F F F Ti
0.262413 0.120869 0.434948 T T T Cr

0.000000 0.000000 0.000000
0.000000 0.000000 0.000000
0.000000 0.000000 0.000000
0.000000 0.000000 0.000000
0.000000 0.000000 0.000000
0.000000 0.000000 0.000000
0.000000 0.000000 0.000000
0.000000 0.000000 0.000000
0.000000 0.000000 0.000000
0.000000 0.000000 0.000000
0.000000 0.000000 0.000000
0.000000 0.000000 0.000000
0.000000 0.000000 0.000000
0.000000 0.000000 0.000000
0.000000 0.000000 0.000000
0.000000 0.000000 0.000000
0.000000 0.000000 0.000000
0.000000 0.000000 0.000000
0.000000 0.000000 0.000000
0.000000 0.000000 0.000000
0.000000 0.000000 0.000000
0.000000 0.000000 0.000000
0.000000 0.000000 0.000000
0.000000 0.000000 0.000000
0.000000 0.000000 0.000000
0.000000 0.000000 0.000000
0.000000 0.000000 0.000000
0.000000 0.000000 0.000000
0.000000 0.000000 0.000000
0.000000 0.000000 0.000000
0.000000 0.000000 0.000000
0.000000 0.000000 0.000000
0.000000 0.000000 0.000000
0.000000 0.000000 0.000000
0.000000 0.000000 0.000000
0.000000 0.000000 0.000000
0.000000 0.000000 0.000000
0.000000 0.000000 0.000000
0.000000 0.000000 0.000000
0.000000 0.000000 0.000000
0.000000 0.000000 0.000000
0.000000 0.000000 0.000000
0.000000 0.000000 0.000000
0.000000 0.000000 0.000000
0.000000 0.000000 0.000000
0.000000 0.000000 0.000000
0.000000 0.000000 0.000000
0.000000 0.000000 0.000000
0.000000 0.000000 0.000000
0.000000 0.000000 0.000000
0.000000 0.000000 0.000000
0.000000 0.000000 0.000000
0.000000 0.000000 0.000000
0.000000 0.000000 0.000000
0.000000 0.000000 0.000000
0.000000 0.000000 0.000000
0.000000 0.000000 0.000000
0.000000 0.000000 0.000000
0.000000 0.000000 0.000000
0.000000 0.000000 0.000000
0.000000 0.000000 0.000000
0.000000 0.000000 0.000000
0.000000 0.000000 0.000000
0.000000 0.000000 0.000000
0.000000 0.000000 0.000000
0.000000 0.000000 0.000000
0.000000 0.000000 0.000000
0.000000 0.000000 0.000000
0.000000 0.000000 0.000000
0.000000 0.000000 0.000000
0.000000 0.000000 0.000000
0.000000 0.000000 0.000000
0.000000 0.000000 0.000000
0.000000 0.000000 0.000000
0.000000 0.000000 0.000000
0.000000 0.000000 0.000000
0.000000 0.000000 0.000000
0.000000 0.000000 0.000000
0.000000 0.000000 0.000000
0.000000 0.000000 0.000000
0.000000 0.000000 0.000000
0.000000 0.000000 0.000000
0.000000 0.000000 0.000000
