total_structure
1.0
   3.5062000000000002    0.0000000000000000    0.0000000000000002
   0.0000000000000019   12.0001999999999995    0.0000000000000007
   0.0000000000000000    0.0000000000000000   34.8249410619999935
Cr Fe N
24 36 24
Selective dynamics
direct
   0.1485400000000000    0.0029600000000000    0.3236409889376197 T T T Cr
   0.6485400000000000    0.3779600000000000    0.2587879457126761 T T T Cr
   0.6485400000000000    0.1279600000000000    0.2587879457126761 T T T Cr
   0.1485400000000000    0.2529600000000000    0.3236409889376197 T T T Cr
   0.1485400000000000    0.0029600000000000    0.1939265794585712 F F F Cr
   0.6485400000000000    0.3779600000000000    0.1290652132044662 F F F Cr
   0.6485400000000000    0.1279600000000000    0.1290652132044662 F F F Cr
   0.1485400000000000    0.2529600000000000    0.1939265794585712 F F F Cr
   0.1485400000000000    0.5029600000000000    0.3236409889376197 T T T Cr
   0.6485400000000000    0.8779600000000000    0.2587879457126761 T T T Cr
   0.6485400000000000    0.6279599999999999    0.2587879457126761 T T T Cr
   0.1485400000000000    0.7529599999999999    0.3236409889376197 T T T Cr
   0.1485400000000000    0.5029600000000000    0.1939265794585712 F F F Cr
   0.6485400000000000    0.8779600000000000    0.1290652132044662 F F F Cr
   0.6485400000000000    0.6279599999999999    0.1290652132044662 F F F Cr
   0.1485400000000000    0.7529599999999999    0.1939265794585712 F F F Cr
   0.1320800000000000    0.0046100000000000    0.0643037233002970 F F F Cr
   0.6320800000000000    0.3796100000000000    0.9994506800753533 F F F Cr
   0.6320800000000000    0.1296100000000000    0.9994506800753533 F F F Cr
   0.1320800000000000    0.2546100000000000    0.0643037233002970 F F F Cr
   0.1320800000000000    0.5046100000000000    0.0643037233002970 F F F Cr
   0.6320800000000000    0.8796100000000000    0.9994506800753533 F F F Cr
   0.6320800000000000    0.6296100000000000    0.9994506800753533 F F F Cr
   0.1320800000000000    0.7546100000000000    0.0643037233002970 F F F Cr
   0.1418600000000000    0.7213999999999999    0.8195484047535934 F F F Fe
   0.6418599999999999    0.5572600000000000    0.8087950510771781 F F F Fe
   0.6418599999999999    0.7421100000000000    0.7759107628608340 F F F Fe
   0.1418600000000000    0.5779800000000000    0.7651574091844189 F F F Fe
   0.1418600000000000    0.3931299999999999    0.7980416974007629 F F F Fe
   0.6418600000000000    0.2289900000000000    0.7872966667535090 F F F Fe
   0.6418600000000000    0.4138399999999999    0.7544123785371649 F F F Fe
   0.1418600000000000    0.2497100000000000    0.7436590248607498 F F F Fe
   0.1418600000000000    0.0648600000000000    0.7765433130770938 F F F Fe
   0.6418600000000000    0.9007199999999999    0.7657982824298398 F F F Fe
   0.6418600000000000    0.0855700000000000    0.7329139942134960 F F F Fe
   0.1418600000000000    0.9214400000000000    0.7221606405370807 F F F Fe
   0.1418600000000000    0.7628300000000000    0.7322731209680750 F F F Fe
   0.6418600000000000    0.5986900000000001    0.7215197672916597 F F F Fe
   0.6418599999999999    0.7835399999999999    0.6886354790753157 F F F Fe
   0.1418600000000000    0.6194100000000000    0.6778904484280618 F F F Fe
   0.1418600000000000    0.4345600000000000    0.7107747366444058 F F F Fe
   0.6418600000000000    0.2704200000000000    0.7000213829679907 F F F Fe
   0.6418600000000000    0.4552700000000000    0.6671370947516466 F F F Fe
   0.1418600000000000    0.2911400000000000    0.6563920641043928 F F F Fe
   0.1418600000000000    0.1062900000000000    0.6892763523207367 F F F Fe
   0.6418599999999999    0.9421499999999999    0.6785229986443215 F F F Fe
   0.6418600000000000    0.1270000000000000    0.6456387104279775 T T T Fe
   0.1418600000000000    0.9628699999999999    0.6348936797807238 T T T Fe
   0.1418600000000000    0.8042500000000000    0.6449978371825565 T T T Fe
   0.6418600000000000    0.6401200000000000    0.6342528065353027 T T T Fe
   0.6418600000000000    0.8249700000000000    0.6013685183189587 T T T Fe
   0.1418600000000000    0.6608299999999999    0.5906151646425435 T T T Fe
   0.1418600000000000    0.4759800000000000    0.6234994528588875 T T T Fe
   0.6418599999999999    0.3118500000000000    0.6127544222116336 T T T Fe
   0.6418600000000000    0.4966999999999999    0.5798701339952896 T T T Fe
   0.1418600000000000    0.3325600000000000    0.5691167803188744 T T T Fe
   0.1418600000000000    0.1477100000000000    0.6020010685352184 T T T Fe
   0.6418599999999999    0.9835800000000000    0.5912560378879645 T T T Fe
   0.6418600000000000    0.1684300000000000    0.5583717496716205 T T T Fe
   0.1418600000000000    0.0042900000000000    0.5476183959952053 T T T Fe
   0.6485400000000000    0.3779600000000000    0.3236409889376197 T T T N
   0.1485400000000000    0.0029600000000000    0.2587879457126761 T T T N
   0.1485400000000000    0.2529600000000000    0.2587879457126761 T T T N
   0.6485400000000000    0.1279600000000000    0.3236409889376197 T T T N
   0.6485400000000000    0.3779600000000000    0.1939265794585712 F F F N
   0.1485400000000000    0.0029600000000000    0.1290652132044662 F F F N
   0.1485400000000000    0.2529600000000000    0.1290652132044662 F F F N
   0.6485400000000000    0.1279600000000000    0.1939265794585712 F F F N
   0.6485400000000000    0.8779600000000000    0.3236409889376197 T T T N
   0.1485400000000000    0.5029600000000000    0.2587879457126761 T T T N
   0.1485400000000000    0.7529599999999999    0.2587879457126761 T T T N
   0.6485400000000000    0.6279599999999999    0.3236409889376197 T T T N
   0.6485400000000000    0.8779600000000000    0.1939265794585712 F F F N
   0.1485400000000000    0.5029600000000000    0.1290652132044662 F F F N
   0.1485400000000000    0.7529599999999999    0.1290652132044662 F F F N
   0.6485400000000000    0.6279599999999999    0.1939265794585712 F F F N
   0.6320800000000000    0.3796100000000000    0.0643037233002970 F F F N
   0.1320800000000000    0.0046100000000000    0.9994506800753533 F F F N
   0.1320800000000000    0.2546100000000000    0.9994506800753533 F F F N
   0.6320800000000000    0.1296100000000000    0.0643037233002970 F F F N
   0.6320800000000000    0.8796100000000000    0.0643037233002970 F F F N
   0.1320800000000000    0.5046100000000000    0.9994506800753533 F F F N
   0.1320800000000000    0.7546100000000000    0.9994506800753533 F F F N
   0.6320800000000000    0.6296100000000000    0.0643037233002970 F F F N
