Ti67
1.0
6.309760 0.000000 0.000000
0.000000 9.464640 0.000000
0.000000 0.000000 18.918326
Ti
67
Selective dynamics
direct
0.123465 0.039918 0.501456 F F F Ti
0.626974 0.040715 0.500468 F F F Ti
0.124746 0.041221 0.658967 F F F Ti
0.624797 0.041207 0.658885 F F F Ti
0.124948 0.041527 0.817267 F F F Ti
0.624947 0.041527 0.817261 F F F Ti
0.116755 0.377710 0.503030 F F F Ti
0.625512 0.375067 0.501040 F F F Ti
0.124424 0.375031 0.659222 F F F Ti
0.624544 0.374946 0.659108 F F F Ti
0.124907 0.375021 0.817312 F F F Ti
0.624877 0.375012 0.817316 F F F Ti
0.125795 0.706541 0.499723 F F F Ti
0.623255 0.707384 0.499723 F F F Ti
0.125022 0.708168 0.658722 F F F Ti
0.624248 0.708361 0.658773 F F F Ti
0.124953 0.708365 0.817233 F F F Ti
0.624836 0.708394 0.817243 F F F Ti
0.374750 0.208073 0.580024 F F F Ti
0.873498 0.207776 0.580120 F F F Ti
0.374921 0.208156 0.738131 F F F Ti
0.874681 0.208146 0.738174 F F F Ti
0.374999 0.208307 0.896383 F F F Ti
0.874930 0.208316 0.896387 F F F Ti
0.374944 0.541601 0.579749 F F F Ti
0.872974 0.542637 0.580067 F F F Ti
0.374925 0.541703 0.738108 F F F Ti
0.874659 0.541794 0.738156 F F F Ti
0.374977 0.541747 0.896412 F F F Ti
0.874895 0.541754 0.896410 F F F Ti
0.375101 0.874510 0.579405 F F F Ti
0.874747 0.873954 0.579499 F F F Ti
0.374878 0.874861 0.738013 F F F Ti
0.874844 0.874773 0.738016 F F F Ti
0.375024 0.875008 0.896435 F F F Ti
0.874940 0.875000 0.896433 F F F Ti
0.124190 0.626164 0.356493 F F F Ti
0.623453 0.625500 0.356538 F F F Ti
0.125041 0.625659 0.118564 F F F Ti
0.624907 0.625544 0.118597 F F F Ti
0.644637 0.120917 0.355350 F F F Ti
0.125569 0.125223 0.118497 F F F Ti
0.625716 0.125024 0.118411 F F F Ti
0.125185 0.375197 0.039237 F F F Ti
0.624823 0.375179 0.039154 F F F Ti
0.125086 0.875246 0.039480 F F F Ti
0.625060 0.875145 0.039471 F F F Ti
0.116995 0.380121 0.273762 F F F Ti
0.627912 0.375565 0.276294 F F F Ti
0.126199 0.876742 0.277599 F F F Ti
0.625732 0.874786 0.277256 F F F Ti
0.375227 0.875241 0.158404 F F F Ti
0.875637 0.875414 0.158375 F F F Ti
0.375630 0.375510 0.157907 F F F Ti
0.873574 0.375638 0.157321 F F F Ti
0.867341 0.378449 0.396669 F F F Ti
0.375800 0.876628 0.396440 F F F Ti
0.877630 0.874638 0.396628 F F F Ti
0.375036 0.625788 0.237561 F F F Ti
0.873968 0.626694 0.237390 F F F Ti
0.374966 0.625302 -0.000157 F F F Ti
0.874923 0.625303 -0.000172 F F F Ti
0.378049 0.124969 0.236791 F F F Ti
0.877424 0.125400 0.236881 F F F Ti
0.375132 0.124943 -0.000185 F F F Ti
0.875099 0.124943 -0.000194 F F F Ti
0.273119 0.261615 0.382858 T T T Ti

0.000000 0.000000 0.000000
0.000000 0.000000 0.000000
0.000000 0.000000 0.000000
0.000000 0.000000 0.000000
0.000000 0.000000 0.000000
0.000000 0.000000 0.000000
0.000000 0.000000 0.000000
0.000000 0.000000 0.000000
0.000000 0.000000 0.000000
0.000000 0.000000 0.000000
0.000000 0.000000 0.000000
0.000000 0.000000 0.000000
0.000000 0.000000 0.000000
0.000000 0.000000 0.000000
0.000000 0.000000 0.000000
0.000000 0.000000 0.000000
0.000000 0.000000 0.000000
0.000000 0.000000 0.000000
0.000000 0.000000 0.000000
0.000000 0.000000 0.000000
0.000000 0.000000 0.000000
0.000000 0.000000 0.000000
0.000000 0.000000 0.000000
0.000000 0.000000 0.000000
0.000000 0.000000 0.000000
0.000000 0.000000 0.000000
0.000000 0.000000 0.000000
0.000000 0.000000 0.000000
0.000000 0.000000 0.000000
0.000000 0.000000 0.000000
0.000000 0.000000 0.000000
0.000000 0.000000 0.000000
0.000000 0.000000 0.000000
0.000000 0.000000 0.000000
0.000000 0.000000 0.000000
0.000000 0.000000 0.000000
0.000000 0.000000 0.000000
0.000000 0.000000 0.000000
0.000000 0.000000 0.000000
0.000000 0.000000 0.000000
0.000000 0.000000 0.000000
0.000000 0.000000 0.000000
0.000000 0.000000 0.000000
0.000000 0.000000 0.000000
0.000000 0.000000 0.000000
0.000000 0.000000 0.000000
0.000000 0.000000 0.000000
0.000000 0.000000 0.000000
0.000000 0.000000 0.000000
0.000000 0.000000 0.000000
0.000000 0.000000 0.000000
0.000000 0.000000 0.000000
0.000000 0.000000 0.000000
0.000000 0.000000 0.000000
0.000000 0.000000 0.000000
0.000000 0.000000 0.000000
0.000000 0.000000 0.000000
0.000000 0.000000 0.000000
0.000000 0.000000 0.000000
0.000000 0.000000 0.000000
0.000000 0.000000 0.000000
0.000000 0.000000 0.000000
0.000000 0.000000 0.000000
0.000000 0.000000 0.000000
0.000000 0.000000 0.000000
0.000000 0.000000 0.000000
0.000000 0.000000 0.000000
