alpha_Ti
1.0
8.805261 0.000000 0.000000
-4.402631 7.625580 0.000000
0.000000 0.000000 26.883422
Ti
54
direct
0.111111 0.888889 -0.000000 Ti
0.111111 0.888889 0.341818 Ti
0.111111 0.555556 -0.000000 Ti
0.222222 0.777778 0.085455 Ti
0.111111 0.555556 0.341818 Ti
0.444444 0.888889 -0.000000 Ti
0.111111 0.222222 -0.000000 Ti
0.222222 0.777778 0.427273 Ti
0.222222 0.444444 0.085455 Ti
0.444444 0.888889 0.341818 Ti
0.111111 0.222222 0.341818 Ti
0.444444 0.555556 -0.000000 Ti
0.222222 0.444444 0.427273 Ti
0.555556 0.777778 0.085455 Ti
0.222222 0.111111 0.085455 Ti
0.444444 0.555556 0.341818 Ti
0.777778 0.888889 -0.000000 Ti
0.444444 0.222222 -0.000000 Ti
0.555556 0.777778 0.427273 Ti
0.222222 0.111111 0.427273 Ti
0.555556 0.444444 0.085455 Ti
0.777778 0.888889 0.341818 Ti
0.444444 0.222222 0.341818 Ti
0.777778 0.555556 -0.000000 Ti
0.555556 0.444444 0.427273 Ti
0.888889 0.777778 0.085455 Ti
0.555556 0.111111 0.085455 Ti
0.777778 0.555556 0.341818 Ti
0.777778 0.222222 -0.000000 Ti
0.888889 0.777778 0.427273 Ti
0.555556 0.111111 0.427273 Ti
0.888889 0.444444 0.085455 Ti
0.777778 0.222222 0.341818 Ti
0.888889 0.444444 0.427273 Ti
0.888889 0.111111 0.085455 Ti
0.888889 0.111111 0.427273 Ti
0.111111 0.888889 0.170909 Ti
0.111111 0.555556 0.170909 Ti
0.222222 0.777778 0.256364 Ti
0.444444 0.888889 0.170909 Ti
0.111111 0.222222 0.170909 Ti
0.222222 0.444444 0.256364 Ti
0.444444 0.555556 0.170909 Ti
0.555556 0.777778 0.256364 Ti
0.222222 0.111111 0.256364 Ti
0.777778 0.888889 0.170909 Ti
0.444444 0.222222 0.170909 Ti
0.555556 0.444444 0.256364 Ti
0.777778 0.555556 0.170909 Ti
0.888889 0.777778 0.256364 Ti
0.555556 0.111111 0.256364 Ti
0.777778 0.222222 0.170909 Ti
0.888889 0.444444 0.256364 Ti
0.888889 0.111111 0.256364 Ti
