beta_Ti
1.0
6.309760 0.000000 0.000000
0.000000 9.464640 0.000000
0.000000 0.000000 25.000004
Ti
36
direct
0.125000 0.958333 0.500000 Ti
0.625000 0.958333 0.500000 Ti
0.125000 0.958333 0.620000 Ti
0.625000 0.958333 0.620000 Ti
0.125000 0.958333 0.740000 Ti
0.625000 0.958333 0.740000 Ti
0.125000 0.291667 0.500000 Ti
0.625000 0.291667 0.500000 Ti
0.125000 0.291667 0.620000 Ti
0.625000 0.291667 0.620000 Ti
0.125000 0.291667 0.740000 Ti
0.625000 0.291667 0.740000 Ti
0.125000 0.625000 0.500000 Ti
0.625000 0.625000 0.500000 Ti
0.125000 0.625000 0.620000 Ti
0.625000 0.625000 0.620000 Ti
0.125000 0.625000 0.740000 Ti
0.625000 0.625000 0.740000 Ti
0.375000 0.125000 0.560000 Ti
0.875000 0.125000 0.560000 Ti
0.375000 0.125000 0.680000 Ti
0.875000 0.125000 0.680000 Ti
0.375000 0.125000 0.800000 Ti
0.875000 0.125000 0.800000 Ti
0.375000 0.458333 0.560000 Ti
0.875000 0.458333 0.560000 Ti
0.375000 0.458333 0.680000 Ti
0.875000 0.458333 0.680000 Ti
0.375000 0.458333 0.800000 Ti
0.875000 0.458333 0.800000 Ti
0.375000 0.791667 0.560000 Ti
0.875000 0.791667 0.560000 Ti
0.375000 0.791667 0.680000 Ti
0.875000 0.791667 0.680000 Ti
0.375000 0.791667 0.800000 Ti
0.875000 0.791667 0.800000 Ti
