alpha_Ti
1.0
6.309760 0.000000 0.000000
0.000000 9.464640 0.000000
0.000000 0.000000 25.000004
Ti
32
direct
0.125000 0.625000 0.270000 Ti
0.625000 0.625000 0.270000 Ti
0.125000 0.625000 0.090000 Ti
0.625000 0.625000 0.090000 Ti
0.125000 0.125000 0.270000 Ti
0.625000 0.125000 0.270000 Ti
0.125000 0.125000 0.090000 Ti
0.625000 0.125000 0.090000 Ti
0.125000 0.375000 0.030000 Ti
0.625000 0.375000 0.030000 Ti
0.125000 0.875000 0.030000 Ti
0.625000 0.875000 0.030000 Ti
0.125000 0.375000 0.210000 Ti
0.625000 0.375000 0.210000 Ti
0.125000 0.875000 0.210000 Ti
0.625000 0.875000 0.210000 Ti
0.375000 0.875000 0.120000 Ti
0.875000 0.875000 0.120000 Ti
0.374999 0.375000 0.120000 Ti
0.874999 0.375000 0.120000 Ti
0.375000 0.375000 0.300000 Ti
0.875000 0.375000 0.300000 Ti
0.375000 0.875000 0.300000 Ti
0.875000 0.875000 0.300000 Ti
0.375000 0.625000 0.180000 Ti
0.875000 0.625000 0.180000 Ti
0.375000 0.625000 -0.000000 Ti
0.875000 0.625000 -0.000000 Ti
0.375000 0.125000 0.180000 Ti
0.875000 0.125000 0.180000 Ti
0.375000 0.125000 -0.000000 Ti
0.875000 0.125000 -0.000000 Ti
