Ti66 Mo1
1.0
6.309760 0.000000 0.000000
0.000000 9.464640 0.000000
0.000000 0.000000 18.918326
Ti Mo
66 1
Selective dynamics
direct
0.636061 0.040214 0.499859 F F F Ti
0.123944 0.041077 0.659770 F F F Ti
0.625162 0.041411 0.659011 F F F Ti
0.124944 0.041653 0.817441 F F F Ti
0.624819 0.041671 0.817401 F F F Ti
0.122714 0.380570 0.499773 F F F Ti
0.625334 0.375781 0.499866 F F F Ti
0.124874 0.375188 0.658779 F F F Ti
0.623840 0.375416 0.658948 F F F Ti
0.125051 0.374949 0.817343 F F F Ti
0.624793 0.374994 0.817375 F F F Ti
0.125562 0.708919 0.500227 F F F Ti
0.626081 0.707864 0.499944 F F F Ti
0.125113 0.707951 0.659028 F F F Ti
0.625685 0.707622 0.659204 F F F Ti
0.124987 0.708221 0.817438 F F F Ti
0.624946 0.708166 0.817487 F F F Ti
0.869314 0.211044 0.580716 F F F Ti
0.374867 0.208268 0.737988 F F F Ti
0.874543 0.208523 0.738277 F F F Ti
0.375007 0.208356 0.896545 F F F Ti
0.874914 0.208380 0.896586 F F F Ti
0.375412 0.541824 0.579517 F F F Ti
0.874256 0.542410 0.579689 F F F Ti
0.374866 0.541531 0.738163 F F F Ti
0.875076 0.541489 0.738231 F F F Ti
0.374981 0.541570 0.896602 F F F Ti
0.874975 0.541568 0.896613 F F F Ti
0.379720 0.871817 0.580574 F F F Ti
0.874934 0.873869 0.580117 F F F Ti
0.375238 0.874741 0.738294 F F F Ti
0.874637 0.874696 0.738330 F F F Ti
0.375020 0.874974 0.896621 F F F Ti
0.874908 0.874976 0.896633 F F F Ti
0.125165 0.625957 0.356874 F F F Ti
0.625121 0.625533 0.356711 F F F Ti
0.125057 0.625114 0.118951 F F F Ti
0.625032 0.625096 0.118944 F F F Ti
0.125396 0.125832 0.355702 F F F Ti
0.626976 0.125287 0.356477 F F F Ti
0.125108 0.125073 0.118888 F F F Ti
0.625045 0.125065 0.118855 F F F Ti
0.125018 0.375034 0.039688 F F F Ti
0.624948 0.375040 0.039679 F F F Ti
0.125016 0.875042 0.039708 F F F Ti
0.624955 0.875028 0.039699 F F F Ti
0.125070 0.375597 0.277315 F F F Ti
0.625196 0.375337 0.277285 F F F Ti
0.125357 0.875208 0.277418 F F F Ti
0.625665 0.875126 0.277355 F F F Ti
0.375131 0.875062 0.158536 F F F Ti
0.875095 0.875047 0.158522 F F F Ti
0.375084 0.375163 0.158504 F F F Ti
0.875048 0.375188 0.158478 F F F Ti
0.375627 0.376447 0.396106 F F F Ti
0.874272 0.376083 0.396081 F F F Ti
0.377186 0.874478 0.396108 F F F Ti
0.876554 0.875075 0.396363 F F F Ti
0.375063 0.625268 0.237852 F F F Ti
0.875185 0.625262 0.237860 F F F Ti
0.374982 0.625055 0.000070 F F F Ti
0.875004 0.625056 0.000078 F F F Ti
0.375590 0.125175 0.237678 F F F Ti
0.875026 0.125179 0.237594 F F F Ti
0.375015 0.125005 0.000030 F F F Ti
0.875014 0.124995 0.000051 F F F Ti
0.195948 0.086063 0.506327 T T T Mo

0.000000 0.000000 0.000000
0.000000 0.000000 0.000000
0.000000 0.000000 0.000000
0.000000 0.000000 0.000000
0.000000 0.000000 0.000000
0.000000 0.000000 0.000000
0.000000 0.000000 0.000000
0.000000 0.000000 0.000000
0.000000 0.000000 0.000000
0.000000 0.000000 0.000000
0.000000 0.000000 0.000000
0.000000 0.000000 0.000000
0.000000 0.000000 0.000000
0.000000 0.000000 0.000000
0.000000 0.000000 0.000000
0.000000 0.000000 0.000000
0.000000 0.000000 0.000000
0.000000 0.000000 0.000000
0.000000 0.000000 0.000000
0.000000 0.000000 0.000000
0.000000 0.000000 0.000000
0.000000 0.000000 0.000000
0.000000 0.000000 0.000000
0.000000 0.000000 0.000000
0.000000 0.000000 0.000000
0.000000 0.000000 0.000000
0.000000 0.000000 0.000000
0.000000 0.000000 0.000000
0.000000 0.000000 0.000000
0.000000 0.000000 0.000000
0.000000 0.000000 0.000000
0.000000 0.000000 0.000000
0.000000 0.000000 0.000000
0.000000 0.000000 0.000000
0.000000 0.000000 0.000000
0.000000 0.000000 0.000000
0.000000 0.000000 0.000000
0.000000 0.000000 0.000000
0.000000 0.000000 0.000000
0.000000 0.000000 0.000000
0.000000 0.000000 0.000000
0.000000 0.000000 0.000000
0.000000 0.000000 0.000000
0.000000 0.000000 0.000000
0.000000 0.000000 0.000000
0.000000 0.000000 0.000000
0.000000 0.000000 0.000000
0.000000 0.000000 0.000000
0.000000 0.000000 0.000000
0.000000 0.000000 0.000000
0.000000 0.000000 0.000000
0.000000 0.000000 0.000000
0.000000 0.000000 0.000000
0.000000 0.000000 0.000000
0.000000 0.000000 0.000000
0.000000 0.000000 0.000000
0.000000 0.000000 0.000000
0.000000 0.000000 0.000000
0.000000 0.000000 0.000000
0.000000 0.000000 0.000000
0.000000 0.000000 0.000000
0.000000 0.000000 0.000000
0.000000 0.000000 0.000000
0.000000 0.000000 0.000000
0.000000 0.000000 0.000000
0.000000 0.000000 0.000000
0.000000 0.000000 0.000000
