Ti67
1.0
6.309760 0.000000 0.000000
0.000000 9.464640 0.000000
0.000000 0.000000 18.918326
Ti
67
Selective dynamics
direct
0.108765 0.035459 0.498398 F F F Ti
0.639563 0.034827 0.497789 F F F Ti
0.123426 0.042713 0.658114 F F F Ti
0.624949 0.042333 0.658588 F F F Ti
0.125069 0.042515 0.816931 F F F Ti
0.624689 0.042530 0.817012 F F F Ti
0.097748 0.387391 0.498509 F F F Ti
0.659297 0.394758 0.497746 F F F Ti
0.124039 0.376370 0.657954 F F F Ti
0.626258 0.377688 0.658911 F F F Ti
0.125142 0.375311 0.816833 F F F Ti
0.624725 0.375365 0.817050 F F F Ti
0.123798 0.710119 0.499750 F F F Ti
0.623040 0.711466 0.499747 F F F Ti
0.126134 0.710088 0.659097 F F F Ti
0.622858 0.710410 0.659310 F F F Ti
0.125249 0.708960 0.817289 F F F Ti
0.624558 0.709011 0.817339 F F F Ti
0.868603 0.209486 0.579192 F F F Ti
0.374680 0.209350 0.736972 F F F Ti
0.874767 0.209181 0.737630 F F F Ti
0.374921 0.208718 0.896091 F F F Ti
0.875057 0.208726 0.896228 F F F Ti
0.374567 0.545170 0.578896 F F F Ti
0.874711 0.548096 0.581611 F F F Ti
0.374685 0.542304 0.737797 F F F Ti
0.875189 0.542794 0.738368 F F F Ti
0.374959 0.541790 0.896264 F F F Ti
0.875081 0.541822 0.896362 F F F Ti
0.374171 0.876910 0.578819 F F F Ti
0.873701 0.874207 0.580223 F F F Ti
0.374437 0.876512 0.737822 F F F Ti
0.874852 0.876002 0.738143 F F F Ti
0.374979 0.875599 0.896317 F F F Ti
0.875019 0.875548 0.896380 F F F Ti
0.125418 0.625154 0.356185 F F F Ti
0.623384 0.625931 0.355798 F F F Ti
0.125159 0.625072 0.118530 F F F Ti
0.624841 0.625090 0.118484 F F F Ti
0.123540 0.124666 0.355933 F F F Ti
0.627687 0.124230 0.355185 F F F Ti
0.125255 0.125032 0.118500 F F F Ti
0.624862 0.125012 0.118432 F F F Ti
0.125191 0.375035 0.039433 F F F Ti
0.624869 0.375050 0.039410 F F F Ti
0.125139 0.875205 0.039420 F F F Ti
0.624828 0.875189 0.039394 F F F Ti
0.126212 0.374957 0.276802 F F F Ti
0.623804 0.375222 0.276396 F F F Ti
0.124910 0.874962 0.276847 F F F Ti
0.624525 0.874739 0.276616 F F F Ti
0.374939 0.875030 0.158123 F F F Ti
0.875051 0.874940 0.158029 F F F Ti
0.374989 0.374989 0.158083 F F F Ti
0.875227 0.375087 0.158024 F F F Ti
0.874035 0.375423 0.392770 F F F Ti
0.374190 0.875301 0.395735 F F F Ti
0.874329 0.872717 0.394912 F F F Ti
0.374716 0.625056 0.237292 F F F Ti
0.875079 0.625032 0.237145 F F F Ti
0.374984 0.625053 -0.000295 F F F Ti
0.875135 0.625104 -0.000228 F F F Ti
0.374939 0.124907 0.237364 F F F Ti
0.875158 0.124890 0.236909 F F F Ti
0.375046 0.125230 -0.000416 F F F Ti
0.875183 0.125176 -0.000328 F F F Ti
0.388687 0.240964 0.530074 T T T Ti

0.000000 0.000000 0.000000
0.000000 0.000000 0.000000
0.000000 0.000000 0.000000
0.000000 0.000000 0.000000
0.000000 0.000000 0.000000
0.000000 0.000000 0.000000
0.000000 0.000000 0.000000
0.000000 0.000000 0.000000
0.000000 0.000000 0.000000
0.000000 0.000000 0.000000
0.000000 0.000000 0.000000
0.000000 0.000000 0.000000
0.000000 0.000000 0.000000
0.000000 0.000000 0.000000
0.000000 0.000000 0.000000
0.000000 0.000000 0.000000
0.000000 0.000000 0.000000
0.000000 0.000000 0.000000
0.000000 0.000000 0.000000
0.000000 0.000000 0.000000
0.000000 0.000000 0.000000
0.000000 0.000000 0.000000
0.000000 0.000000 0.000000
0.000000 0.000000 0.000000
0.000000 0.000000 0.000000
0.000000 0.000000 0.000000
0.000000 0.000000 0.000000
0.000000 0.000000 0.000000
0.000000 0.000000 0.000000
0.000000 0.000000 0.000000
0.000000 0.000000 0.000000
0.000000 0.000000 0.000000
0.000000 0.000000 0.000000
0.000000 0.000000 0.000000
0.000000 0.000000 0.000000
0.000000 0.000000 0.000000
0.000000 0.000000 0.000000
0.000000 0.000000 0.000000
0.000000 0.000000 0.000000
0.000000 0.000000 0.000000
0.000000 0.000000 0.000000
0.000000 0.000000 0.000000
0.000000 0.000000 0.000000
0.000000 0.000000 0.000000
0.000000 0.000000 0.000000
0.000000 0.000000 0.000000
0.000000 0.000000 0.000000
0.000000 0.000000 0.000000
0.000000 0.000000 0.000000
0.000000 0.000000 0.000000
0.000000 0.000000 0.000000
0.000000 0.000000 0.000000
0.000000 0.000000 0.000000
0.000000 0.000000 0.000000
0.000000 0.000000 0.000000
0.000000 0.000000 0.000000
0.000000 0.000000 0.000000
0.000000 0.000000 0.000000
0.000000 0.000000 0.000000
0.000000 0.000000 0.000000
0.000000 0.000000 0.000000
0.000000 0.000000 0.000000
0.000000 0.000000 0.000000
0.000000 0.000000 0.000000
0.000000 0.000000 0.000000
0.000000 0.000000 0.000000
0.000000 0.000000 0.000000
