total_Ti
1.0
6.309760 0.000000 0.000000
0.000000 9.464640 0.000000
0.000000 0.000000 20.000004
Ti
68
direct
0.125000 0.958333 0.500000 Ti
0.625000 0.958333 0.500000 Ti
0.125000 0.958333 0.650000 Ti
0.625000 0.958333 0.650000 Ti
0.125000 0.958333 0.800000 Ti
0.625000 0.958333 0.800000 Ti
0.125000 0.291667 0.500000 Ti
0.625000 0.291667 0.500000 Ti
0.125000 0.291667 0.650000 Ti
0.625000 0.291667 0.650000 Ti
0.125000 0.291667 0.800000 Ti
0.625000 0.291667 0.800000 Ti
0.125000 0.625000 0.500000 Ti
0.625000 0.625000 0.500000 Ti
0.125000 0.625000 0.650000 Ti
0.625000 0.625000 0.650000 Ti
0.125000 0.625000 0.800000 Ti
0.625000 0.625000 0.800000 Ti
0.375000 0.125000 0.575000 Ti
0.875000 0.125000 0.575000 Ti
0.375000 0.125000 0.725000 Ti
0.875000 0.125000 0.725000 Ti
0.375000 0.125000 0.875000 Ti
0.875000 0.125000 0.875000 Ti
0.375000 0.458333 0.575000 Ti
0.875000 0.458333 0.575000 Ti
0.375000 0.458333 0.725000 Ti
0.875000 0.458333 0.725000 Ti
0.375000 0.458333 0.875000 Ti
0.875000 0.458333 0.875000 Ti
0.375000 0.791667 0.575000 Ti
0.875000 0.791667 0.575000 Ti
0.375000 0.791667 0.725000 Ti
0.875000 0.791667 0.725000 Ti
0.375000 0.791667 0.875000 Ti
0.875000 0.791667 0.875000 Ti
0.125000 0.625000 0.337500 Ti
0.625000 0.625000 0.337500 Ti
0.125000 0.625000 0.112500 Ti
0.625000 0.625000 0.112500 Ti
0.125000 0.125000 0.337500 Ti
0.625000 0.125000 0.337500 Ti
0.125000 0.125000 0.112500 Ti
0.625000 0.125000 0.112500 Ti
0.125000 0.375000 0.037500 Ti
0.625000 0.375000 0.037500 Ti
0.125000 0.875000 0.037500 Ti
0.625000 0.875000 0.037500 Ti
0.125000 0.375000 0.262500 Ti
0.625000 0.375000 0.262500 Ti
0.125000 0.875000 0.262500 Ti
0.625000 0.875000 0.262500 Ti
0.375000 0.875000 0.150000 Ti
0.875000 0.875000 0.150000 Ti
0.374999 0.375000 0.150000 Ti
0.874999 0.375000 0.150000 Ti
0.375000 0.375000 0.375000 Ti
0.875000 0.375000 0.375000 Ti
0.375000 0.875000 0.375000 Ti
0.875000 0.875000 0.375000 Ti
0.375000 0.625000 0.225000 Ti
0.875000 0.625000 0.225000 Ti
0.375000 0.625000 -0.000000 Ti
0.875000 0.625000 -0.000000 Ti
0.375000 0.125000 0.225000 Ti
0.875000 0.125000 0.225000 Ti
0.375000 0.125000 -0.000000 Ti
0.875000 0.125000 -0.000000 Ti
