Ti96 Cr1
1.0
9.513020 0.000000 0.000000
0.000000 9.350860 0.000000
0.000000 0.000000 18.547230
Ti Cr
96 1
Selective dynamics
direct
0.140891 0.384701 0.404953 T T T Ti
0.652180 0.365556 0.392383 T T T Ti
0.167414 0.883431 0.405265 T T T Ti
0.650267 0.910357 0.396497 T T T Ti
0.164736 0.377840 0.235047 T T T Ti
0.659130 0.382339 0.236481 T T T Ti
0.156774 0.875147 0.235873 T T T Ti
0.658848 0.872515 0.236341 T T T Ti
0.166666 0.375000 0.077689 F F F Ti
0.666666 0.375000 0.077689 F F F Ti
0.166666 0.875000 0.077689 F F F Ti
0.666666 0.875000 0.077689 F F F Ti
0.401594 0.375183 0.320282 T T T Ti
0.915910 0.367114 0.308820 T T T Ti
0.402798 0.869901 0.317842 T T T Ti
0.904651 0.858003 0.331197 T T T Ti
0.416667 0.375000 0.155379 F F F Ti
0.916667 0.375000 0.155379 F F F Ti
0.416667 0.875000 0.155379 F F F Ti
0.916667 0.875000 0.155379 F F F Ti
0.416667 0.375000 0.000000 F F F Ti
0.916667 0.375000 0.000000 F F F Ti
0.416667 0.875000 0.000000 F F F Ti
0.916667 0.875000 0.000000 F F F Ti
0.098406 0.124817 0.320281 T T T Ti
0.584090 0.132886 0.308819 T T T Ti
0.097202 0.630099 0.317841 T T T Ti
0.595349 0.641997 0.331196 T T T Ti
0.083333 0.125000 0.155379 F F F Ti
0.583333 0.125000 0.155379 F F F Ti
0.083333 0.625000 0.155379 F F F Ti
0.583333 0.625000 0.155379 F F F Ti
0.083333 0.125000 0.000000 F F F Ti
0.583333 0.125000 0.000000 F F F Ti
0.083333 0.625000 0.000000 F F F Ti
0.583333 0.625000 0.000000 F F F Ti
0.359108 0.115299 0.404953 T T T Ti
0.847819 0.134444 0.392383 T T T Ti
0.332585 0.616569 0.405265 T T T Ti
0.849732 0.589643 0.396497 T T T Ti
0.335263 0.122160 0.235047 T T T Ti
0.840869 0.117661 0.236481 T T T Ti
0.343225 0.624853 0.235873 T T T Ti
0.841151 0.627485 0.236341 T T T Ti
0.333333 0.125000 0.077689 F F F Ti
0.833333 0.125000 0.077689 F F F Ti
0.333333 0.625000 0.077689 F F F Ti
0.833333 0.625000 0.077689 F F F Ti
0.375000 0.375000 0.823738 F F F Ti
0.875000 0.375000 0.823738 F F F Ti
0.375000 0.875000 0.823738 F F F Ti
0.875000 0.875000 0.823738 F F F Ti
0.125000 0.125000 0.823738 F F F Ti
0.625000 0.125000 0.823738 F F F Ti
0.125000 0.625000 0.823738 F F F Ti
0.625000 0.625000 0.823738 F F F Ti
0.125000 0.375000 0.910084 F F F Ti
0.625000 0.375000 0.910084 F F F Ti
0.125000 0.875000 0.910084 F F F Ti
0.625000 0.875000 0.910084 F F F Ti
0.375000 0.125000 0.910084 F F F Ti
0.875000 0.125000 0.910084 F F F Ti
0.375000 0.625000 0.910084 F F F Ti
0.875000 0.625000 0.910084 F F F Ti
0.386706 0.366338 0.647090 T T T Ti
0.893227 0.368681 0.667329 T T T Ti
0.389560 0.859098 0.657511 T T T Ti
0.898933 0.858964 0.641830 T T T Ti
0.113294 0.133662 0.647090 T T T Ti
0.606773 0.131319 0.667329 T T T Ti
0.110440 0.640902 0.657511 T T T Ti
0.601067 0.641036 0.641830 T T T Ti
0.133895 0.395295 0.570052 T T T Ti
0.650126 0.369831 0.583188 T T T Ti
0.164358 0.882704 0.566830 T T T Ti
0.641185 0.905766 0.577435 T T T Ti
0.366105 0.104705 0.570052 T T T Ti
0.849874 0.130169 0.583188 T T T Ti
0.335642 0.617296 0.566830 T T T Ti
0.858815 0.594234 0.577435 T T T Ti
0.386401 0.357744 0.488064 T T T Ti
0.892597 0.351799 0.489391 T T T Ti
0.427738 0.848098 0.483290 T T T Ti
0.916360 0.919589 0.486402 T T T Ti
0.113599 0.142256 0.488064 T T T Ti
0.607403 0.148201 0.489391 T T T Ti
0.072262 0.651902 0.483290 T T T Ti
0.583640 0.580411 0.486402 T T T Ti
0.125000 0.875000 0.737395 F F F Ti
0.625000 0.875000 0.737395 F F F Ti
0.375000 0.625000 0.737395 F F F Ti
0.875000 0.625000 0.737395 F F F Ti
0.125000 0.375000 0.737395 F F F Ti
0.625000 0.375000 0.737395 F F F Ti
0.375000 0.125000 0.737395 F F F Ti
0.875000 0.125000 0.737395 F F F Ti
0.750000 0.750000 0.486640 T T T Cr

0.000000 0.000000 0.000000
0.000000 0.000000 0.000000
0.000000 0.000000 0.000000
0.000000 0.000000 0.000000
0.000000 0.000000 0.000000
0.000000 0.000000 0.000000
0.000000 0.000000 0.000000
0.000000 0.000000 0.000000
0.000000 0.000000 0.000000
0.000000 0.000000 0.000000
0.000000 0.000000 0.000000
0.000000 0.000000 0.000000
0.000000 0.000000 0.000000
0.000000 0.000000 0.000000
0.000000 0.000000 0.000000
0.000000 0.000000 0.000000
0.000000 0.000000 0.000000
0.000000 0.000000 0.000000
0.000000 0.000000 0.000000
0.000000 0.000000 0.000000
0.000000 0.000000 0.000000
0.000000 0.000000 0.000000
0.000000 0.000000 0.000000
0.000000 0.000000 0.000000
0.000000 0.000000 0.000000
0.000000 0.000000 0.000000
0.000000 0.000000 0.000000
0.000000 0.000000 0.000000
0.000000 0.000000 0.000000
0.000000 0.000000 0.000000
0.000000 0.000000 0.000000
0.000000 0.000000 0.000000
0.000000 0.000000 0.000000
0.000000 0.000000 0.000000
0.000000 0.000000 0.000000
0.000000 0.000000 0.000000
0.000000 0.000000 0.000000
0.000000 0.000000 0.000000
0.000000 0.000000 0.000000
0.000000 0.000000 0.000000
0.000000 0.000000 0.000000
0.000000 0.000000 0.000000
0.000000 0.000000 0.000000
0.000000 0.000000 0.000000
0.000000 0.000000 0.000000
0.000000 0.000000 0.000000
0.000000 0.000000 0.000000
0.000000 0.000000 0.000000
0.000000 0.000000 0.000000
0.000000 0.000000 0.000000
0.000000 0.000000 0.000000
0.000000 0.000000 0.000000
0.000000 0.000000 0.000000
0.000000 0.000000 0.000000
0.000000 0.000000 0.000000
0.000000 0.000000 0.000000
0.000000 0.000000 0.000000
0.000000 0.000000 0.000000
0.000000 0.000000 0.000000
0.000000 0.000000 0.000000
0.000000 0.000000 0.000000
0.000000 0.000000 0.000000
0.000000 0.000000 0.000000
0.000000 0.000000 0.000000
0.000000 0.000000 0.000000
0.000000 0.000000 0.000000
0.000000 0.000000 0.000000
0.000000 0.000000 0.000000
0.000000 0.000000 0.000000
0.000000 0.000000 0.000000
0.000000 0.000000 0.000000
0.000000 0.000000 0.000000
0.000000 0.000000 0.000000
0.000000 0.000000 0.000000
0.000000 0.000000 0.000000
0.000000 0.000000 0.000000
0.000000 0.000000 0.000000
0.000000 0.000000 0.000000
0.000000 0.000000 0.000000
0.000000 0.000000 0.000000
0.000000 0.000000 0.000000
0.000000 0.000000 0.000000
0.000000 0.000000 0.000000
0.000000 0.000000 0.000000
0.000000 0.000000 0.000000
0.000000 0.000000 0.000000
0.000000 0.000000 0.000000
0.000000 0.000000 0.000000
0.000000 0.000000 0.000000
0.000000 0.000000 0.000000
0.000000 0.000000 0.000000
0.000000 0.000000 0.000000
0.000000 0.000000 0.000000
0.000000 0.000000 0.000000
0.000000 0.000000 0.000000
0.000000 0.000000 0.000000
0.000000 0.000000 0.000000
