total_structure
1.0
   3.5061499999999999    0.0000000000000000    0.0000000000000002
   0.0000000000000019   12.0001999999999995    0.0000000000000007
   0.0000000000000000    0.0000000000000000   26.6716049620000035
Cr Fe N W
12 36 16 4
Selective dynamics
direct
   0.5000000000000000    0.1250000000000000    0.1571255618464195 F F F Cr
   0.5000000000000000    0.3750000000000000    0.1571255618464194 F F F Cr
   0.0000000000000000    0.0000000000000000    0.0785678218459510 F F F Cr
  -0.0000000000000000    0.2500000000000000    0.0785678218459510 F F F Cr
   0.5000000000000000    0.1250000000000000   -0.0000000000000000 F F F Cr
   0.5000000000000000    0.3750000000000000   -0.0000000000000000 F F F Cr
   0.5000000000000000    0.6250000000000000    0.1571255618464195 F F F Cr
   0.4999999999999998    0.8749999999999999    0.1571255618464195 F F F Cr
  -0.0000000000000000    0.5000000000000000    0.0785678218459510 F F F Cr
  -0.0000000000000000    0.7500000000000000    0.0785678218459510 F F F Cr
   0.5000000000000000    0.6250000000000000   -0.0000000000000000 F F F Cr
   0.4999999999999998    0.8749999999999999   -0.0000000000000000 F F F Cr
   0.9933200000000000    0.7184400000000000    0.6250662483473535 F F F Fe
   0.4933200000000000    0.5543100000000000    0.6120505858293087 F F F Fe
   0.4933200000000000    0.7391600000000000    0.5722071324820485 F F F Fe
   0.9933200000000000    0.5750200000000000    0.5591914699640038 F F F Fe
   0.9933200000000002    0.3901700000000000    0.5990248414657814 F F F Fe
   0.4933200000000000    0.2260400000000000    0.5860091789477365 F F F Fe
   0.4933200000000000    0.4108899999999999    0.5461657256004764 F F F Fe
   0.9933200000000002    0.2467500000000000    0.5331500630824316 F F F Fe
   0.9933200000000000    0.0619000000000000    0.5729834345842092 F F F Fe
   0.4933200000000000    0.8977699999999998    0.5599677720661644 F F F Fe
   0.4933200000000000    0.0826200000000000    0.5201243187189043 F F F Fe
   0.9933200000000000    0.9184800000000000    0.5071086562008594 F F F Fe
   0.9933200000000000    0.7598700000000000    0.5193580984622262 F F F Fe
   0.4933200000000000    0.5957300000000000    0.5063323540986988 F F F Fe
   0.4933200000000000    0.7805800000000001    0.4664989825969214 F F F Fe
   0.9933200000000002    0.6164500000000001    0.4534732382333939 F F F Fe
   0.9933200000000002    0.4315999999999999    0.4933166915806541 F F F Fe
   0.4933200000000000    0.2674600000000000    0.4802909472171267 F F F Fe
   0.4933200000000000    0.4523100000000000    0.4404575757153492 F F F Fe
   0.9933200000000002    0.2881800000000000    0.4274318313518218 F F F Fe
   0.9933199999999998    0.1033300000000000    0.4672752846990820 F F F Fe
   0.4933200000000000    0.9391999999999999    0.4542495403355544 F F F Fe
   0.4933200000000000    0.1240400000000000    0.4144161688337770 F F F Fe
   0.9933200000000000    0.9599100000000000    0.4013904244702496 F F F Fe
   0.9933200000000000    0.8013000000000000    0.4136398667316162 F F F Fe
   0.4933200000000000    0.6371599999999998    0.4006242042135717 F F F Fe
   0.4933200000000000    0.8220099999999999    0.3607807508663114 F F F Fe
   0.9933200000000002    0.6578799999999999    0.3477650883482667 F F F Fe
   0.9933200000000002    0.4730300000000000    0.3875984598500442 F F F Fe
   0.4933200000000000    0.3088900000000000    0.3745827973319995 F F F Fe
   0.4933200000000000    0.4937400000000000    0.3347393439847393 F F F Fe
   0.9933200000000000    0.3296100000000000    0.3217236814666946 F F F Fe
   0.9933200000000002    0.1447600000000000    0.3615570529684721 F F F Fe
   0.4933200000000000    0.9806200000000000    0.3485413904504273 F F F Fe
   0.4933200000000000    0.1654700000000000    0.3086979371031671 F F F Fe
   0.9933200000000000    0.0013400000000000    0.2956822745851225 F F F Fe
   0.5000000000000000    0.1250000000000000    0.2356933836923705 F F F N
   0.5000000000000000    0.3750000000000000    0.2356933836923704 F F F N
   0.0000000000000000    0.0000000000000000    0.1571255618464195 F F F N
  -0.0000000000000000    0.2500000000000000    0.1571255618464195 F F F N
   0.5000000000000000    0.1250000000000000    0.0785678218459510 F F F N
   0.5000000000000000    0.3750000000000000    0.0785678218459510 F F F N
   0.0000000000000000    0.0000000000000000    0.0000000000000000 F F F N
  -0.0000000000000000    0.2500000000000000   -0.0000000000000000 F F F N
   0.5000000000000000    0.6250000000000000    0.2356933836923705 F F F N
   0.4999999999999998    0.8749999999999999    0.2356933836923705 F F F N
  -0.0000000000000000    0.5000000000000000    0.1571255618464195 F F F N
  -0.0000000000000000    0.7500000000000000    0.1571255618464195 F F F N
   0.5000000000000000    0.6250000000000000    0.0785678218459510 F F F N
   0.4999999999999998    0.8749999999999999    0.0785678218459510 F F F N
  -0.0000000000000000    0.5000000000000000   -0.0000000000000000 F F F N
  -0.0000000000000000    0.7500000000000000   -0.0000000000000000 F F F N
   0.0000000000000000    0.0000000000000000    0.2356933836923705 F F F W
  -0.0000000000000000    0.2500000000000000    0.2356933836923705 F F F W
  -0.0000000000000000    0.5000000000000000    0.2356933836923705 F F F W
  -0.0000000000000000    0.7500000000000000    0.2356933836923705 F F F W
