Ti66 Nb1
1.0
6.309760 0.000000 0.000000
0.000000 9.464640 0.000000
0.000000 0.000000 18.918326
Ti Nb
66 1
Selective dynamics
direct
0.625000 0.087989 0.466563 T T T Ti
0.125000 0.046869 0.655186 T T T Ti
0.625000 0.053365 0.637370 T T T Ti
0.125000 0.041667 0.817153 F F F Ti
0.625000 0.041667 0.817153 F F F Ti
0.125000 0.411015 0.490520 T T T Ti
0.625000 0.401404 0.501622 T T T Ti
0.125000 0.359428 0.646466 T T T Ti
0.625000 0.354435 0.648849 T T T Ti
0.125000 0.375000 0.817153 F F F Ti
0.625000 0.375000 0.817153 F F F Ti
0.125000 0.703635 0.492142 T T T Ti
0.625000 0.724248 0.496781 T T T Ti
0.125000 0.737862 0.643190 T T T Ti
0.625000 0.746156 0.644574 T T T Ti
0.125000 0.708333 0.817153 F F F Ti
0.625000 0.708333 0.817153 F F F Ti
0.339233 0.200470 0.547056 T T T Ti
0.910767 0.200470 0.547056 T T T Ti
0.375000 0.208333 0.737865 F F F Ti
0.875000 0.208333 0.737865 F F F Ti
0.375000 0.208333 0.896441 F F F Ti
0.875000 0.208333 0.896441 F F F Ti
0.381297 0.548442 0.588482 T T T Ti
0.868703 0.548442 0.588482 T T T Ti
0.375000 0.541667 0.737865 F F F Ti
0.875000 0.541667 0.737865 F F F Ti
0.375000 0.541667 0.896441 F F F Ti
0.875000 0.541667 0.896441 F F F Ti
0.344266 0.915345 0.547883 T T T Ti
0.905734 0.915345 0.547883 T T T Ti
0.375000 0.875000 0.737865 F F F Ti
0.875000 0.875000 0.737865 F F F Ti
0.375000 0.875000 0.896441 F F F Ti
0.875000 0.875000 0.896441 F F F Ti
0.125000 0.609130 0.366558 T T T Ti
0.625000 0.601548 0.368938 T T T Ti
0.125000 0.625000 0.118932 F F F Ti
0.625000 0.625000 0.118932 F F F Ti
0.625000 0.084653 0.346502 T T T Ti
0.125000 0.125000 0.118932 F F F Ti
0.625000 0.125000 0.118932 F F F Ti
0.125000 0.375000 0.039644 F F F Ti
0.625000 0.375000 0.039644 F F F Ti
0.125000 0.875000 0.039644 F F F Ti
0.625000 0.875000 0.039644 F F F Ti
0.125000 0.383089 0.281271 T T T Ti
0.625000 0.382553 0.273880 T T T Ti
0.125000 0.883714 0.283541 T T T Ti
0.625000 0.856192 0.271428 T T T Ti
0.375000 0.875000 0.158576 F F F Ti
0.875000 0.875000 0.158576 F F F Ti
0.374999 0.375000 0.158576 F F F Ti
0.874999 0.375000 0.158576 F F F Ti
0.394857 0.319643 0.389338 T T T Ti
0.855143 0.319643 0.389338 T T T Ti
0.381703 0.860844 0.398382 T T T Ti
0.868297 0.860844 0.398382 T T T Ti
0.363242 0.628577 0.246703 T T T Ti
0.886758 0.628577 0.246703 T T T Ti
0.375000 0.625000 0.000000 F F F Ti
0.875000 0.625000 0.000000 F F F Ti
0.354878 0.132248 0.249562 T T T Ti
0.895122 0.132248 0.249562 T T T Ti
0.375000 0.125000 0.000000 F F F Ti
0.875000 0.125000 0.000000 F F F Ti
0.125000 0.097427 0.401401 T T T Nb
