beta_Ti
1.0
6.309760 0.000000 0.000000
0.000000 9.464640 0.000000
0.000000 0.000000 26.000004
Ti
36
direct
0.125000 0.958333 0.500000 Ti
0.625000 0.958333 0.500000 Ti
0.125000 0.958333 0.615385 Ti
0.625000 0.958333 0.615385 Ti
0.125000 0.958333 0.730769 Ti
0.625000 0.958333 0.730769 Ti
0.125000 0.291667 0.500000 Ti
0.625000 0.291667 0.500000 Ti
0.125000 0.291667 0.615385 Ti
0.625000 0.291667 0.615385 Ti
0.125000 0.291667 0.730769 Ti
0.625000 0.291667 0.730769 Ti
0.125000 0.625000 0.500000 Ti
0.625000 0.625000 0.500000 Ti
0.125000 0.625000 0.615385 Ti
0.625000 0.625000 0.615385 Ti
0.125000 0.625000 0.730769 Ti
0.625000 0.625000 0.730769 Ti
0.375000 0.125000 0.557692 Ti
0.875000 0.125000 0.557692 Ti
0.375000 0.125000 0.673077 Ti
0.875000 0.125000 0.673077 Ti
0.375000 0.125000 0.788461 Ti
0.875000 0.125000 0.788461 Ti
0.375000 0.458333 0.557692 Ti
0.875000 0.458333 0.557692 Ti
0.375000 0.458333 0.673077 Ti
0.875000 0.458333 0.673077 Ti
0.375000 0.458333 0.788461 Ti
0.875000 0.458333 0.788461 Ti
0.375000 0.791667 0.557692 Ti
0.875000 0.791667 0.557692 Ti
0.375000 0.791667 0.673077 Ti
0.875000 0.791667 0.673077 Ti
0.375000 0.791667 0.788461 Ti
0.875000 0.791667 0.788461 Ti
