Optimistic_Structure                    
   1.00000000000000     
     6.3915400000000000    0.0000000000000000    0.0000000000000000
     0.0000000000000000    9.5873100000000004    0.0000000000000000
     0.0000000000000000    0.0000000000000000   23.2716950000000011
   Ti
    83
Selective dynamics
Direct
  0.1250000000000000  0.0833330000000032  0.5805700000000016   F   F   F
  0.6250000000000000  0.0833330000000032  0.5805700000000016   F   F   F
  0.1250000000000000  0.0833330000000032  0.7094820000000013   F   F   F
  0.6250000000000000  0.0833330000000032  0.7094820000000013   F   F   F
  0.1250000000000000  0.0833330000000032  0.8383940000000010   F   F   F
  0.6250000000000000  0.0833330000000032  0.8383940000000010   F   F   F
  0.1250000000000000  0.4166669999999968  0.5805700000000016   F   F   F
  0.6250000000000000  0.4166669999999968  0.5805700000000016   F   F   F
  0.1250000000000000  0.4166669999999968  0.7094820000000013   F   F   F
  0.6250000000000000  0.4166669999999968  0.7094820000000013   F   F   F
  0.1250000000000000  0.4166669999999968  0.8383940000000010   F   F   F
  0.6250000000000000  0.4166669999999968  0.8383940000000010   F   F   F
  0.1250000000000000  0.7500000000000000  0.5805700000000016   F   F   F
  0.6250000000000000  0.7500000000000000  0.5805700000000016   F   F   F
  0.1250000000000000  0.7500000000000000  0.7094820000000013   F   F   F
  0.6250000000000000  0.7500000000000000  0.7094820000000013   F   F   F
  0.1250000000000000  0.7500000000000000  0.8383940000000010   F   F   F
  0.6250000000000000  0.7500000000000000  0.8383940000000010   F   F   F
  0.3750000000000000  0.2500000000000000  0.6450260000000014   F   F   F
  0.8750000000000000  0.2500000000000000  0.6450260000000014   F   F   F
  0.3750000000000000  0.2500000000000000  0.7739380000000011   F   F   F
  0.8750000000000000  0.2500000000000000  0.7739380000000011   F   F   F
  0.3750000000000000  0.2500000000000000  0.9028500000000008   F   F   F
  0.8750000000000000  0.2500000000000000  0.9028500000000008   F   F   F
  0.3750000000000000  0.5833330000000032  0.6450260000000014   F   F   F
  0.8750000000000000  0.5833330000000032  0.6450260000000014   F   F   F
  0.3750000000000000  0.5833330000000032  0.7739380000000011   F   F   F
  0.8750000000000000  0.5833330000000032  0.7739380000000011   F   F   F
  0.3750000000000000  0.5833330000000032  0.9028500000000008   F   F   F
  0.8750000000000000  0.5833330000000032  0.9028500000000008   F   F   F
  0.3750000000000000  0.9166669999999968  0.6450260000000014   F   F   F
  0.8750000000000000  0.9166669999999968  0.6450260000000014   F   F   F
  0.3750000000000000  0.9166669999999968  0.7739380000000011   F   F   F
  0.8750000000000000  0.9166669999999968  0.7739380000000011   F   F   F
  0.3750000000000000  0.9166669999999968  0.9028500000000008   F   F   F
  0.8750000000000000  0.9166669999999968  0.9028500000000008   F   F   F
  0.6250000000000000  0.1666669999999968  0.3867359999999991   F   F   F
  0.1250000000000000  0.6666669999999968  0.3867359999999991   F   F   F
  0.6250000000000000  0.6666669999999968  0.3867359999999991   F   F   F
  0.1250000000000000  0.1666669999999968  0.0000000000000000   F   F   F
  0.6250000000000000  0.1666669999999968  0.0000000000000000   F   F   F
  0.1250000000000000  0.6666669999999968  0.0000000000000000   F   F   F
  0.6250000000000000  0.6666669999999968  0.0000000000000000   F   F   F
  0.1250000000000000  0.8333330000000032  0.0966840000000033   F   F   F
  0.6250000000000000  0.8333330000000032  0.0966840000000033   F   F   F
  0.1250000000000000  0.8333330000000032  0.4834200000000024   F   F   F
  0.6250000000000000  0.8333330000000032  0.4834200000000024   F   F   F
  0.1250000000000000  0.3333330000000032  0.0966840000000033   F   F   F
  0.6250000000000000  0.3333330000000032  0.0966840000000033   F   F   F
  0.1250000000000000  0.3333330000000032  0.4834200000000024   F   F   F
  0.6250000000000000  0.3333330000000032  0.4834200000000024   F   F   F
  0.3750000000000000  0.5833330000000032  0.4834200000000024   F   F   F
  0.8750000000000000  0.5833330000000032  0.4834200000000024   F   F   F
  0.3749990000000025  0.5833330000000032  0.0966840000000033   F   F   F
  0.8749990000000025  0.5833330000000032  0.0966840000000033   F   F   F
  0.3750000000000000  0.0833330000000032  0.0966840000000033   F   F   F
  0.8750000000000000  0.0833330000000032  0.0966840000000033   F   F   F
  0.8750000000000000  0.0833330000000032  0.4834200000000024   F   F   F
  0.3750000000000000  0.4166669999999968  0.3867359999999991   F   F   F
  0.8750000000000000  0.4166669999999968  0.3867359999999991   F   F   F
  0.3750000000000000  0.9166669999999968  0.3867359999999991   F   F   F
  0.8750000000000000  0.9166669999999968  0.3867359999999991   F   F   F
  0.3750000000000000  0.4166669999999968  0.0000000000000000   F   F   F
  0.8750000000000000  0.4166669999999968  0.0000000000000000   F   F   F
  0.3750000000000000  0.9166669999999968  0.0000000000000000   F   F   F
  0.8750000000000000  0.9166669999999968  0.0000000000000000   F   F   F
  0.3750000000000000  0.0833330000000032  0.2900520000000029   F   F   F
  0.8750000000000000  0.0833330000000032  0.2900520000000029   F   F   F
  0.1250000000000000  0.1666669999999968  0.1933679999999995   F   F   F
  0.6250000000000000  0.1666669999999968  0.1933679999999995   F   F   F
  0.1250000000000000  0.3333330000000032  0.2900520000000029   F   F   F
  0.6250000000000000  0.3333330000000032  0.2900520000000029   F   F   F
  0.3750000000000000  0.4166669999999968  0.1933679999999995   F   F   F
  0.8750000000000000  0.4166669999999968  0.1933679999999995   F   F   F
  0.3749990000000025  0.5833330000000032  0.2900520000000029   F   F   F
  0.8749990000000025  0.5833330000000032  0.2900520000000029   F   F   F
  0.1250000000000000  0.6666669999999968  0.1933679999999995   F   F   F
  0.6250000000000000  0.6666669999999968  0.1933679999999995   F   F   F
  0.1250000000000000  0.8333330000000032  0.2900520000000029   F   F   F
  0.6250000000000000  0.8333330000000032  0.2900520000000029   F   F   F
  0.3750000000000000  0.9166669999999968  0.1933679999999995   F   F   F
  0.8750000000000000  0.9166669999999968  0.1933679999999995   F   F   F
  0.3682241948929237  0.0846558959618483  0.4810987900884549   T   T   T
 
  0.00000000E+00  0.00000000E+00  0.00000000E+00
  0.00000000E+00  0.00000000E+00  0.00000000E+00
  0.00000000E+00  0.00000000E+00  0.00000000E+00
  0.00000000E+00  0.00000000E+00  0.00000000E+00
  0.00000000E+00  0.00000000E+00  0.00000000E+00
  0.00000000E+00  0.00000000E+00  0.00000000E+00
  0.00000000E+00  0.00000000E+00  0.00000000E+00
  0.00000000E+00  0.00000000E+00  0.00000000E+00
  0.00000000E+00  0.00000000E+00  0.00000000E+00
  0.00000000E+00  0.00000000E+00  0.00000000E+00
  0.00000000E+00  0.00000000E+00  0.00000000E+00
  0.00000000E+00  0.00000000E+00  0.00000000E+00
  0.00000000E+00  0.00000000E+00  0.00000000E+00
  0.00000000E+00  0.00000000E+00  0.00000000E+00
  0.00000000E+00  0.00000000E+00  0.00000000E+00
  0.00000000E+00  0.00000000E+00  0.00000000E+00
  0.00000000E+00  0.00000000E+00  0.00000000E+00
  0.00000000E+00  0.00000000E+00  0.00000000E+00
  0.00000000E+00  0.00000000E+00  0.00000000E+00
  0.00000000E+00  0.00000000E+00  0.00000000E+00
  0.00000000E+00  0.00000000E+00  0.00000000E+00
  0.00000000E+00  0.00000000E+00  0.00000000E+00
  0.00000000E+00  0.00000000E+00  0.00000000E+00
  0.00000000E+00  0.00000000E+00  0.00000000E+00
  0.00000000E+00  0.00000000E+00  0.00000000E+00
  0.00000000E+00  0.00000000E+00  0.00000000E+00
  0.00000000E+00  0.00000000E+00  0.00000000E+00
  0.00000000E+00  0.00000000E+00  0.00000000E+00
  0.00000000E+00  0.00000000E+00  0.00000000E+00
  0.00000000E+00  0.00000000E+00  0.00000000E+00
  0.00000000E+00  0.00000000E+00  0.00000000E+00
  0.00000000E+00  0.00000000E+00  0.00000000E+00
  0.00000000E+00  0.00000000E+00  0.00000000E+00
  0.00000000E+00  0.00000000E+00  0.00000000E+00
  0.00000000E+00  0.00000000E+00  0.00000000E+00
  0.00000000E+00  0.00000000E+00  0.00000000E+00
  0.00000000E+00  0.00000000E+00  0.00000000E+00
  0.00000000E+00  0.00000000E+00  0.00000000E+00
  0.00000000E+00  0.00000000E+00  0.00000000E+00
  0.00000000E+00  0.00000000E+00  0.00000000E+00
  0.00000000E+00  0.00000000E+00  0.00000000E+00
  0.00000000E+00  0.00000000E+00  0.00000000E+00
  0.00000000E+00  0.00000000E+00  0.00000000E+00
  0.00000000E+00  0.00000000E+00  0.00000000E+00
  0.00000000E+00  0.00000000E+00  0.00000000E+00
  0.00000000E+00  0.00000000E+00  0.00000000E+00
  0.00000000E+00  0.00000000E+00  0.00000000E+00
  0.00000000E+00  0.00000000E+00  0.00000000E+00
  0.00000000E+00  0.00000000E+00  0.00000000E+00
  0.00000000E+00  0.00000000E+00  0.00000000E+00
  0.00000000E+00  0.00000000E+00  0.00000000E+00
  0.00000000E+00  0.00000000E+00  0.00000000E+00
  0.00000000E+00  0.00000000E+00  0.00000000E+00
  0.00000000E+00  0.00000000E+00  0.00000000E+00
  0.00000000E+00  0.00000000E+00  0.00000000E+00
  0.00000000E+00  0.00000000E+00  0.00000000E+00
  0.00000000E+00  0.00000000E+00  0.00000000E+00
  0.00000000E+00  0.00000000E+00  0.00000000E+00
  0.00000000E+00  0.00000000E+00  0.00000000E+00
  0.00000000E+00  0.00000000E+00  0.00000000E+00
  0.00000000E+00  0.00000000E+00  0.00000000E+00
  0.00000000E+00  0.00000000E+00  0.00000000E+00
  0.00000000E+00  0.00000000E+00  0.00000000E+00
  0.00000000E+00  0.00000000E+00  0.00000000E+00
  0.00000000E+00  0.00000000E+00  0.00000000E+00
  0.00000000E+00  0.00000000E+00  0.00000000E+00
  0.00000000E+00  0.00000000E+00  0.00000000E+00
  0.00000000E+00  0.00000000E+00  0.00000000E+00
  0.00000000E+00  0.00000000E+00  0.00000000E+00
  0.00000000E+00  0.00000000E+00  0.00000000E+00
  0.00000000E+00  0.00000000E+00  0.00000000E+00
  0.00000000E+00  0.00000000E+00  0.00000000E+00
  0.00000000E+00  0.00000000E+00  0.00000000E+00
  0.00000000E+00  0.00000000E+00  0.00000000E+00
  0.00000000E+00  0.00000000E+00  0.00000000E+00
  0.00000000E+00  0.00000000E+00  0.00000000E+00
  0.00000000E+00  0.00000000E+00  0.00000000E+00
  0.00000000E+00  0.00000000E+00  0.00000000E+00
  0.00000000E+00  0.00000000E+00  0.00000000E+00
  0.00000000E+00  0.00000000E+00  0.00000000E+00
  0.00000000E+00  0.00000000E+00  0.00000000E+00
  0.00000000E+00  0.00000000E+00  0.00000000E+00
  0.00000000E+00  0.00000000E+00  0.00000000E+00
