Ti72
1.0
8.805261 0.000000 0.000000
-4.402630 7.625579 0.000000
0.000000 0.000000 21.288801
Ti
72
direct
0.000000 0.000000 0.488141 Ti
1.000000 0.500000 0.488141 Ti
0.500000 0.000000 0.488141 Ti
0.500000 0.500000 0.488141 Ti
0.166667 0.333333 0.792162 Ti
0.166667 0.833333 0.792162 Ti
0.666667 0.333333 0.792162 Ti
0.666667 0.833333 0.792162 Ti
0.333333 0.166667 0.835594 Ti
0.333333 0.666667 0.835594 Ti
0.833333 0.166667 0.835594 Ti
0.833333 0.666667 0.835594 Ti
0.166667 0.333333 0.531572 Ti
0.166667 0.833333 0.531572 Ti
0.666667 0.333333 0.531572 Ti
0.666667 0.833333 0.531572 Ti
0.333333 0.166667 0.575004 Ti
0.333333 0.666667 0.575004 Ti
0.833333 0.166667 0.575004 Ti
0.833333 0.666667 0.575004 Ti
0.000000 0.000000 0.618435 Ti
1.000000 0.500000 0.618435 Ti
0.500000 0.000000 0.618435 Ti
0.500000 0.500000 0.618435 Ti
0.166667 0.333333 0.661867 Ti
0.166667 0.833333 0.661867 Ti
0.666667 0.333333 0.661867 Ti
0.666667 0.833333 0.661867 Ti
0.333333 0.166667 0.705299 Ti
0.333333 0.666667 0.705299 Ti
0.833333 0.166667 0.705299 Ti
0.833333 0.666667 0.705299 Ti
0.000000 0.000000 0.748730 Ti
1.000000 0.500000 0.748730 Ti
0.500000 0.000000 0.748730 Ti
0.500000 0.500000 0.748730 Ti
0.111111 0.888889 -0.000000 Ti
0.111111 0.888889 0.215823 Ti
0.111111 0.555556 -0.000000 Ti
0.222222 0.777778 0.107912 Ti
0.111111 0.555556 0.215823 Ti
0.444444 0.888889 -0.000000 Ti
0.111111 0.222222 -0.000000 Ti
0.222222 0.777778 0.323735 Ti
0.222222 0.444444 0.107912 Ti
0.444444 0.888889 0.215823 Ti
0.111111 0.222222 0.215823 Ti
0.444444 0.555556 -0.000000 Ti
0.222222 0.444444 0.323735 Ti
0.555556 0.777778 0.107912 Ti
0.222222 0.111111 0.107912 Ti
0.444444 0.555556 0.215823 Ti
0.777778 0.888889 -0.000000 Ti
0.444444 0.222222 -0.000000 Ti
0.555556 0.777778 0.323735 Ti
0.222222 0.111111 0.323735 Ti
0.555556 0.444444 0.107912 Ti
0.777778 0.888889 0.215823 Ti
0.444444 0.222222 0.215823 Ti
0.777778 0.555556 -0.000000 Ti
0.555556 0.444444 0.323735 Ti
0.888889 0.777778 0.107912 Ti
0.555556 0.111111 0.107912 Ti
0.777778 0.555556 0.215823 Ti
0.777778 0.222222 -0.000000 Ti
0.888889 0.777778 0.323735 Ti
0.555556 0.111111 0.323735 Ti
0.888889 0.444444 0.107912 Ti
0.777778 0.222222 0.215823 Ti
0.888889 0.444444 0.323735 Ti
0.888889 0.111111 0.107912 Ti
0.888889 0.111111 0.323735 Ti

0.000000 0.000000 0.000000
0.000000 0.000000 0.000000
0.000000 0.000000 0.000000
0.000000 0.000000 0.000000
0.000000 0.000000 0.000000
0.000000 0.000000 0.000000
0.000000 0.000000 0.000000
0.000000 0.000000 0.000000
0.000000 0.000000 0.000000
0.000000 0.000000 0.000000
0.000000 0.000000 0.000000
0.000000 0.000000 0.000000
0.000000 0.000000 0.000000
0.000000 0.000000 0.000000
0.000000 0.000000 0.000000
0.000000 0.000000 0.000000
0.000000 0.000000 0.000000
0.000000 0.000000 0.000000
0.000000 0.000000 0.000000
0.000000 0.000000 0.000000
0.000000 0.000000 0.000000
0.000000 0.000000 0.000000
0.000000 0.000000 0.000000
0.000000 0.000000 0.000000
0.000000 0.000000 0.000000
0.000000 0.000000 0.000000
0.000000 0.000000 0.000000
0.000000 0.000000 0.000000
0.000000 0.000000 0.000000
0.000000 0.000000 0.000000
0.000000 0.000000 0.000000
0.000000 0.000000 0.000000
0.000000 0.000000 0.000000
0.000000 0.000000 0.000000
0.000000 0.000000 0.000000
0.000000 0.000000 0.000000
0.000000 0.000000 0.000000
0.000000 0.000000 0.000000
0.000000 0.000000 0.000000
0.000000 0.000000 0.000000
0.000000 0.000000 0.000000
0.000000 0.000000 0.000000
0.000000 0.000000 0.000000
0.000000 0.000000 0.000000
0.000000 0.000000 0.000000
0.000000 0.000000 0.000000
0.000000 0.000000 0.000000
0.000000 0.000000 0.000000
0.000000 0.000000 0.000000
0.000000 0.000000 0.000000
0.000000 0.000000 0.000000
0.000000 0.000000 0.000000
0.000000 0.000000 0.000000
0.000000 0.000000 0.000000
0.000000 0.000000 0.000000
0.000000 0.000000 0.000000
0.000000 0.000000 0.000000
0.000000 0.000000 0.000000
0.000000 0.000000 0.000000
0.000000 0.000000 0.000000
0.000000 0.000000 0.000000
0.000000 0.000000 0.000000
0.000000 0.000000 0.000000
0.000000 0.000000 0.000000
0.000000 0.000000 0.000000
0.000000 0.000000 0.000000
0.000000 0.000000 0.000000
0.000000 0.000000 0.000000
0.000000 0.000000 0.000000
0.000000 0.000000 0.000000
0.000000 0.000000 0.000000
0.000000 0.000000 0.000000
