alpha_Ti
1.0
6.309760 0.000000 0.000000
0.000000 9.464640 0.000000
0.000000 0.000000 18.900004
Ti
32
direct
0.125000 0.625000 0.357143 Ti
0.625000 0.625000 0.357143 Ti
0.125000 0.625000 0.119047 Ti
0.625000 0.625000 0.119047 Ti
0.125000 0.125000 0.357143 Ti
0.625000 0.125000 0.357143 Ti
0.125000 0.125000 0.119048 Ti
0.625000 0.125000 0.119048 Ti
0.125000 0.375000 0.039683 Ti
0.625000 0.375000 0.039683 Ti
0.125000 0.875000 0.039683 Ti
0.625000 0.875000 0.039683 Ti
0.125000 0.375000 0.277778 Ti
0.625000 0.375000 0.277778 Ti
0.125000 0.875000 0.277778 Ti
0.625000 0.875000 0.277778 Ti
0.375000 0.875000 0.158730 Ti
0.875000 0.875000 0.158730 Ti
0.374999 0.375000 0.158730 Ti
0.874999 0.375000 0.158730 Ti
0.375000 0.375000 0.396825 Ti
0.875000 0.375000 0.396825 Ti
0.375000 0.875000 0.396825 Ti
0.875000 0.875000 0.396825 Ti
0.375000 0.625000 0.238095 Ti
0.875000 0.625000 0.238095 Ti
0.375000 0.625000 -0.000000 Ti
0.875000 0.625000 -0.000000 Ti
0.375000 0.125000 0.238095 Ti
0.875000 0.125000 0.238095 Ti
0.375000 0.125000 -0.000000 Ti
0.875000 0.125000 -0.000000 Ti
