Ti96 Al1
1.0
9.513020 0.000000 0.000000
0.000000 9.350860 0.000000
0.000000 0.000000 18.547230
Ti Al
96 1
Selective dynamics
direct
0.140577 0.382243 0.400301 T T T Ti
0.652101 0.366715 0.394300 T T T Ti
0.167960 0.885118 0.399688 T T T Ti
0.646922 0.913509 0.399797 T T T Ti
0.164234 0.376950 0.235535 T T T Ti
0.659473 0.381395 0.235347 T T T Ti
0.157462 0.875323 0.236040 T T T Ti
0.660159 0.874400 0.235497 T T T Ti
0.166662 0.375001 0.077683 F F F Ti
0.666667 0.375007 0.077689 F F F Ti
0.166674 0.875000 0.077685 F F F Ti
0.666666 0.874997 0.077693 F F F Ti
0.405461 0.376480 0.319533 T T T Ti
0.912009 0.367900 0.308825 T T T Ti
0.410629 0.872551 0.315709 T T T Ti
0.901748 0.864103 0.328225 T T T Ti
0.416667 0.375014 0.155337 F F F Ti
0.916662 0.375029 0.155350 F F F Ti
0.416685 0.874987 0.155356 F F F Ti
0.916699 0.875025 0.155364 F F F Ti
0.416677 0.375014 -0.000002 F F F Ti
0.916657 0.375012 0.000003 F F F Ti
0.416680 0.874995 -0.000005 F F F Ti
0.916659 0.874996 -0.000001 F F F Ti
0.094539 0.123520 0.319532 T T T Ti
0.587991 0.132101 0.308824 T T T Ti
0.089371 0.627449 0.315708 T T T Ti
0.598252 0.635897 0.328225 T T T Ti
0.083333 0.124989 0.155338 F F F Ti
0.583337 0.124973 0.155350 F F F Ti
0.083315 0.625015 0.155356 F F F Ti
0.583301 0.624978 0.155364 F F F Ti
0.083324 0.124990 -0.000002 F F F Ti
0.583343 0.124991 0.000003 F F F Ti
0.083320 0.625009 -0.000005 F F F Ti
0.583342 0.625008 -0.000001 F F F Ti
0.359422 0.117757 0.400301 T T T Ti
0.847898 0.133285 0.394300 T T T Ti
0.332039 0.614882 0.399688 T T T Ti
0.853077 0.586491 0.399797 T T T Ti
0.335765 0.123050 0.235535 T T T Ti
0.840526 0.118605 0.235347 T T T Ti
0.342537 0.624678 0.236040 T T T Ti
0.839840 0.625600 0.235497 T T T Ti
0.333337 0.125002 0.077683 F F F Ti
0.833332 0.124996 0.077689 F F F Ti
0.333324 0.625003 0.077685 F F F Ti
0.833333 0.625006 0.077693 F F F Ti
0.374997 0.375007 0.823822 F F F Ti
0.875001 0.374970 0.823791 F F F Ti
0.375021 0.875019 0.823810 F F F Ti
0.874955 0.874970 0.823769 F F F Ti
0.125004 0.124993 0.823822 F F F Ti
0.625001 0.125029 0.823791 F F F Ti
0.124981 0.624981 0.823810 F F F Ti
0.625048 0.625030 0.823769 F F F Ti
0.124990 0.374991 0.910129 F F F Ti
0.625021 0.375008 0.910120 F F F Ti
0.124991 0.874995 0.910124 F F F Ti
0.625017 0.874995 0.910111 F F F Ti
0.375012 0.125010 0.910129 F F F Ti
0.874981 0.124992 0.910119 F F F Ti
0.375012 0.625005 0.910124 F F F Ti
0.874985 0.625006 0.910110 F F F Ti
0.390472 0.371304 0.644428 T T T Ti
0.885880 0.357010 0.665845 T T T Ti
0.379174 0.861867 0.666934 T T T Ti
0.892269 0.863853 0.645857 T T T Ti
0.109527 0.128695 0.644428 T T T Ti
0.614119 0.142988 0.665845 T T T Ti
0.120826 0.638132 0.666934 T T T Ti
0.607730 0.636146 0.645857 T T T Ti
0.135013 0.393368 0.574958 T T T Ti
0.654074 0.383232 0.576309 T T T Ti
0.158075 0.877585 0.569978 T T T Ti
0.607384 0.919361 0.582782 T T T Ti
0.364987 0.106632 0.574958 T T T Ti
0.845925 0.116768 0.576309 T T T Ti
0.341925 0.622415 0.569978 T T T Ti
0.892616 0.580638 0.582782 T T T Ti
0.376100 0.359607 0.487949 T T T Ti
0.900833 0.348468 0.490305 T T T Ti
0.413907 0.852081 0.481834 T T T Ti
0.935834 0.921756 0.479825 T T T Ti
0.123900 0.140393 0.487949 T T T Ti
0.599167 0.151532 0.490305 T T T Ti
0.086093 0.647919 0.481834 T T T Ti
0.564166 0.578244 0.479825 T T T Ti
0.125062 0.875031 0.737559 F F F Ti
0.625009 0.875073 0.737547 F F F Ti
0.374934 0.624961 0.737560 F F F Ti
0.874987 0.624920 0.737548 F F F Ti
0.125102 0.374896 0.737561 F F F Ti
0.624968 0.375209 0.737566 F F F Ti
0.374894 0.125097 0.737560 F F F Ti
0.875028 0.124781 0.737568 F F F Ti
0.750000 0.750000 0.508213 T T T Al

0.000000 0.000000 0.000000
0.000000 0.000000 0.000000
0.000000 0.000000 0.000000
0.000000 0.000000 0.000000
0.000000 0.000000 0.000000
0.000000 0.000000 0.000000
0.000000 0.000000 0.000000
0.000000 0.000000 0.000000
0.000000 0.000000 0.000000
0.000000 0.000000 0.000000
0.000000 0.000000 0.000000
0.000000 0.000000 0.000000
0.000000 0.000000 0.000000
0.000000 0.000000 0.000000
0.000000 0.000000 0.000000
0.000000 0.000000 0.000000
0.000000 0.000000 0.000000
0.000000 0.000000 0.000000
0.000000 0.000000 0.000000
0.000000 0.000000 0.000000
0.000000 0.000000 0.000000
0.000000 0.000000 0.000000
0.000000 0.000000 0.000000
0.000000 0.000000 0.000000
0.000000 0.000000 0.000000
0.000000 0.000000 0.000000
0.000000 0.000000 0.000000
0.000000 0.000000 0.000000
0.000000 0.000000 0.000000
0.000000 0.000000 0.000000
0.000000 0.000000 0.000000
0.000000 0.000000 0.000000
0.000000 0.000000 0.000000
0.000000 0.000000 0.000000
0.000000 0.000000 0.000000
0.000000 0.000000 0.000000
0.000000 0.000000 0.000000
0.000000 0.000000 0.000000
0.000000 0.000000 0.000000
0.000000 0.000000 0.000000
0.000000 0.000000 0.000000
0.000000 0.000000 0.000000
0.000000 0.000000 0.000000
0.000000 0.000000 0.000000
0.000000 0.000000 0.000000
0.000000 0.000000 0.000000
0.000000 0.000000 0.000000
0.000000 0.000000 0.000000
0.000000 0.000000 0.000000
0.000000 0.000000 0.000000
0.000000 0.000000 0.000000
0.000000 0.000000 0.000000
0.000000 0.000000 0.000000
0.000000 0.000000 0.000000
0.000000 0.000000 0.000000
0.000000 0.000000 0.000000
0.000000 0.000000 0.000000
0.000000 0.000000 0.000000
0.000000 0.000000 0.000000
0.000000 0.000000 0.000000
0.000000 0.000000 0.000000
0.000000 0.000000 0.000000
0.000000 0.000000 0.000000
0.000000 0.000000 0.000000
0.000000 0.000000 0.000000
0.000000 0.000000 0.000000
0.000000 0.000000 0.000000
0.000000 0.000000 0.000000
0.000000 0.000000 0.000000
0.000000 0.000000 0.000000
0.000000 0.000000 0.000000
0.000000 0.000000 0.000000
0.000000 0.000000 0.000000
0.000000 0.000000 0.000000
0.000000 0.000000 0.000000
0.000000 0.000000 0.000000
0.000000 0.000000 0.000000
0.000000 0.000000 0.000000
0.000000 0.000000 0.000000
0.000000 0.000000 0.000000
0.000000 0.000000 0.000000
0.000000 0.000000 0.000000
0.000000 0.000000 0.000000
0.000000 0.000000 0.000000
0.000000 0.000000 0.000000
0.000000 0.000000 0.000000
0.000000 0.000000 0.000000
0.000000 0.000000 0.000000
0.000000 0.000000 0.000000
0.000000 0.000000 0.000000
0.000000 0.000000 0.000000
0.000000 0.000000 0.000000
0.000000 0.000000 0.000000
0.000000 0.000000 0.000000
0.000000 0.000000 0.000000
0.000000 0.000000 0.000000
0.000000 0.000000 0.000000
