Optimistic_Structure                    
   1.00000000000000     
     6.3097599999999998    0.0000000000000000    0.0000000000000000
     0.0000000000000000    9.4646399999999993    0.0000000000000000
     0.0000000000000000    0.0000000000000000   18.9183260000000004
   Ti   Sn
    66     1
Selective dynamics
Direct
  0.1610591716137329 -0.0020400429025262  0.4944211694326235   T   T   T
  0.5889408283862668 -0.0020400429025262  0.4944211694326235   T   T   T
  0.1556356038982822  0.0626465555034613  0.6370283070185131   T   T   T
  0.5943643961017181  0.0626465555034613  0.6370283070185131   T   T   T
  0.1250000000000000  0.0416669999999968  0.8171529999999976   F   F   F
  0.6250000000000000  0.0416669999999968  0.8171529999999976   F   F   F
  0.1849087213852959  0.2942439282792867  0.5136762170135244   T   T   T
  0.5650912786147037  0.2942439282792867  0.5136762170135244   T   T   T
  0.1397990344208508  0.3691059853489506  0.6562256783678962   T   T   T
  0.6102009655791492  0.3691059853489506  0.6562256783678962   T   T   T
  0.1250000000000000  0.3750000000000000  0.8171529999999976   F   F   F
  0.6250000000000000  0.3750000000000000  0.8171529999999976   F   F   F
  0.1022760897849428  0.6786055095683787  0.4859509980073623   T   T   T
  0.6477239102150572  0.6786055095683787  0.4859509980073623   T   T   T
  0.0992298341308098  0.6824266047872806  0.6482555311727535   T   T   T
  0.6507701658691906  0.6824266047872806  0.6482555311727535   T   T   T
  0.1250000000000000  0.7083330000000032  0.8171529999999976   F   F   F
  0.6250000000000000  0.7083330000000032  0.8171529999999976   F   F   F
  0.8750000000000000  0.1835465188338495  0.5338713648545950   T   T   T
  0.3750000000000000  0.2083330000000032  0.7378649999999993   F   F   F
  0.8750000000000000  0.2083330000000032  0.7378649999999993   F   F   F
  0.3750000000000000  0.2083330000000032  0.8964410000000029   F   F   F
  0.8750000000000000  0.2083330000000032  0.8964410000000029   F   F   F
  0.3750000000000000  0.5282160751093801  0.5633483223923493   T   T   T
  0.8750000000000000  0.4806437376177933  0.5627450315895819   T   T   T
  0.3750000000000000  0.5416669999999968  0.7378649999999993   F   F   F
  0.8750000000000000  0.5416669999999968  0.7378649999999993   F   F   F
  0.3750000000000000  0.5416669999999968  0.8964410000000029   F   F   F
  0.8750000000000000  0.5416669999999968  0.8964410000000029   F   F   F
  0.3750000000000000  0.8241072578768450  0.5781679989191674   T   T   T
  0.8750000000000000  0.8798090963627765  0.5801599602930518   T   T   T
  0.3750000000000000  0.8750000000000000  0.7378649999999993   F   F   F
  0.8750000000000000  0.8750000000000000  0.7378649999999993   F   F   F
  0.3750000000000000  0.8750000000000000  0.8964410000000029   F   F   F
  0.8750000000000000  0.8750000000000000  0.8964410000000029   F   F   F
  0.0987360419703578  0.6591633038669695  0.3555079352820800   T   T   T
  0.6512639580296424  0.6591633038669695  0.3555079352820800   T   T   T
  0.1250000000000000  0.6250000000000000  0.1189320000000009   F   F   F
  0.6250000000000000  0.6250000000000000  0.1189320000000009   F   F   F
  0.1400509141105291  0.1521317548701333  0.3762096567342555   T   T   T
  0.6099490858894706  0.1521317548701333  0.3762096567342555   T   T   T
  0.1250000000000000  0.1250000000000000  0.1189320000000009   F   F   F
  0.6250000000000000  0.1250000000000000  0.1189320000000009   F   F   F
  0.1250000000000000  0.3750000000000000  0.0396440000000027   F   F   F
  0.6250000000000000  0.3750000000000000  0.0396440000000027   F   F   F
  0.1250000000000000  0.8750000000000000  0.0396440000000027   F   F   F
  0.6250000000000000  0.8750000000000000  0.0396440000000027   F   F   F
  0.1080662107671389  0.3889144757914825  0.2804033908084523   T   T   T
  0.6419337892328613  0.3889144757914825  0.2804033908084523   T   T   T
  0.1125773047821267  0.9002786051716389  0.2762142570806466   T   T   T
  0.6374226952178731  0.9002786051716389  0.2762142570806466   T   T   T
  0.3750000000000000  0.8750000000000000  0.1585759999999965   F   F   F
  0.8750000000000000  0.8750000000000000  0.1585759999999965   F   F   F
  0.3749990000000025  0.3750000000000000  0.1585759999999965   F   F   F
  0.8749990000000025  0.3750000000000000  0.1585759999999965   F   F   F
  0.8750000000000000  0.4220126957255000  0.4214234806709362   T   T   T
  0.3750000000000000  0.8722950435628822  0.3883631851895435   T   T   T
  0.8750000000000000  0.9019462843470151  0.4011864226954998   T   T   T
  0.3750000000000000  0.6474141075836247  0.2481168992554533   T   T   T
  0.8750000000000000  0.6303452495826304  0.2385309427983901   T   T   T
  0.3750000000000000  0.6250000000000000  0.0000000000000000   F   F   F
  0.8750000000000000  0.6250000000000000  0.0000000000000000   F   F   F
  0.3750000000000000  0.1450383330461201  0.2492718373850905   T   T   T
  0.8750000000000000  0.1393778444999625  0.2507554164352545   T   T   T
  0.3750000000000000  0.1250000000000000  0.0000000000000000   F   F   F
  0.8750000000000000  0.1250000000000000  0.0000000000000000   F   F   F
  0.3750000000000000  0.4415190445210805  0.4035891266026893   T   T   T
 
  0.00000000E+00  0.00000000E+00  0.00000000E+00
  0.00000000E+00  0.00000000E+00  0.00000000E+00
  0.00000000E+00  0.00000000E+00  0.00000000E+00
  0.00000000E+00  0.00000000E+00  0.00000000E+00
  0.00000000E+00  0.00000000E+00  0.00000000E+00
  0.00000000E+00  0.00000000E+00  0.00000000E+00
  0.00000000E+00  0.00000000E+00  0.00000000E+00
  0.00000000E+00  0.00000000E+00  0.00000000E+00
  0.00000000E+00  0.00000000E+00  0.00000000E+00
  0.00000000E+00  0.00000000E+00  0.00000000E+00
  0.00000000E+00  0.00000000E+00  0.00000000E+00
  0.00000000E+00  0.00000000E+00  0.00000000E+00
  0.00000000E+00  0.00000000E+00  0.00000000E+00
  0.00000000E+00  0.00000000E+00  0.00000000E+00
  0.00000000E+00  0.00000000E+00  0.00000000E+00
  0.00000000E+00  0.00000000E+00  0.00000000E+00
  0.00000000E+00  0.00000000E+00  0.00000000E+00
  0.00000000E+00  0.00000000E+00  0.00000000E+00
  0.00000000E+00  0.00000000E+00  0.00000000E+00
  0.00000000E+00  0.00000000E+00  0.00000000E+00
  0.00000000E+00  0.00000000E+00  0.00000000E+00
  0.00000000E+00  0.00000000E+00  0.00000000E+00
  0.00000000E+00  0.00000000E+00  0.00000000E+00
  0.00000000E+00  0.00000000E+00  0.00000000E+00
  0.00000000E+00  0.00000000E+00  0.00000000E+00
  0.00000000E+00  0.00000000E+00  0.00000000E+00
  0.00000000E+00  0.00000000E+00  0.00000000E+00
  0.00000000E+00  0.00000000E+00  0.00000000E+00
  0.00000000E+00  0.00000000E+00  0.00000000E+00
  0.00000000E+00  0.00000000E+00  0.00000000E+00
  0.00000000E+00  0.00000000E+00  0.00000000E+00
  0.00000000E+00  0.00000000E+00  0.00000000E+00
  0.00000000E+00  0.00000000E+00  0.00000000E+00
  0.00000000E+00  0.00000000E+00  0.00000000E+00
  0.00000000E+00  0.00000000E+00  0.00000000E+00
  0.00000000E+00  0.00000000E+00  0.00000000E+00
  0.00000000E+00  0.00000000E+00  0.00000000E+00
  0.00000000E+00  0.00000000E+00  0.00000000E+00
  0.00000000E+00  0.00000000E+00  0.00000000E+00
  0.00000000E+00  0.00000000E+00  0.00000000E+00
  0.00000000E+00  0.00000000E+00  0.00000000E+00
  0.00000000E+00  0.00000000E+00  0.00000000E+00
  0.00000000E+00  0.00000000E+00  0.00000000E+00
  0.00000000E+00  0.00000000E+00  0.00000000E+00
  0.00000000E+00  0.00000000E+00  0.00000000E+00
  0.00000000E+00  0.00000000E+00  0.00000000E+00
  0.00000000E+00  0.00000000E+00  0.00000000E+00
  0.00000000E+00  0.00000000E+00  0.00000000E+00
  0.00000000E+00  0.00000000E+00  0.00000000E+00
  0.00000000E+00  0.00000000E+00  0.00000000E+00
  0.00000000E+00  0.00000000E+00  0.00000000E+00
  0.00000000E+00  0.00000000E+00  0.00000000E+00
  0.00000000E+00  0.00000000E+00  0.00000000E+00
  0.00000000E+00  0.00000000E+00  0.00000000E+00
  0.00000000E+00  0.00000000E+00  0.00000000E+00
  0.00000000E+00  0.00000000E+00  0.00000000E+00
  0.00000000E+00  0.00000000E+00  0.00000000E+00
  0.00000000E+00  0.00000000E+00  0.00000000E+00
  0.00000000E+00  0.00000000E+00  0.00000000E+00
  0.00000000E+00  0.00000000E+00  0.00000000E+00
  0.00000000E+00  0.00000000E+00  0.00000000E+00
  0.00000000E+00  0.00000000E+00  0.00000000E+00
  0.00000000E+00  0.00000000E+00  0.00000000E+00
  0.00000000E+00  0.00000000E+00  0.00000000E+00
  0.00000000E+00  0.00000000E+00  0.00000000E+00
  0.00000000E+00  0.00000000E+00  0.00000000E+00
  0.00000000E+00  0.00000000E+00  0.00000000E+00
