beta_Ti
1.0
5.745590 0.000000 0.000000
0.000000 9.072750 0.000000
0.000000 0.000000 19.667173
Ti
28
direct
0.458333 0.625000 0.636033 Ti
0.458333 0.125000 0.636033 Ti
0.958333 0.625000 0.636033 Ti
0.958333 0.125000 0.636033 Ti
0.125000 0.625000 0.771021 Ti
0.125000 0.125000 0.771021 Ti
0.625000 0.625000 0.771021 Ti
0.625000 0.125000 0.771021 Ti
0.291667 0.625000 0.906010 Ti
0.291667 0.125000 0.906010 Ti
0.791667 0.625000 0.906010 Ti
0.791667 0.125000 0.906010 Ti
0.125000 0.875000 0.568539 Ti
0.125000 0.375000 0.568539 Ti
0.625000 0.875000 0.568539 Ti
0.625000 0.375000 0.568539 Ti
0.291667 0.875000 0.703527 Ti
0.291667 0.375000 0.703527 Ti
0.791667 0.875000 0.703527 Ti
0.791667 0.375000 0.703527 Ti
0.458333 0.875000 0.838516 Ti
0.458333 0.375000 0.838516 Ti
0.958333 0.875000 0.838516 Ti
0.958333 0.375000 0.838516 Ti
0.125000 0.875000 0.973503 Ti
0.125000 0.375000 0.973503 Ti
0.625000 0.875000 0.973503 Ti
0.625000 0.375000 0.973503 Ti
