alpha_Ti
1.0
5.745590 0.000000 0.000000
0.000000 9.072750 0.000000
0.000000 0.000000 19.667173
Ti
36
direct
0.041667 0.875000 0.474550 Ti
0.041667 0.375000 0.474550 Ti
0.541667 0.875000 0.474550 Ti
0.541667 0.375000 0.474550 Ti
0.291667 0.625000 0.517692 Ti
0.291667 0.125000 0.517692 Ti
0.791667 0.625000 0.517692 Ti
0.791667 0.125000 0.517692 Ti
0.291667 0.875000 0.345127 Ti
0.291667 0.375000 0.345127 Ti
0.791667 0.875000 0.345127 Ti
0.791667 0.375000 0.345127 Ti
0.041667 0.625000 0.388269 Ti
0.041667 0.125000 0.388269 Ti
0.541667 0.625000 0.388269 Ti
0.541667 0.125000 0.388269 Ti
0.041667 0.875000 0.215705 Ti
0.041667 0.375000 0.215705 Ti
0.541667 0.875000 0.215705 Ti
0.541667 0.375000 0.215705 Ti
0.291667 0.625000 0.258846 Ti
0.291667 0.125000 0.258846 Ti
0.791667 0.625000 0.258846 Ti
0.791667 0.125000 0.258846 Ti
0.291667 0.875000 0.086281 Ti
0.291667 0.375000 0.086281 Ti
0.791667 0.875000 0.086281 Ti
0.791667 0.375000 0.086281 Ti
0.041667 0.625000 0.129423 Ti
0.041667 0.125000 0.129423 Ti
0.541667 0.625000 0.129423 Ti
0.541667 0.125000 0.129423 Ti
0.791667 0.125000 0.000000 Ti
0.291667 0.125000 0.000000 Ti
0.791667 0.625000 -0.000000 Ti
0.291667 0.625000 -0.000000 Ti
