total_Ti
1.0
4.756510 0.000000 0.000000
0.000000 4.675430 0.000000
0.000000 0.000000 21.011761
Ti
24
direct
0.333333 0.750000 0.342884 Ti
0.333333 0.750000 0.205731 Ti
0.333333 0.750000 0.068577 Ti
0.833334 0.750000 0.274308 Ti
0.833334 0.750000 0.137154 Ti
0.833334 0.750000 -0.000000 Ti
0.166666 0.250000 0.274307 Ti
0.166666 0.250000 0.137154 Ti
0.166666 0.250000 -0.000000 Ti
0.666667 0.250000 0.342884 Ti
0.666667 0.250000 0.205731 Ti
0.666667 0.250000 0.068577 Ti
0.750000 0.750000 0.861985 Ti
0.250000 0.250000 0.861985 Ti
0.250000 0.750000 0.785769 Ti
0.750000 0.250000 0.785769 Ti
0.750000 0.750000 0.709551 Ti
0.250000 0.250000 0.709551 Ti
0.250000 0.750000 0.633335 Ti
0.750000 0.250000 0.633335 Ti
0.750000 0.750000 0.557118 Ti
0.250000 0.250000 0.557118 Ti
0.250000 0.750000 0.480902 Ti
0.750000 0.250000 0.480902 Ti
