beta_Ti
1.0
4.756510 0.000000 0.000000
0.000000 4.675430 0.000000
0.000000 0.000000 21.011761
Ti
12
direct
0.750000 0.750000 0.861985 Ti
0.250000 0.250000 0.861985 Ti
0.250000 0.750000 0.785769 Ti
0.750000 0.250000 0.785769 Ti
0.750000 0.750000 0.709551 Ti
0.250000 0.250000 0.709551 Ti
0.250000 0.750000 0.633335 Ti
0.750000 0.250000 0.633335 Ti
0.750000 0.750000 0.557118 Ti
0.250000 0.250000 0.557118 Ti
0.250000 0.750000 0.480902 Ti
0.750000 0.250000 0.480902 Ti
