substance_top
1.0
   2.9630000000000001    0.0000000000000000    0.0000000000000002
   0.0000000000000025   15.3989999999999991    0.0000000000000009
   0.0000000000000000    0.0000000000000000   48.1920000000000002
Fe
52
Selective dynamics
direct
   0.3530400000000001    0.0451600000000000    0.3424531042496680 T T T Fe
   0.3478800000000001    0.1587300000000000    0.3911126328021249 T T T Fe
   0.3467900000000000    0.1101100000000000    0.4738545816733068 F F F Fe
   0.3427100000000000    0.2723000000000000    0.4397825365205844 F F F Fe
   0.3457200000000001    0.0614800000000000    0.5565965305444888 F F F Fe
   0.3416300000000000    0.2236700000000000    0.5225244853917663 F F F Fe
   0.3375500000000000    0.3858699999999999    0.4884420650730412 F F F Fe
   0.3489500000000000    0.2073600000000000    0.3083706839309430 T T T Fe
   0.3437800000000000    0.3209400000000000    0.3570405876494025 T T T Fe
   0.3396899999999999    0.4831299999999999    0.3229685424966800 T T T Fe
   0.3386200000000000    0.4344999999999999    0.4057001162018593 T T T Fe
   0.3345300000000000    0.5967000000000000    0.3716280710491368 T T T Fe
   0.3304300000000001    0.7588900000000000    0.3375560258964144 T T T Fe
   0.3334500000000000    0.5480600000000000    0.4543700199203188 F F F Fe
   0.3293600000000000    0.7102600000000000    0.4202979747675963 T T T Fe
   0.3252700000000000    0.8724700000000000    0.3862155544488712 T T T Fe
   0.3405600000000000    0.1750400000000000    0.6052560590969456 F F F Fe
   0.3364600000000000    0.3372400000000000    0.5711840139442232 F F F Fe
   0.3323800000000000    0.4994300000000000    0.5371119687915007 F F F Fe
   0.3272200000000001    0.6130100000000001    0.5857714973439576 F F F Fe
   0.3282900000000001    0.6616400000000000    0.5030295484727756 F F F Fe
   0.3242000000000000    0.8238400000000000    0.4689575033200531 F F F Fe
   0.3201000000000000    0.9860300000000000    0.4348854581673308 F F F Fe
   0.3231200000000000    0.7752000000000000    0.5516994521912352 F F F Fe
   0.3190300000000000    0.9374000000000000    0.5176274070385127 F F F Fe
   0.3179600000000001    0.8887699999999999    0.6003589807436919 F F F Fe
   0.8304500000000001    0.1350900000000000    0.4325406706507305 F F F Fe
   0.8293799999999999    0.0864600000000000    0.5152826195219123 F F F Fe
   0.8252900000000000    0.2486500000000000    0.4812105743691900 F F F Fe
   0.8366899999999999    0.0701500000000000    0.3011391932270917 T T T Fe
   0.8315300000000000    0.1837200000000000    0.3497987217795485 T T T Fe
   0.8274300000000000    0.3459199999999999    0.3157266766268261 T T T Fe
   0.8263600000000001    0.2972799999999999    0.3984686254980080 T T T Fe
   0.8222700000000002    0.4594800000000000    0.3643965803452856 T T T Fe
   0.8181899999999999    0.6216800000000000    0.3303141600265605 T T T Fe
   0.8212000000000000    0.4108500000000000    0.4471281540504648 F F F Fe
   0.8171000000000002    0.5730499999999999    0.4130561088977424 T T T Fe
   0.8130200000000000    0.7352500000000000    0.3789840637450200 T T T Fe
   0.8089300000000000    0.8974500000000000    0.3449016434262948 T T T Fe
   0.8283100000000000    0.0378300000000000    0.5980245683930944 F F F Fe
   0.8242200000000000    0.2000200000000000    0.5639525232403719 F F F Fe
   0.8201199999999998    0.3622300000000000    0.5298701029216468 F F F Fe
   0.8149600000000000    0.4757900000000000    0.5785400066401063 F F F Fe
   0.8160300000000000    0.5244200000000000    0.4957980577689243 F F F Fe
   0.8119400000000001    0.6866200000000000    0.4617260126162019 F F F Fe
   0.8078600000000001    0.8488200000000000    0.4276435922974768 T T T Fe
   0.8037600000000000    0.0110100000000000    0.3935715471447543 T T T Fe
   0.8108700000000001    0.6379899999999999    0.5444575863213812 F F F Fe
   0.8067700000000001    0.8001900000000000    0.5103855411686588 F F F Fe
   0.8026900000000000    0.9623800000000000    0.4763134960159364 F F F Fe
   0.8056999999999999    0.7515500000000001    0.5931274900398408 F F F Fe
   0.8016100000000000    0.9137599999999999    0.5590554448871181 F F F Fe
