total_structure
1.0
   2.9630000000000001    0.0000000000000000    0.0000000000000002
   0.0000000000000025   15.3989999999999991    0.0000000000000009
   0.0000000000000000    0.0000000000000000   48.1920000000000002
Cr Fe N
36 52 36
Selective dynamics
direct
   0.3179800000000000    0.8541699999999999    0.1837753154050465 T T T Cr
   0.3171400000000000    0.9636600000000000    0.2343438745019920 T T T Cr
   0.8244300000000000    0.7978400000000000    0.2339703685258964 T T T Cr
   0.3310200000000000    0.7398700000000000    0.2838230411686587 T T T Cr
   0.8235799999999999    0.9073299999999999    0.2845389276228420 T T T Cr
   0.3327500000000000    0.5208500000000000    0.1837753154050465 T T T Cr
   0.3319100000000000    0.6303400000000000    0.2343438745019920 T T T Cr
   0.8252700000000001    0.6883500000000000    0.1834121845949535 T T T Cr
   0.8391900000000002    0.4645200000000000    0.2339703685258964 T T T Cr
   0.3457900000000000    0.4065500000000000    0.2838230411686587 T T T Cr
   0.8383500000000000    0.5740100000000000    0.2845389276228419 T T T Cr
   0.3475200000000000    0.1875300000000000    0.1837753154050465 T T T Cr
   0.3466800000000000    0.2970200000000000    0.2343438745019920 T T T Cr
   0.8400400000000001    0.3550300000000000    0.1834018094289508 T T T Cr
   0.8539600000000001    0.1311900000000000    0.2339703685258964 T T T Cr
   0.3605600000000000    0.0732200000000000    0.2838230411686587 T T T Cr
   0.8531200000000000    0.2406800000000000    0.2845389276228419 T T T Cr
   0.3190500000000000    0.8541799999999999    0.0331486553784860 F F F Cr
   0.3182000000000000    0.9636700000000000    0.0837172144754316 F F F Cr
   0.8254899999999999    0.7978400000000000    0.0833437084993360 F F F Cr
   0.3320900000000001    0.7398700000000000    0.1331963811420983 F F F Cr
   0.8246500000000000    0.9073299999999999    0.1339122675962815 F F F Cr
   0.3338200000000001    0.5208600000000000    0.0331486553784860 F F F Cr
   0.3329700000000000    0.6303500000000000    0.0837172144754316 F F F Cr
   0.8263400000000001    0.6883500000000000    0.0327855245683931 F F F Cr
   0.8402600000000001    0.4645200000000000    0.0833437084993360 F F F Cr
   0.3468600000000001    0.4065500000000000    0.1331963811420983 F F F Cr
   0.8394100000000000    0.5740100000000000    0.1339122675962815 F F F Cr
   0.3485900000000000    0.1875400000000000    0.0331486553784860 F F F Cr
   0.3477400000000000    0.2970300000000000    0.0837172144754316 F F F Cr
   0.8411000000000000    0.3550300000000000    0.0327751494023904 F F F Cr
   0.8550300000000001    0.1312000000000000    0.0833437084993360 F F F Cr
   0.3616200000000001    0.0732300000000000    0.1331963811420983 F F F Cr
   0.8541799999999999    0.2406900000000000    0.1339122675962815 F F F Cr
   0.8400400000000001    0.0233600000000000    0.1834018094289508 T T T Cr
   0.8411000000000001    0.0233700000000000    0.0327751494023904 F F F Cr
   0.3530400000000001    0.0451600000000000    0.3424531042496680 T T T Fe
   0.3478800000000001    0.1587300000000000    0.3911126328021249 T T T Fe
   0.3467900000000000    0.1101100000000000    0.4738545816733068 F F F Fe
   0.3427100000000000    0.2723000000000000    0.4397825365205844 F F F Fe
   0.3457200000000001    0.0614800000000000    0.5565965305444888 F F F Fe
   0.3416300000000000    0.2236700000000000    0.5225244853917663 F F F Fe
   0.3375500000000000    0.3858699999999999    0.4884420650730412 F F F Fe
   0.3489500000000000    0.2073600000000000    0.3083706839309430 T T T Fe
   0.3437800000000000    0.3209400000000000    0.3570405876494025 T T T Fe
   0.3396899999999999    0.4831299999999999    0.3229685424966800 T T T Fe
   0.3386200000000000    0.4344999999999999    0.4057001162018593 T T T Fe
   0.3345300000000000    0.5967000000000000    0.3716280710491368 T T T Fe
   0.3304300000000001    0.7588900000000000    0.3375560258964144 T T T Fe
   0.3334500000000000    0.5480600000000000    0.4543700199203188 F F F Fe
   0.3293600000000000    0.7102600000000000    0.4202979747675963 T T T Fe
   0.3252700000000000    0.8724700000000000    0.3862155544488712 T T T Fe
   0.3405600000000000    0.1750400000000000    0.6052560590969456 F F F Fe
   0.3364600000000000    0.3372400000000000    0.5711840139442232 F F F Fe
   0.3323800000000000    0.4994300000000000    0.5371119687915007 F F F Fe
   0.3272200000000001    0.6130100000000001    0.5857714973439576 F F F Fe
   0.3282900000000001    0.6616400000000000    0.5030295484727756 F F F Fe
   0.3242000000000000    0.8238400000000000    0.4689575033200531 F F F Fe
   0.3201000000000000    0.9860300000000000    0.4348854581673308 F F F Fe
   0.3231200000000000    0.7752000000000000    0.5516994521912352 F F F Fe
   0.3190300000000000    0.9374000000000000    0.5176274070385127 F F F Fe
   0.3179600000000001    0.8887699999999999    0.6003589807436919 F F F Fe
   0.8304500000000001    0.1350900000000000    0.4325406706507305 F F F Fe
   0.8293799999999999    0.0864600000000000    0.5152826195219123 F F F Fe
   0.8252900000000000    0.2486500000000000    0.4812105743691900 F F F Fe
   0.8366899999999999    0.0701500000000000    0.3011391932270917 T T T Fe
   0.8315300000000000    0.1837200000000000    0.3497987217795485 T T T Fe
   0.8274300000000000    0.3459199999999999    0.3157266766268261 T T T Fe
   0.8263600000000001    0.2972799999999999    0.3984686254980080 T T T Fe
   0.8222700000000002    0.4594800000000000    0.3643965803452856 T T T Fe
   0.8181899999999999    0.6216800000000000    0.3303141600265605 T T T Fe
   0.8212000000000000    0.4108500000000000    0.4471281540504648 F F F Fe
   0.8171000000000002    0.5730499999999999    0.4130561088977424 T T T Fe
   0.8130200000000000    0.7352500000000000    0.3789840637450200 T T T Fe
   0.8089300000000000    0.8974500000000000    0.3449016434262948 T T T Fe
   0.8283100000000000    0.0378300000000000    0.5980245683930944 F F F Fe
   0.8242200000000000    0.2000200000000000    0.5639525232403719 F F F Fe
   0.8201199999999998    0.3622300000000000    0.5298701029216468 F F F Fe
   0.8149600000000000    0.4757900000000000    0.5785400066401063 F F F Fe
   0.8160300000000000    0.5244200000000000    0.4957980577689243 F F F Fe
   0.8119400000000001    0.6866200000000000    0.4617260126162019 F F F Fe
   0.8078600000000001    0.8488200000000000    0.4276435922974768 T T T Fe
   0.8037600000000000    0.0110100000000000    0.3935715471447543 T T T Fe
   0.8108700000000001    0.6379899999999999    0.5444575863213812 F F F Fe
   0.8067700000000001    0.8001900000000000    0.5103855411686588 F F F Fe
   0.8026900000000000    0.9623800000000000    0.4763134960159364 F F F Fe
   0.8056999999999999    0.7515500000000001    0.5931274900398408 F F F Fe
   0.8016100000000000    0.9137599999999999    0.5590554448871181 F F F Fe
   0.8174800000000000    0.9097299999999999    0.2092359727755644 T T T N
   0.3249200000000000    0.7422700000000000    0.2085097111553785 T T T N
   0.3240800000000000    0.8517599999999999    0.2590782702523240 T T T N
   0.8315900000000001    0.7954300000000000    0.1586570385126162 T T T N
   0.3243000000000000    0.9612600000000000    0.1590201693227091 T T T N
   0.8322500000000000    0.5764100000000000    0.2092359727755644 T T T N
   0.8313700000000002    0.6859400000000000    0.2587151394422311 T T T N
   0.3396900000000000    0.4089500000000000    0.2085097111553785 T T T N
   0.3388500000000000    0.5184400000000000    0.2590782702523240 T T T N
   0.8463600000000002    0.4621100000000000    0.1586570385126162 T T T N
   0.3390700000000000    0.6279400000000001    0.1590201693227092 T T T N
   0.8470199999999999    0.2430900000000000    0.2092359727755644 T T T N
   0.8461400000000000    0.3526200000000000    0.2587151394422311 T T T N
   0.3544600000000001    0.0756300000000000    0.2085097111553785 T T T N
   0.3536199999999999    0.1851200000000000    0.2590782702523240 T T T N
   0.8611300000000001    0.1287900000000000    0.1586570385126162 T T T N
   0.3538400000000000    0.2946199999999999    0.1590201693227091 T T T N
   0.8185500000000000    0.9097399999999999    0.0586093127490040 F F F N
   0.3259900000000001    0.7422800000000001    0.0578830511288181 F F F N
   0.3251400000000000    0.8517699999999999    0.1084516102257636 F F F N
   0.8326500000000000    0.7954400000000000    0.0080303784860558 F F F N
   0.3253600000000000    0.9612699999999998    0.0083935092961487 F F F N
   0.8333199999999999    0.5764200000000000    0.0586093127490040 F F F N
   0.8324300000000001    0.6859400000000000    0.1080884794156706 F F F N
   0.3407600000000001    0.4089600000000000    0.0578830511288181 F F F N
   0.3399100000000000    0.5184500000000000    0.1084516102257636 F F F N
   0.8474200000000002    0.4621199999999999    0.0080303784860558 F F F N
   0.3401300000000000    0.6279400000000001    0.0083935092961487 F F F N
   0.8480899999999999    0.2431000000000000    0.0586093127490040 F F F N
   0.8472000000000000    0.3526200000000000    0.1080884794156706 F F F N
   0.3555300000000000    0.0756400000000000    0.0578830511288181 F F F N
   0.3546800000000000    0.1851300000000000    0.1084516102257636 F F F N
   0.8621900000000001    0.1288000000000000    0.0080303784860558 F F F N
   0.3549000000000000    0.2946199999999999    0.0083935092961487 F F F N
   0.8461400000000001    0.0209600000000000    0.2587151394422311 T T T N
   0.8472000000000000    0.0209600000000000    0.1080884794156706 F F F N
