substance_top
1.0
   3.5061499999999999    0.0000000000000000    0.0000000000000002
   0.0000000000000019   12.0001999999999995    0.0000000000000007
   0.0000000000000000    0.0000000000000000   25.8716049620000028
Fe
36
Selective dynamics
direct
   0.9933200000000000    0.7184400000000000    0.6134725725099760 F F F Fe
   0.4933200000000000    0.5543100000000000    0.6000544405653252 F F F Fe
   0.4933200000000000    0.7391600000000000    0.5589789506774395 F F F Fe
   0.9933200000000000    0.5750200000000000    0.5455608187327888 F F F Fe
   0.9933200000000002    0.3901700000000000    0.5866259150250549 F F F Fe
   0.4933200000000000    0.2260400000000000    0.5732077830804040 F F F Fe
   0.4933200000000000    0.4108899999999999    0.5321322931925184 F F F Fe
   0.9933200000000002    0.2467500000000000    0.5187141612478676 F F F Fe
   0.9933200000000000    0.0619000000000000    0.5597792575401338 F F F Fe
   0.4933200000000000    0.8977699999999998    0.5463611255954829 F F F Fe
   0.4933200000000000    0.0826200000000000    0.5052856357075973 F F F Fe
   0.9933200000000000    0.9184800000000000    0.4918675037629464 F F F Fe
   0.9933200000000000    0.7598700000000000    0.5044957224405227 F F F Fe
   0.4933200000000000    0.5957300000000000    0.4910671969002524 F F F Fe
   0.4933200000000000    0.7805800000000001    0.4500021006079863 F F F Fe
   0.9933200000000002    0.6164500000000001    0.4365735750677160 F F F Fe
   0.9933200000000002    0.4315999999999999    0.4776490649556015 F F F Fe
   0.4933200000000000    0.2674600000000000    0.4642205394153312 F F F Fe
   0.4933200000000000    0.4523100000000000    0.4231554431230651 F F F Fe
   0.9933200000000002    0.2881800000000000    0.4097269175827948 F F F Fe
   0.9933199999999998    0.1033300000000000    0.4508024074706804 F F F Fe
   0.4933200000000000    0.9391999999999999    0.4373738819304099 F F F Fe
   0.4933200000000000    0.1240400000000000    0.3963087856381440 F F F Fe
   0.9933200000000000    0.9599100000000000    0.3828802600978736 F F F Fe
   0.9933200000000000    0.8013000000000000    0.3955084787754498 F F F Fe
   0.4933200000000000    0.6371599999999998    0.3820903468307991 F F F Fe
   0.4933200000000000    0.8220099999999999    0.3410148569429134 F F F Fe
   0.9933200000000002    0.6578799999999999    0.3275967249982627 F F F Fe
   0.9933200000000002    0.4730300000000000    0.3686618212905287 F F F Fe
   0.4933200000000000    0.3088900000000000    0.3552436893458779 F F F Fe
   0.4933200000000000    0.4937400000000000    0.3141681994579923 F F F Fe
   0.9933200000000000    0.3296100000000000    0.3007500675133415 F F F Fe
   0.9933200000000002    0.1447600000000000    0.3418151638056076 F F F Fe
   0.4933200000000000    0.9806200000000000    0.3283970318609566 F F F Fe
   0.4933200000000000    0.1654700000000000    0.2873215419730711 F F F Fe
   0.9933200000000000    0.0013400000000000    0.2739034100284203 F F F Fe
