substance_top
1.0
   3.5062000000000002    0.0000000000000000    0.0000000000000002
   0.0000000000000019   12.0001999999999995    0.0000000000000007
   0.0000000000000000    0.0000000000000000   27.8249410620000006
Fe
36
Selective dynamics
direct
   0.1373800000000000    0.7201700000000000    0.7920999606392626 F F F Fe
   0.6373799999999998    0.5560300000000000    0.7786413550247685 F F F Fe
   0.6373799999999998    0.7408799999999999    0.7374842723754913 F F F Fe
   0.1373800000000000    0.5767400000000000    0.7240360836384078 F F F Fe
   0.1373800000000000    0.3919000000000000    0.7651931662876850 F F F Fe
   0.6373799999999999    0.2277600000000000    0.7517345606731909 F F F Fe
   0.6373799999999999    0.4126100000000000    0.7105774780239138 F F F Fe
   0.1373800000000000    0.2484800000000000    0.6971292892868304 F F F Fe
   0.1373800000000000    0.0636300000000000    0.7382863719361074 F F F Fe
   0.6373799999999999    0.8994900000000000    0.7248277663216135 F F F Fe
   0.6373799999999999    0.0843400000000000    0.6836706836723362 F F F Fe
   0.1373800000000000    0.9202099999999999    0.6702224949352528 F F F Fe
   0.1373800000000000    0.7615900000000000    0.6828685841117200 F F F Fe
   0.6373799999999999    0.5974600000000000    0.6694203953746366 F F F Fe
   0.6373799999999998    0.7823099999999999    0.6282633127253594 F F F Fe
   0.1373800000000000    0.6181700000000000    0.6148047071108653 F F F Fe
   0.1373800000000000    0.4333199999999999    0.6559617897601425 F F F Fe
   0.6373799999999999    0.2691900000000000    0.6425136010230590 F F F Fe
   0.6373799999999999    0.4540399999999999    0.6013565183737819 F F F Fe
   0.1373800000000000    0.2899000000000000    0.5878979127592878 F F F Fe
   0.1373800000000000    0.1050500000000000    0.6290549954085649 F F F Fe
   0.6373799999999998    0.9409200000000000    0.6156068066714815 F F F Fe
   0.6373799999999999    0.1257700000000000    0.5744497240222044 F F F Fe
   0.1373800000000000    0.9616299999999999    0.5609911184077102 T T T Fe
   0.1373800000000000    0.8030199999999998    0.5736476244615882 F F F Fe
   0.6373799999999999    0.6388900000000000    0.5601890188470942 T T T Fe
   0.6373799999999999    0.8237400000000000    0.5190319361978170 T T T Fe
   0.1373800000000000    0.6595999999999999    0.5055837474607335 T T T Fe
   0.1373800000000000    0.4747499999999999    0.5467408301100107 T T T Fe
   0.6373799999999998    0.3106200000000000    0.5332822244955165 T T T Fe
   0.6373799999999999    0.4954700000000000    0.4921251418462394 T T T Fe
   0.1373800000000000    0.3313300000000000    0.4786769531091559 T T T Fe
   0.1373800000000000    0.1464800000000000    0.5198340357584331 T T T Fe
   0.6373799999999998    0.9823499999999998    0.5063754301439390 T T T Fe
   0.6373799999999999    0.1672000000000000    0.4652183474946618 T T T Fe
   0.1373800000000000    0.0030600000000000    0.4517701587575784 T T T Fe
