total_structure
1.0
   3.0750000000000002    0.0000000000000000    0.0000000000000002
   0.0000000000000026   16.0000000000000000    0.0000000000000010
   0.0000000000000000    0.0000000000000000   51.5109925000000004
Cr Fe W N
30 54 6 36
Selective dynamics
direct
   0.3179800000000000    0.8541700000000000    0.1786396078468105 T T T Cr
   0.3171399999999999    0.9636600000000000    0.2277949992906854 T T T Cr
   0.8244299999999999    0.7978400000000000    0.2274319311552772 T T T Cr
   0.3327500000000000    0.5208500000000000    0.1786396078468106 T T T Cr
   0.3319100000000000    0.6303400000000000    0.2277949992906854 T T T Cr
   0.8252700000000001    0.6883500000000000    0.1782866249373859 T T T Cr
   0.8391900000000000    0.4645200000000000    0.2274319311552772 T T T Cr
   0.3475200000000000    0.1875300000000000    0.1786396078468106 T T T Cr
   0.3466800000000000    0.2970200000000000    0.2277949992906854 T T T Cr
   0.8400400000000000    0.3550300000000000    0.1782765397114024 T T T Cr
   0.8539600000000002    0.1311900000000000    0.2274319311552772 T T T Cr
   0.3190500000000000    0.8541800000000001    0.0322222970174764 F F F Cr
   0.3182000000000000    0.9636700000000000    0.0813776884613513 F F F Cr
   0.8254899999999999    0.7978400000000000    0.0810146203259431 F F F Cr
   0.3320899999999999    0.7398700000000000    0.1294741311769522 F F F Cr
   0.8246500000000000    0.9073300000000000    0.1301700117698179 F F F Cr
   0.3338200000000000    0.5208600000000000    0.0322222970174764 F F F Cr
   0.3329700000000000    0.6303500000000000    0.0813776884613513 F F F Cr
   0.8263400000000001    0.6883500000000000    0.0318693141080518 F F F Cr
   0.8402600000000000    0.4645200000000000    0.0810146203259431 F F F Cr
   0.3468600000000001    0.4065500000000000    0.1294741311769522 F F F Cr
   0.8394100000000000    0.5740100000000000    0.1301700117698179 F F F Cr
   0.3485900000000000    0.1875400000000000    0.0322222970174764 F F F Cr
   0.3477400000000000    0.2970300000000000    0.0813776884613512 F F F Cr
   0.8411000000000000    0.3550300000000000    0.0318592288820682 F F F Cr
   0.8550300000000000    0.1312000000000000    0.0810146203259431 F F F Cr
   0.3616200000000000    0.0732300000000000    0.1294741311769522 F F F Cr
   0.8541800000000001    0.2406900000000000    0.1301700117698179 F F F Cr
   0.8400400000000000    0.0233600000000000    0.1782765397114024 T T T Cr
   0.8411000000000000    0.0233700000000000    0.0318592288820682 F F F Cr
   0.3530400000000000    0.0286600000000000    0.3454890041188782 T T T Fe
   0.3478800000000001    0.1409000000000000    0.3930912707612846 T T T Fe
   0.3467900000000000    0.0900100000000000    0.4733898400423949 F F F Fe
   0.3427100000000000    0.2531300000000000    0.4407036226296746 T T T Fe
   0.3457200000000000    0.0391300000000000    0.5536783240975216 F F F Fe
   0.3416299999999999    0.2022400000000000    0.5210021919107849 F F F Fe
   0.3375500000000000    0.3653700000000000    0.4883159744980648 F F F Fe
   0.3489500000000000    0.1917800000000000    0.3128027867061579 T T T Fe
   0.3437799999999999    0.3040200000000000    0.3604151385745479 T T T Fe
   0.3396900000000000    0.4671400000000000    0.3277390063878113 T T T Fe
   0.3386200000000000    0.4162500000000000    0.4080174052169545 T T T Fe
   0.3345300000000000    0.5793800000000000    0.3753412730302178 T T T Fe
   0.3304300000000000    0.7425000000000000    0.3426651408434812 T T T Fe
   0.3334500000000000    0.5284799999999999    0.4556398423113280 F F F Fe
   0.3293600000000000    0.6916099999999999    0.4229536248986079 T T T Fe
   0.3252700000000000    0.8547400000000001    0.3902674074858876 T T T Fe
   0.3405600000000000    0.1513600000000000    0.6012906759659116 F F F Fe
   0.3364600000000000    0.3144800000000000    0.5686044585531914 F F F Fe
   0.3323800000000000    0.4776000000000000    0.5359283263664548 F F F Fe
   0.3272200000000001    0.5898400000000000    0.5835406782348448 F F F Fe
   0.3282900000000000    0.6407200000000000    0.5032421089537346 F F F Fe
   0.3242000000000000    0.8038500000000000    0.4705659767669979 F F F Fe
   0.3200999999999999    0.9669700000000000    0.4378797593542776 T T T Fe
   0.3231200000000000    0.7529500000000000    0.5508544608221245 F F F Fe
   0.3190300000000000    0.9160800000000000    0.5181783286353879 F F F Fe
   0.3179600000000000    0.8652000000000000    0.5984668126905146 F F F Fe
   0.8304500000000001    0.1161200000000000    0.4333010667577411 T T T Fe
   0.8293800000000001    0.0652400000000000    0.5135895508128679 F F F Fe
   0.8252899999999999    0.2283500000000000    0.4809134186261311 F F F Fe
   0.8366900000000000    0.0547800000000000    0.3054002308342244 T T T Fe
   0.8315300000000000    0.1670100000000000    0.3530024974766309 T T T Fe
   0.8274300000000000    0.3301300000000000    0.3203263652898943 T T T Fe
   0.8263600000000000    0.2792400000000000    0.4006148493450208 T T T Fe
   0.8222699999999999    0.4423600000000000    0.3679387171582843 T T T Fe
   0.8181899999999999    0.6054900000000000    0.3352524997455640 T T T Fe
   0.8212000000000000    0.3914800000000000    0.4482272012134110 F F F Fe
   0.8171000000000000    0.5546000000000000    0.4155409838006907 T T T Fe
   0.8130200000000001    0.7177200000000000    0.3828648516139541 T T T Fe
   0.8089300000000000    0.8808500000000000    0.3501786342012338 T T T Fe
   0.8283100000000001    0.0143500000000000    0.5938881200939781 F F F Fe
   0.8242200000000000    0.1774700000000000    0.5612119879072414 F F F Fe
   0.8201200000000000    0.3405900000000000    0.5285156852685375 F F F Fe
   0.8149600000000001    0.4528200000000000    0.5761381223629112 F F F Fe
   0.8160300000000000    0.5037100000000000    0.4958395530818010 F F F Fe
   0.8119400000000000    0.6668300000000000    0.4631634208950643 F F F Fe
   0.8078600000000001    0.8299600000000000    0.4304671182563606 T T T Fe
   0.8030800000000000    0.0063900000000000    0.3850331752004197 T T T Fe
   0.8108699999999999    0.6159500000000000    0.5434418197242075 F F F Fe
   0.8067699999999999    0.7790700000000000    0.5107656875374708 F F F Fe
   0.8026899999999999    0.9421900000000000    0.4780895553507341 F F F Fe
   0.8057000000000000    0.7281800000000000    0.5910642568185811 F F F Fe
   0.8016100000000000    0.8913000000000000    0.5583780394058608 F F F Fe
   0.3238700000000000    0.9110900000000000    0.3103419915661692 T T T Fe
   0.8118499999999998    0.7695300000000000    0.3025360266548931 T T T Fe
   0.3310199999999999    0.7398700000000000    0.2673688436502170 T T T W
   0.8235800000000000    0.9073300000000000    0.2680647242430827 T T T W
   0.3457900000000000    0.4065500000000000    0.2673688436502170 T T T W
   0.8383500000000002    0.5740100000000000    0.2680647242430827 T T T W
   0.3605600000000000    0.0732200000000000    0.2673688436502170 T T T W
   0.8531199999999999    0.2406800000000000    0.2680647242430827 T T T W
   0.8174800000000000    0.9097300000000000    0.2033887524104685 T T T N
   0.3249200000000000    0.7422700000000000    0.2026827865916192 T T T N
   0.3240800000000000    0.8517600000000000    0.2518381780354941 T T T N
   0.8315899999999999    0.7954300000000000    0.1542232757406101 T T T N
   0.3243000000000000    0.9612600000000000    0.1545762586500347 T T T N
   0.8322500000000002    0.5764100000000000    0.2033887524104685 T T T N
   0.8313700000000001    0.6859400000000000    0.2514851951260695 T T T N
   0.3396900000000000    0.4089500000000000    0.2026827865916193 T T T N
   0.3388500000000000    0.5184400000000000    0.2518381780354941 T T T N
   0.8463600000000001    0.4621100000000000    0.1542232757406101 T T T N
   0.3390700000000000    0.6279400000000001    0.1545762586500348 T T T N
   0.8470199999999999    0.2430900000000000    0.2033887524104685 T T T N
   0.8461400000000000    0.3526200000000000    0.2514851951260695 T T T N
   0.3544600000000000    0.0756300000000000    0.2026827865916193 T T T N
   0.3536200000000000    0.1851200000000000    0.2518381780354941 T T T N
   0.8611300000000000    0.1287900000000000    0.1542232757406101 T T T N
   0.3538400000000000    0.2946200000000000    0.1545762586500347 T T T N
   0.8185500000000000    0.9097400000000000    0.0569714415811344 F F F N
   0.3259899999999999    0.7422800000000001    0.0562654757622851 F F F N
   0.3251400000000000    0.8517700000000000    0.1054208672061600 F F F N
   0.8326499999999999    0.7954400000000000    0.0078059649112760 F F F N
   0.3253600000000000    0.9612700000000000    0.0081589478207006 F F F N
   0.8333199999999999    0.5764200000000000    0.0569714415811344 F F F N
   0.8324300000000000    0.6859400000000000    0.1050678842967353 F F F N
   0.3407600000000001    0.4089600000000000    0.0562654757622851 F F F N
   0.3399100000000000    0.5184500000000000    0.1054208672061600 F F F N
   0.8474200000000001    0.4621200000000000    0.0078059649112760 F F F N
   0.3401300000000000    0.6279400000000001    0.0081589478207006 F F F N
   0.8480899999999999    0.2431000000000000    0.0569714415811344 F F F N
   0.8472000000000000    0.3526200000000000    0.1050678842967353 F F F N
   0.3555300000000000    0.0756400000000000    0.0562654757622851 F F F N
   0.3546799999999999    0.1851300000000000    0.1054208672061599 F F F N
   0.8621900000000001    0.1288000000000000    0.0078059649112760 F F F N
   0.3549000000000000    0.2946200000000000    0.0081589478207006 F F F N
   0.8461400000000000    0.0209600000000000    0.2514851951260695 T T T N
   0.8472000000000000    0.0209600000000000    0.1050678842967353 F F F N
