substance_bottem
1.0
   3.0750000000000002    0.0000000000000000    0.0000000000000002
   0.0000000000000026   16.0000000000000000    0.0000000000000010
   0.0000000000000000    0.0000000000000000   51.5109925000000004
Cr N
30 36
Selective dynamics
direct
   0.3179800000000000    0.8541700000000000    0.1786396078468105 T T T Cr
   0.3171399999999999    0.9636600000000000    0.2277949992906854 T T T Cr
   0.8244299999999999    0.7978400000000000    0.2274319311552772 T T T Cr
   0.3327500000000000    0.5208500000000000    0.1786396078468106 T T T Cr
   0.3319100000000000    0.6303400000000000    0.2277949992906854 T T T Cr
   0.8252700000000001    0.6883500000000000    0.1782866249373859 T T T Cr
   0.8391900000000000    0.4645200000000000    0.2274319311552772 T T T Cr
   0.3475200000000000    0.1875300000000000    0.1786396078468106 T T T Cr
   0.3466800000000000    0.2970200000000000    0.2277949992906854 T T T Cr
   0.8400400000000000    0.3550300000000000    0.1782765397114024 T T T Cr
   0.8539600000000002    0.1311900000000000    0.2274319311552772 T T T Cr
   0.3190500000000000    0.8541800000000001    0.0322222970174764 F F F Cr
   0.3182000000000000    0.9636700000000000    0.0813776884613513 F F F Cr
   0.8254899999999999    0.7978400000000000    0.0810146203259431 F F F Cr
   0.3320899999999999    0.7398700000000000    0.1294741311769522 F F F Cr
   0.8246500000000000    0.9073300000000000    0.1301700117698179 F F F Cr
   0.3338200000000000    0.5208600000000000    0.0322222970174764 F F F Cr
   0.3329700000000000    0.6303500000000000    0.0813776884613513 F F F Cr
   0.8263400000000001    0.6883500000000000    0.0318693141080518 F F F Cr
   0.8402600000000000    0.4645200000000000    0.0810146203259431 F F F Cr
   0.3468600000000001    0.4065500000000000    0.1294741311769522 F F F Cr
   0.8394100000000000    0.5740100000000000    0.1301700117698179 F F F Cr
   0.3485900000000000    0.1875400000000000    0.0322222970174764 F F F Cr
   0.3477400000000000    0.2970300000000000    0.0813776884613512 F F F Cr
   0.8411000000000000    0.3550300000000000    0.0318592288820682 F F F Cr
   0.8550300000000000    0.1312000000000000    0.0810146203259431 F F F Cr
   0.3616200000000000    0.0732300000000000    0.1294741311769522 F F F Cr
   0.8541800000000001    0.2406900000000000    0.1301700117698179 F F F Cr
   0.8400400000000000    0.0233600000000000    0.1782765397114024 T T T Cr
   0.8411000000000000    0.0233700000000000    0.0318592288820682 F F F Cr
   0.8174800000000000    0.9097300000000000    0.2033887524104685 T T T N
   0.3249200000000000    0.7422700000000000    0.2026827865916192 T T T N
   0.3240800000000000    0.8517600000000000    0.2518381780354941 T T T N
   0.8315899999999999    0.7954300000000000    0.1542232757406101 T T T N
   0.3243000000000000    0.9612600000000000    0.1545762586500347 T T T N
   0.8322500000000002    0.5764100000000000    0.2033887524104685 T T T N
   0.8313700000000001    0.6859400000000000    0.2514851951260695 T T T N
   0.3396900000000000    0.4089500000000000    0.2026827865916193 T T T N
   0.3388500000000000    0.5184400000000000    0.2518381780354941 T T T N
   0.8463600000000001    0.4621100000000000    0.1542232757406101 T T T N
   0.3390700000000000    0.6279400000000001    0.1545762586500348 T T T N
   0.8470199999999999    0.2430900000000000    0.2033887524104685 T T T N
   0.8461400000000000    0.3526200000000000    0.2514851951260695 T T T N
   0.3544600000000000    0.0756300000000000    0.2026827865916193 T T T N
   0.3536200000000000    0.1851200000000000    0.2518381780354941 T T T N
   0.8611300000000000    0.1287900000000000    0.1542232757406101 T T T N
   0.3538400000000000    0.2946200000000000    0.1545762586500347 T T T N
   0.8185500000000000    0.9097400000000000    0.0569714415811344 F F F N
   0.3259899999999999    0.7422800000000001    0.0562654757622851 F F F N
   0.3251400000000000    0.8517700000000000    0.1054208672061600 F F F N
   0.8326499999999999    0.7954400000000000    0.0078059649112760 F F F N
   0.3253600000000000    0.9612700000000000    0.0081589478207006 F F F N
   0.8333199999999999    0.5764200000000000    0.0569714415811344 F F F N
   0.8324300000000000    0.6859400000000000    0.1050678842967353 F F F N
   0.3407600000000001    0.4089600000000000    0.0562654757622851 F F F N
   0.3399100000000000    0.5184500000000000    0.1054208672061600 F F F N
   0.8474200000000001    0.4621200000000000    0.0078059649112760 F F F N
   0.3401300000000000    0.6279400000000001    0.0081589478207006 F F F N
   0.8480899999999999    0.2431000000000000    0.0569714415811344 F F F N
   0.8472000000000000    0.3526200000000000    0.1050678842967353 F F F N
   0.3555300000000000    0.0756400000000000    0.0562654757622851 F F F N
   0.3546799999999999    0.1851300000000000    0.1054208672061599 F F F N
   0.8621900000000001    0.1288000000000000    0.0078059649112760 F F F N
   0.3549000000000000    0.2946200000000000    0.0081589478207006 F F F N
   0.8461400000000000    0.0209600000000000    0.2514851951260695 T T T N
   0.8472000000000000    0.0209600000000000    0.1050678842967353 F F F N
