substance_top
1.0
   3.0750000000000002    0.0000000000000000    0.0000000000000002
   0.0000000000000026   16.0000000000000000    0.0000000000000010
   0.0000000000000000    0.0000000000000000   51.5109925000000004
Fe W
54 6
Selective dynamics
direct
   0.3530400000000000    0.0286600000000000    0.3454890041188782 T T T Fe
   0.3478800000000001    0.1409000000000000    0.3930912707612846 T T T Fe
   0.3467900000000000    0.0900100000000000    0.4733898400423949 F F F Fe
   0.3427100000000000    0.2531300000000000    0.4407036226296746 T T T Fe
   0.3457200000000000    0.0391300000000000    0.5536783240975216 F F F Fe
   0.3416299999999999    0.2022400000000000    0.5210021919107849 F F F Fe
   0.3375500000000000    0.3653700000000000    0.4883159744980648 F F F Fe
   0.3489500000000000    0.1917800000000000    0.3128027867061579 T T T Fe
   0.3437799999999999    0.3040200000000000    0.3604151385745479 T T T Fe
   0.3396900000000000    0.4671400000000000    0.3277390063878113 T T T Fe
   0.3386200000000000    0.4162500000000000    0.4080174052169545 T T T Fe
   0.3345300000000000    0.5793800000000000    0.3753412730302178 T T T Fe
   0.3304300000000000    0.7425000000000000    0.3426651408434812 T T T Fe
   0.3334500000000000    0.5284799999999999    0.4556398423113280 F F F Fe
   0.3293600000000000    0.6916099999999999    0.4229536248986079 T T T Fe
   0.3252700000000000    0.8547400000000001    0.3902674074858876 T T T Fe
   0.3405600000000000    0.1513600000000000    0.6012906759659116 F F F Fe
   0.3364600000000000    0.3144800000000000    0.5686044585531914 F F F Fe
   0.3323800000000000    0.4776000000000000    0.5359283263664548 F F F Fe
   0.3272200000000001    0.5898400000000000    0.5835406782348448 F F F Fe
   0.3282900000000000    0.6407200000000000    0.5032421089537346 F F F Fe
   0.3242000000000000    0.8038500000000000    0.4705659767669979 F F F Fe
   0.3200999999999999    0.9669700000000000    0.4378797593542776 T T T Fe
   0.3231200000000000    0.7529500000000000    0.5508544608221245 F F F Fe
   0.3190300000000000    0.9160800000000000    0.5181783286353879 F F F Fe
   0.3179600000000000    0.8652000000000000    0.5984668126905146 F F F Fe
   0.8304500000000001    0.1161200000000000    0.4333010667577411 T T T Fe
   0.8293800000000001    0.0652400000000000    0.5135895508128679 F F F Fe
   0.8252899999999999    0.2283500000000000    0.4809134186261311 F F F Fe
   0.8366900000000000    0.0547800000000000    0.3054002308342244 T T T Fe
   0.8315300000000000    0.1670100000000000    0.3530024974766309 T T T Fe
   0.8274300000000000    0.3301300000000000    0.3203263652898943 T T T Fe
   0.8263600000000000    0.2792400000000000    0.4006148493450208 T T T Fe
   0.8222699999999999    0.4423600000000000    0.3679387171582843 T T T Fe
   0.8181899999999999    0.6054900000000000    0.3352524997455640 T T T Fe
   0.8212000000000000    0.3914800000000000    0.4482272012134110 F F F Fe
   0.8171000000000000    0.5546000000000000    0.4155409838006907 T T T Fe
   0.8130200000000001    0.7177200000000000    0.3828648516139541 T T T Fe
   0.8089300000000000    0.8808500000000000    0.3501786342012338 T T T Fe
   0.8283100000000001    0.0143500000000000    0.5938881200939781 F F F Fe
   0.8242200000000000    0.1774700000000000    0.5612119879072414 F F F Fe
   0.8201200000000000    0.3405900000000000    0.5285156852685375 F F F Fe
   0.8149600000000001    0.4528200000000000    0.5761381223629112 F F F Fe
   0.8160300000000000    0.5037100000000000    0.4958395530818010 F F F Fe
   0.8119400000000000    0.6668300000000000    0.4631634208950643 F F F Fe
   0.8078600000000001    0.8299600000000000    0.4304671182563606 T T T Fe
   0.8030800000000000    0.0063900000000000    0.3850331752004197 T T T Fe
   0.8108699999999999    0.6159500000000000    0.5434418197242075 F F F Fe
   0.8067699999999999    0.7790700000000000    0.5107656875374708 F F F Fe
   0.8026899999999999    0.9421900000000000    0.4780895553507341 F F F Fe
   0.8057000000000000    0.7281800000000000    0.5910642568185811 F F F Fe
   0.8016100000000000    0.8913000000000000    0.5583780394058608 F F F Fe
   0.3238700000000000    0.9110900000000000    0.3103419915661692 T T T Fe
   0.8118499999999998    0.7695300000000000    0.3025360266548931 T T T Fe
   0.3310199999999999    0.7398700000000000    0.2673688436502170 T T T W
   0.8235800000000000    0.9073300000000000    0.2680647242430827 T T T W
   0.3457900000000000    0.4065500000000000    0.2673688436502170 T T T W
   0.8383500000000002    0.5740100000000000    0.2680647242430827 T T T W
   0.3605600000000000    0.0732200000000000    0.2673688436502170 T T T W
   0.8531199999999999    0.2406800000000000    0.2680647242430827 T T T W
