Ti66 Mo1
1.0
6.309760 0.000000 0.000000
0.000000 9.464640 0.000000
0.000000 0.000000 18.918326
Ti Mo
66 1
Selective dynamics
direct
0.123625 0.040347 0.502146 F F F Ti
0.627486 0.041848 0.500445 F F F Ti
0.124905 0.041812 0.659063 F F F Ti
0.624970 0.041851 0.658923 F F F Ti
0.124987 0.041741 0.817278 F F F Ti
0.624975 0.041746 0.817269 F F F Ti
0.121768 0.377579 0.501411 F F F Ti
0.624777 0.375645 0.500580 F F F Ti
0.124757 0.375529 0.658929 F F F Ti
0.624780 0.375493 0.658884 F F F Ti
0.124968 0.375221 0.817246 F F F Ti
0.624942 0.375221 0.817249 F F F Ti
0.125759 0.710270 0.499793 F F F Ti
0.623675 0.709715 0.499839 F F F Ti
0.125089 0.708732 0.658677 F F F Ti
0.624489 0.708690 0.658741 F F F Ti
0.124990 0.708481 0.817211 F F F Ti
0.624892 0.708478 0.817224 F F F Ti
0.375186 0.208791 0.579828 F F F Ti
0.874171 0.208886 0.579952 F F F Ti
0.375019 0.208550 0.738071 F F F Ti
0.874816 0.208557 0.738106 F F F Ti
0.375037 0.208477 0.896383 F F F Ti
0.874988 0.208485 0.896380 F F F Ti
0.374960 0.542379 0.579463 F F F Ti
0.874055 0.542950 0.579605 F F F Ti
0.374953 0.541920 0.738001 F F F Ti
0.874846 0.541982 0.738022 F F F Ti
0.374999 0.541823 0.896416 F F F Ti
0.874960 0.541833 0.896411 F F F Ti
0.375722 0.875287 0.579660 F F F Ti
0.874387 0.874727 0.579763 F F F Ti
0.375016 0.875112 0.738059 F F F Ti
0.874851 0.875041 0.738065 F F F Ti
0.375047 0.875075 0.896444 F F F Ti
0.874983 0.875065 0.896439 F F F Ti
0.125535 0.625926 0.356704 F F F Ti
0.623706 0.625817 0.356685 F F F Ti
0.125182 0.625580 0.118719 F F F Ti
0.625087 0.625507 0.118730 F F F Ti
0.643832 0.123522 0.355738 F F F Ti
0.125703 0.125377 0.118547 F F F Ti
0.626115 0.125194 0.118313 F F F Ti
0.125194 0.375271 0.039362 F F F Ti
0.625019 0.375293 0.039273 F F F Ti
0.125152 0.875234 0.039514 F F F Ti
0.625186 0.875110 0.039481 F F F Ti
0.121614 0.379557 0.275427 F F F Ti
0.626564 0.375785 0.276951 F F F Ti
0.126658 0.877016 0.277635 F F F Ti
0.626298 0.875168 0.277307 F F F Ti
0.375433 0.875240 0.158415 F F F Ti
0.875800 0.875420 0.158432 F F F Ti
0.375745 0.375669 0.158102 F F F Ti
0.874355 0.375843 0.157785 F F F Ti
0.869706 0.379902 0.396822 F F F Ti
0.376802 0.876637 0.396438 F F F Ti
0.877594 0.875209 0.396524 F F F Ti
0.375319 0.625808 0.237713 F F F Ti
0.874692 0.626405 0.237636 F F F Ti
0.375013 0.625272 -0.000101 F F F Ti
0.875030 0.625267 -0.000108 F F F Ti
0.380028 0.125319 0.236406 F F F Ti
0.877026 0.125775 0.236770 F F F Ti
0.375189 0.125056 -0.000178 F F F Ti
0.875251 0.125057 -0.000192 F F F Ti
0.225243 0.185278 0.373102 T T T Mo

0.000000 0.000000 0.000000
0.000000 0.000000 0.000000
0.000000 0.000000 0.000000
0.000000 0.000000 0.000000
0.000000 0.000000 0.000000
0.000000 0.000000 0.000000
0.000000 0.000000 0.000000
0.000000 0.000000 0.000000
0.000000 0.000000 0.000000
0.000000 0.000000 0.000000
0.000000 0.000000 0.000000
0.000000 0.000000 0.000000
0.000000 0.000000 0.000000
0.000000 0.000000 0.000000
0.000000 0.000000 0.000000
0.000000 0.000000 0.000000
0.000000 0.000000 0.000000
0.000000 0.000000 0.000000
0.000000 0.000000 0.000000
0.000000 0.000000 0.000000
0.000000 0.000000 0.000000
0.000000 0.000000 0.000000
0.000000 0.000000 0.000000
0.000000 0.000000 0.000000
0.000000 0.000000 0.000000
0.000000 0.000000 0.000000
0.000000 0.000000 0.000000
0.000000 0.000000 0.000000
0.000000 0.000000 0.000000
0.000000 0.000000 0.000000
0.000000 0.000000 0.000000
0.000000 0.000000 0.000000
0.000000 0.000000 0.000000
0.000000 0.000000 0.000000
0.000000 0.000000 0.000000
0.000000 0.000000 0.000000
0.000000 0.000000 0.000000
0.000000 0.000000 0.000000
0.000000 0.000000 0.000000
0.000000 0.000000 0.000000
0.000000 0.000000 0.000000
0.000000 0.000000 0.000000
0.000000 0.000000 0.000000
0.000000 0.000000 0.000000
0.000000 0.000000 0.000000
0.000000 0.000000 0.000000
0.000000 0.000000 0.000000
0.000000 0.000000 0.000000
0.000000 0.000000 0.000000
0.000000 0.000000 0.000000
0.000000 0.000000 0.000000
0.000000 0.000000 0.000000
0.000000 0.000000 0.000000
0.000000 0.000000 0.000000
0.000000 0.000000 0.000000
0.000000 0.000000 0.000000
0.000000 0.000000 0.000000
0.000000 0.000000 0.000000
0.000000 0.000000 0.000000
0.000000 0.000000 0.000000
0.000000 0.000000 0.000000
0.000000 0.000000 0.000000
0.000000 0.000000 0.000000
0.000000 0.000000 0.000000
0.000000 0.000000 0.000000
0.000000 0.000000 0.000000
0.000000 0.000000 0.000000
