Ti66 Al1
1.0
6.309760 0.000000 0.000000
0.000000 9.464640 0.000000
0.000000 0.000000 18.918326
Ti Al
66 1
Selective dynamics
direct
0.124801 0.041420 0.500366 F F F Ti
0.624951 0.041663 0.500122 F F F Ti
0.124980 0.041665 0.658665 F F F Ti
0.624922 0.041672 0.658642 F F F Ti
0.125019 0.041703 0.817114 F F F Ti
0.624952 0.041700 0.817120 F F F Ti
0.123749 0.374976 0.500304 F F F Ti
0.623334 0.374981 0.500299 F F F Ti
0.124911 0.375010 0.658634 F F F Ti
0.624832 0.375012 0.658629 F F F Ti
0.125015 0.375010 0.817089 F F F Ti
0.624924 0.375008 0.817100 F F F Ti
0.124798 0.708621 0.500318 F F F Ti
0.624888 0.708387 0.500094 F F F Ti
0.124962 0.708351 0.658658 F F F Ti
0.624899 0.708342 0.658636 F F F Ti
0.125010 0.708306 0.817114 F F F Ti
0.624941 0.708309 0.817120 F F F Ti
0.374772 0.208296 0.579331 F F F Ti
0.874639 0.208278 0.579442 F F F Ti
0.374989 0.208337 0.737868 F F F Ti
0.874942 0.208336 0.737894 F F F Ti
0.375001 0.208354 0.896399 F F F Ti
0.875013 0.208354 0.896390 F F F Ti
0.374759 0.541716 0.579314 F F F Ti
0.874648 0.541739 0.579424 F F F Ti
0.374985 0.541666 0.737865 F F F Ti
0.874943 0.541669 0.737891 F F F Ti
0.374999 0.541654 0.896403 F F F Ti
0.875008 0.541654 0.896394 F F F Ti
0.375107 0.875005 0.579398 F F F Ti
0.874752 0.875019 0.579454 F F F Ti
0.375008 0.875001 0.737893 F F F Ti
0.874950 0.875004 0.737908 F F F Ti
0.375000 0.875005 0.896395 F F F Ti
0.875001 0.875005 0.896389 F F F Ti
0.120975 0.630417 0.357332 F F F Ti
0.625888 0.625810 0.356676 F F F Ti
0.125248 0.625103 0.118823 F F F Ti
0.625430 0.625106 0.118701 F F F Ti
0.120812 0.119301 0.357458 F F F Ti
0.626250 0.124194 0.356702 F F F Ti
0.125230 0.124936 0.118799 F F F Ti
0.625520 0.124935 0.118674 F F F Ti
0.125268 0.375012 0.039546 F F F Ti
0.625289 0.375011 0.039494 F F F Ti
0.124988 0.875029 0.039522 F F F Ti
0.625079 0.875025 0.039481 F F F Ti
0.634695 0.374976 0.276320 F F F Ti
0.124888 0.875246 0.277213 F F F Ti
0.625019 0.875150 0.277385 F F F Ti
0.375181 0.875088 0.158306 F F F Ti
0.874884 0.875006 0.158372 F F F Ti
0.376036 0.375004 0.158345 F F F Ti
0.876318 0.375012 0.158246 F F F Ti
0.868209 0.375050 0.397560 F F F Ti
0.375693 0.875299 0.396582 F F F Ti
0.873581 0.875103 0.396703 F F F Ti
0.376388 0.626582 0.237459 F F F Ti
0.875172 0.625673 0.237605 F F F Ti
0.375037 0.625018 -0.000071 F F F Ti
0.875118 0.625021 -0.000086 F F F Ti
0.376432 0.123414 0.237443 F F F Ti
0.875163 0.124368 0.237604 F F F Ti
0.375050 0.125002 -0.000076 F F F Ti
0.875123 0.124995 -0.000091 F F F Ti
0.247241 0.373890 0.329426 T T T Al

0.000000 0.000000 0.000000
0.000000 0.000000 0.000000
0.000000 0.000000 0.000000
0.000000 0.000000 0.000000
0.000000 0.000000 0.000000
0.000000 0.000000 0.000000
0.000000 0.000000 0.000000
0.000000 0.000000 0.000000
0.000000 0.000000 0.000000
0.000000 0.000000 0.000000
0.000000 0.000000 0.000000
0.000000 0.000000 0.000000
0.000000 0.000000 0.000000
0.000000 0.000000 0.000000
0.000000 0.000000 0.000000
0.000000 0.000000 0.000000
0.000000 0.000000 0.000000
0.000000 0.000000 0.000000
0.000000 0.000000 0.000000
0.000000 0.000000 0.000000
0.000000 0.000000 0.000000
0.000000 0.000000 0.000000
0.000000 0.000000 0.000000
0.000000 0.000000 0.000000
0.000000 0.000000 0.000000
0.000000 0.000000 0.000000
0.000000 0.000000 0.000000
0.000000 0.000000 0.000000
0.000000 0.000000 0.000000
0.000000 0.000000 0.000000
0.000000 0.000000 0.000000
0.000000 0.000000 0.000000
0.000000 0.000000 0.000000
0.000000 0.000000 0.000000
0.000000 0.000000 0.000000
0.000000 0.000000 0.000000
0.000000 0.000000 0.000000
0.000000 0.000000 0.000000
0.000000 0.000000 0.000000
0.000000 0.000000 0.000000
0.000000 0.000000 0.000000
0.000000 0.000000 0.000000
0.000000 0.000000 0.000000
0.000000 0.000000 0.000000
0.000000 0.000000 0.000000
0.000000 0.000000 0.000000
0.000000 0.000000 0.000000
0.000000 0.000000 0.000000
0.000000 0.000000 0.000000
0.000000 0.000000 0.000000
0.000000 0.000000 0.000000
0.000000 0.000000 0.000000
0.000000 0.000000 0.000000
0.000000 0.000000 0.000000
0.000000 0.000000 0.000000
0.000000 0.000000 0.000000
0.000000 0.000000 0.000000
0.000000 0.000000 0.000000
0.000000 0.000000 0.000000
0.000000 0.000000 0.000000
0.000000 0.000000 0.000000
0.000000 0.000000 0.000000
0.000000 0.000000 0.000000
0.000000 0.000000 0.000000
0.000000 0.000000 0.000000
0.000000 0.000000 0.000000
0.000000 0.000000 0.000000
