Ti66 Nb1
1.0
6.309760 0.000000 0.000000
0.000000 9.464640 0.000000
0.000000 0.000000 18.918326
Ti Nb
66 1
Selective dynamics
direct
0.115927 0.024287 0.495743 T T T Ti
0.579141 0.025882 0.486001 T T T Ti
0.105198 0.062190 0.646942 T T T Ti
0.639544 0.069399 0.644358 T T T Ti
0.124901 0.041566 0.817297 F F F Ti
0.624858 0.041550 0.817429 F F F Ti
0.589177 0.375232 0.456821 T T T Ti
0.103984 0.375013 0.643075 T T T Ti
0.638839 0.374995 0.649244 T T T Ti
0.125106 0.375003 0.817348 F F F Ti
0.624785 0.374995 0.817481 F F F Ti
0.116094 0.725629 0.495724 T T T Ti
0.578940 0.724125 0.485984 T T T Ti
0.105254 0.687763 0.646943 T T T Ti
0.639467 0.680532 0.644359 T T T Ti
0.124917 0.708415 0.817299 F F F Ti
0.624834 0.708417 0.817429 F F F Ti
0.373505 0.225107 0.557510 T T T Ti
0.853827 0.229627 0.540136 T T T Ti
0.374703 0.208060 0.738020 F F F Ti
0.875219 0.208300 0.738522 F F F Ti
0.374896 0.208289 0.896502 F F F Ti
0.875079 0.208319 0.896603 F F F Ti
0.373399 0.524825 0.557476 T T T Ti
0.853929 0.520356 0.540136 T T T Ti
0.374705 0.541917 0.738020 F F F Ti
0.875241 0.541658 0.738524 F F F Ti
0.374898 0.541688 0.896508 F F F Ti
0.875077 0.541661 0.896608 F F F Ti
0.374007 0.875002 0.585736 T T T Ti
0.843946 0.874812 0.570391 T T T Ti
0.374586 0.874987 0.737943 F F F Ti
0.874984 0.874924 0.738380 F F F Ti
0.374889 0.874973 0.896516 F F F Ti
0.875049 0.874958 0.896619 F F F Ti
0.173442 0.618280 0.370834 T T T Ti
0.656041 0.616527 0.365567 T T T Ti
0.125472 0.625021 0.118777 F F F Ti
0.625461 0.625084 0.118718 F F F Ti
0.173181 0.131695 0.370796 T T T Ti
0.656248 0.133573 0.365597 T T T Ti
0.125485 0.125010 0.118770 F F F Ti
0.625457 0.124949 0.118713 F F F Ti
0.124932 0.374999 0.039577 F F F Ti
0.625225 0.374996 0.039491 F F F Ti
0.125085 0.875012 0.039587 F F F Ti
0.625062 0.875018 0.039532 F F F Ti
0.155859 0.375070 0.283268 T T T Ti
0.608972 0.375084 0.280479 T T T Ti
0.099692 0.875171 0.277757 T T T Ti
0.630555 0.875164 0.280783 T T T Ti
0.375653 0.875019 0.158374 F F F Ti
0.874708 0.875034 0.158137 F F F Ti
0.375562 0.375020 0.157884 F F F Ti
0.874444 0.374987 0.158479 F F F Ti
-0.097837 0.375121 0.395338 T T T Ti
0.348107 0.875369 0.391568 T T T Ti
0.880929 0.874703 0.401392 T T T Ti
0.377983 0.633049 0.246176 T T T Ti
0.883297 0.617466 0.248872 T T T Ti
0.375089 0.625081 -0.000035 F F F Ti
0.875048 0.625032 0.000044 F F F Ti
0.378004 0.117086 0.246168 T T T Ti
0.883241 0.132645 0.248866 T T T Ti
0.375112 0.124912 -0.000040 F F F Ti
0.875054 0.124955 0.000037 F F F Ti
0.231152 0.374412 0.444555 T T T Nb

0.000000 0.000000 0.000000
0.000000 0.000000 0.000000
0.000000 0.000000 0.000000
0.000000 0.000000 0.000000
0.000000 0.000000 0.000000
0.000000 0.000000 0.000000
0.000000 0.000000 0.000000
0.000000 0.000000 0.000000
0.000000 0.000000 0.000000
0.000000 0.000000 0.000000
0.000000 0.000000 0.000000
0.000000 0.000000 0.000000
0.000000 0.000000 0.000000
0.000000 0.000000 0.000000
0.000000 0.000000 0.000000
0.000000 0.000000 0.000000
0.000000 0.000000 0.000000
0.000000 0.000000 0.000000
0.000000 0.000000 0.000000
0.000000 0.000000 0.000000
0.000000 0.000000 0.000000
0.000000 0.000000 0.000000
0.000000 0.000000 0.000000
0.000000 0.000000 0.000000
0.000000 0.000000 0.000000
0.000000 0.000000 0.000000
0.000000 0.000000 0.000000
0.000000 0.000000 0.000000
0.000000 0.000000 0.000000
0.000000 0.000000 0.000000
0.000000 0.000000 0.000000
0.000000 0.000000 0.000000
0.000000 0.000000 0.000000
0.000000 0.000000 0.000000
0.000000 0.000000 0.000000
0.000000 0.000000 0.000000
0.000000 0.000000 0.000000
0.000000 0.000000 0.000000
0.000000 0.000000 0.000000
0.000000 0.000000 0.000000
0.000000 0.000000 0.000000
0.000000 0.000000 0.000000
0.000000 0.000000 0.000000
0.000000 0.000000 0.000000
0.000000 0.000000 0.000000
0.000000 0.000000 0.000000
0.000000 0.000000 0.000000
0.000000 0.000000 0.000000
0.000000 0.000000 0.000000
0.000000 0.000000 0.000000
0.000000 0.000000 0.000000
0.000000 0.000000 0.000000
0.000000 0.000000 0.000000
0.000000 0.000000 0.000000
0.000000 0.000000 0.000000
0.000000 0.000000 0.000000
0.000000 0.000000 0.000000
0.000000 0.000000 0.000000
0.000000 0.000000 0.000000
0.000000 0.000000 0.000000
0.000000 0.000000 0.000000
0.000000 0.000000 0.000000
0.000000 0.000000 0.000000
0.000000 0.000000 0.000000
0.000000 0.000000 0.000000
0.000000 0.000000 0.000000
0.000000 0.000000 0.000000
