total_Ti
1.0
8.805261 0.000000 0.000000
-4.402631 7.625580 0.000000
0.000000 0.000000 22.083422
Ti
90
direct
0.222214 0.944436 0.592596 Ti
0.222214 0.444436 0.592596 Ti
0.722214 0.944436 0.592596 Ti
0.722214 0.444436 0.592596 Ti
0.388880 0.277769 0.885678 Ti
0.388880 0.777769 0.885678 Ti
0.888880 0.277769 0.885678 Ti
0.888880 0.777769 0.885678 Ti
0.555547 0.111102 0.927547 Ti
0.555547 0.611102 0.927547 Ti
0.055556 0.111102 0.927547 Ti
0.055556 0.611102 0.927547 Ti
0.388880 0.277769 0.634465 Ti
0.388880 0.777769 0.634465 Ti
0.888880 0.277769 0.634465 Ti
0.888880 0.777769 0.634465 Ti
0.555547 0.111102 0.676334 Ti
0.555547 0.611102 0.676334 Ti
0.055556 0.111102 0.676334 Ti
0.055556 0.611102 0.676334 Ti
0.222214 0.944436 0.718203 Ti
0.222214 0.444436 0.718203 Ti
0.722214 0.944436 0.718203 Ti
0.722214 0.444436 0.718203 Ti
0.388880 0.277769 0.760071 Ti
0.388880 0.777769 0.760071 Ti
0.888880 0.277769 0.760071 Ti
0.888880 0.777769 0.760071 Ti
0.555547 0.111102 0.801940 Ti
0.555547 0.611102 0.801940 Ti
0.055556 0.111102 0.801940 Ti
0.055556 0.611102 0.801940 Ti
0.222214 0.944436 0.843809 Ti
0.222214 0.444436 0.843809 Ti
0.722214 0.944436 0.843809 Ti
0.722214 0.444436 0.843809 Ti
0.166666 0.833342 -0.000000 Ti
0.166666 0.833342 0.416115 Ti
0.166666 0.500009 -0.000000 Ti
0.277778 0.722231 0.104029 Ti
0.166666 0.500009 0.416115 Ti
0.500000 0.833342 -0.000000 Ti
0.166666 0.166675 -0.000000 Ti
0.277778 0.722231 0.520144 Ti
0.277778 0.388897 0.104029 Ti
0.500000 0.833342 0.416115 Ti
0.166666 0.166675 0.416115 Ti
0.500000 0.500009 -0.000000 Ti
0.277778 0.388897 0.520144 Ti
0.611111 0.722231 0.104029 Ti
0.277778 0.055564 0.104029 Ti
0.500000 0.500009 0.416115 Ti
0.833333 0.833342 -0.000000 Ti
0.500000 0.166675 -0.000000 Ti
0.611111 0.722231 0.520144 Ti
0.277778 0.055564 0.520144 Ti
0.611111 0.388897 0.104029 Ti
0.833333 0.833342 0.416115 Ti
0.500000 0.166675 0.416115 Ti
0.833333 0.500009 -0.000000 Ti
0.611111 0.388897 0.520144 Ti
0.944444 0.722231 0.104029 Ti
0.611111 0.055564 0.104029 Ti
0.833333 0.500009 0.416115 Ti
0.833333 0.166675 -0.000000 Ti
0.944444 0.722231 0.520144 Ti
0.611111 0.055564 0.520144 Ti
0.944444 0.388897 0.104029 Ti
0.833333 0.166675 0.416115 Ti
0.944444 0.388897 0.520144 Ti
0.944445 0.055564 0.104029 Ti
0.944445 0.055564 0.520144 Ti
0.166666 0.833342 0.208057 Ti
0.166666 0.500009 0.208057 Ti
0.277778 0.722231 0.312086 Ti
0.500000 0.833342 0.208057 Ti
0.166666 0.166675 0.208057 Ti
0.277778 0.388897 0.312086 Ti
0.500000 0.500009 0.208057 Ti
0.611111 0.722231 0.312086 Ti
0.277778 0.055564 0.312086 Ti
0.833333 0.833342 0.208057 Ti
0.500000 0.166675 0.208057 Ti
0.611111 0.388897 0.312086 Ti
0.833333 0.500009 0.208057 Ti
0.944444 0.722231 0.312086 Ti
0.611111 0.055564 0.312086 Ti
0.833333 0.166675 0.208057 Ti
0.944444 0.388897 0.312086 Ti
0.944445 0.055564 0.312086 Ti
