Ti67
1.0
6.309760 0.000000 0.000000
0.000000 9.464640 0.000000
0.000000 0.000000 18.918326
Ti
67
Selective dynamics
direct
0.631006 0.040485 0.499802 F F F Ti
0.124210 0.041198 0.659265 F F F Ti
0.625061 0.041452 0.658760 F F F Ti
0.124973 0.041656 0.817271 F F F Ti
0.624926 0.041663 0.817239 F F F Ti
0.123240 0.378361 0.499776 F F F Ti
0.625036 0.375273 0.499909 F F F Ti
0.124842 0.375088 0.658657 F F F Ti
0.624505 0.375153 0.658708 F F F Ti
0.125014 0.374993 0.817210 F F F Ti
0.624925 0.375008 0.817221 F F F Ti
0.125062 0.708540 0.500059 F F F Ti
0.625372 0.708026 0.499956 F F F Ti
0.124916 0.708105 0.658751 F F F Ti
0.625287 0.708011 0.658809 F F F Ti
0.124988 0.708275 0.817246 F F F Ti
0.624972 0.708262 0.817264 F F F Ti
0.871760 0.209470 0.579935 F F F Ti
0.374960 0.208311 0.737908 F F F Ti
0.874760 0.208419 0.738035 F F F Ti
0.375009 0.208348 0.896469 F F F Ti
0.874965 0.208355 0.896486 F F F Ti
0.375119 0.541677 0.579368 F F F Ti
0.874514 0.542001 0.579452 F F F Ti
0.374958 0.541604 0.737956 F F F Ti
0.874986 0.541605 0.737991 F F F Ti
0.374999 0.541636 0.896483 F F F Ti
0.874985 0.541638 0.896490 F F F Ti
0.376905 0.873034 0.579891 F F F Ti
0.875047 0.874515 0.579579 F F F Ti
0.375104 0.874849 0.738039 F F F Ti
0.874776 0.874822 0.738047 F F F Ti
0.375013 0.874984 0.896495 F F F Ti
0.874961 0.874983 0.896500 F F F Ti
0.125025 0.625567 0.356863 F F F Ti
0.624851 0.625319 0.356792 F F F Ti
0.125014 0.625049 0.118944 F F F Ti
0.624993 0.625039 0.118940 F F F Ti
0.124864 0.125230 0.356267 F F F Ti
0.625814 0.125056 0.356572 F F F Ti
0.125016 0.125021 0.118901 F F F Ti
0.625003 0.125018 0.118891 F F F Ti
0.125002 0.375024 0.039642 F F F Ti
0.624993 0.375025 0.039641 F F F Ti
0.124999 0.875003 0.039644 F F F Ti
0.624995 0.874999 0.039643 F F F Ti
0.124968 0.375233 0.277414 F F F Ti
0.625068 0.375146 0.277392 F F F Ti
0.125043 0.875056 0.277444 F F F Ti
0.625191 0.875014 0.277417 F F F Ti
0.375025 0.875013 0.158542 F F F Ti
0.875009 0.875004 0.158539 F F F Ti
0.375013 0.375064 0.158540 F F F Ti
0.875003 0.375073 0.158531 F F F Ti
0.375245 0.375742 0.396191 F F F Ti
0.874462 0.375426 0.396227 F F F Ti
0.375709 0.874625 0.396237 F F F Ti
0.875516 0.874970 0.396374 F F F Ti
0.374977 0.625137 0.237879 F F F Ti
0.875065 0.625122 0.237884 F F F Ti
0.374994 0.625023 0.000009 F F F Ti
0.875006 0.625021 0.000014 F F F Ti
0.375154 0.125050 0.237769 F F F Ti
0.874959 0.125051 0.237734 F F F Ti
0.375005 0.125005 0.000000 F F F Ti
0.875003 0.125001 0.000007 F F F Ti
0.230973 0.113056 0.513644 T T T Ti

0.000000 0.000000 0.000000
0.000000 0.000000 0.000000
0.000000 0.000000 0.000000
0.000000 0.000000 0.000000
0.000000 0.000000 0.000000
0.000000 0.000000 0.000000
0.000000 0.000000 0.000000
0.000000 0.000000 0.000000
0.000000 0.000000 0.000000
0.000000 0.000000 0.000000
0.000000 0.000000 0.000000
0.000000 0.000000 0.000000
0.000000 0.000000 0.000000
0.000000 0.000000 0.000000
0.000000 0.000000 0.000000
0.000000 0.000000 0.000000
0.000000 0.000000 0.000000
0.000000 0.000000 0.000000
0.000000 0.000000 0.000000
0.000000 0.000000 0.000000
0.000000 0.000000 0.000000
0.000000 0.000000 0.000000
0.000000 0.000000 0.000000
0.000000 0.000000 0.000000
0.000000 0.000000 0.000000
0.000000 0.000000 0.000000
0.000000 0.000000 0.000000
0.000000 0.000000 0.000000
0.000000 0.000000 0.000000
0.000000 0.000000 0.000000
0.000000 0.000000 0.000000
0.000000 0.000000 0.000000
0.000000 0.000000 0.000000
0.000000 0.000000 0.000000
0.000000 0.000000 0.000000
0.000000 0.000000 0.000000
0.000000 0.000000 0.000000
0.000000 0.000000 0.000000
0.000000 0.000000 0.000000
0.000000 0.000000 0.000000
0.000000 0.000000 0.000000
0.000000 0.000000 0.000000
0.000000 0.000000 0.000000
0.000000 0.000000 0.000000
0.000000 0.000000 0.000000
0.000000 0.000000 0.000000
0.000000 0.000000 0.000000
0.000000 0.000000 0.000000
0.000000 0.000000 0.000000
0.000000 0.000000 0.000000
0.000000 0.000000 0.000000
0.000000 0.000000 0.000000
0.000000 0.000000 0.000000
0.000000 0.000000 0.000000
0.000000 0.000000 0.000000
0.000000 0.000000 0.000000
0.000000 0.000000 0.000000
0.000000 0.000000 0.000000
0.000000 0.000000 0.000000
0.000000 0.000000 0.000000
0.000000 0.000000 0.000000
0.000000 0.000000 0.000000
0.000000 0.000000 0.000000
0.000000 0.000000 0.000000
0.000000 0.000000 0.000000
0.000000 0.000000 0.000000
0.000000 0.000000 0.000000
