Ti66 Mo1
1.0
6.309760 0.000000 0.000000
0.000000 9.464640 0.000000
0.000000 0.000000 18.918326
Ti Mo
66 1
Selective dynamics
direct
0.110485 0.035074 0.500345 F F F Ti
0.637215 0.035431 0.500197 F F F Ti
0.124552 0.042116 0.658828 F F F Ti
0.623826 0.042246 0.659050 F F F Ti
0.125074 0.042151 0.817434 F F F Ti
0.624677 0.042201 0.817455 F F F Ti
0.087079 0.388415 0.502979 F F F Ti
0.671999 0.397273 0.503337 F F F Ti
0.124962 0.375521 0.658707 F F F Ti
0.624471 0.376198 0.659490 F F F Ti
0.125099 0.375098 0.817355 F F F Ti
0.624613 0.375103 0.817527 F F F Ti
0.124306 0.709483 0.500305 F F F Ti
0.622627 0.711294 0.500345 F F F Ti
0.126700 0.709766 0.659723 F F F Ti
0.622203 0.710090 0.659922 F F F Ti
0.125164 0.708697 0.817715 F F F Ti
0.624505 0.708756 0.817757 F F F Ti
0.870820 0.207604 0.580773 F F F Ti
0.374645 0.208822 0.737694 F F F Ti
0.874822 0.208688 0.738289 F F F Ti
0.374919 0.208466 0.896536 F F F Ti
0.874943 0.208498 0.896625 F F F Ti
0.374520 0.543047 0.579604 F F F Ti
0.875219 0.549768 0.583421 F F F Ti
0.374783 0.541898 0.738330 F F F Ti
0.875022 0.542355 0.738936 F F F Ti
0.374944 0.541644 0.896673 F F F Ti
0.874931 0.541673 0.896754 F F F Ti
0.374233 0.875940 0.579568 F F F Ti
0.873669 0.873571 0.580839 F F F Ti
0.374541 0.876008 0.738404 F F F Ti
0.874698 0.875651 0.738591 F F F Ti
0.374989 0.875351 0.896698 F F F Ti
0.874975 0.875306 0.896726 F F F Ti
0.125379 0.624013 0.356904 F F F Ti
0.623567 0.625135 0.356415 F F F Ti
0.125147 0.624828 0.118915 F F F Ti
0.624776 0.624833 0.118882 F F F Ti
0.118805 0.122163 0.355611 F F F Ti
0.633693 0.121066 0.354458 F F F Ti
0.125187 0.124861 0.118775 F F F Ti
0.624660 0.124850 0.118681 F F F Ti
0.125114 0.374935 0.039757 F F F Ti
0.624766 0.374964 0.039739 F F F Ti
0.125023 0.874984 0.039644 F F F Ti
0.624745 0.874951 0.039613 F F F Ti
0.125756 0.374314 0.277569 F F F Ti
0.624375 0.374747 0.276864 F F F Ti
0.124508 0.873919 0.277077 F F F Ti
0.624776 0.873469 0.276739 F F F Ti
0.374809 0.874649 0.158350 F F F Ti
0.874889 0.874512 0.158197 F F F Ti
0.374862 0.374737 0.158556 F F F Ti
0.875353 0.374955 0.158377 F F F Ti
0.871037 0.375063 0.394048 F F F Ti
0.374162 0.873825 0.396062 F F F Ti
0.873686 0.871780 0.395702 F F F Ti
0.374559 0.624390 0.237807 F F F Ti
0.875168 0.624432 0.237602 F F F Ti
0.374880 0.624818 0.000217 F F F Ti
0.874816 0.624898 0.000215 F F F Ti
0.374794 0.124381 0.237663 F F F Ti
0.874925 0.124489 0.236770 F F F Ti
0.374915 0.125151 0.000135 F F F Ti
0.874792 0.125085 0.000121 F F F Ti
0.390844 0.259553 0.472389 T T T Mo

0.000000 0.000000 0.000000
0.000000 0.000000 0.000000
0.000000 0.000000 0.000000
0.000000 0.000000 0.000000
0.000000 0.000000 0.000000
0.000000 0.000000 0.000000
0.000000 0.000000 0.000000
0.000000 0.000000 0.000000
0.000000 0.000000 0.000000
0.000000 0.000000 0.000000
0.000000 0.000000 0.000000
0.000000 0.000000 0.000000
0.000000 0.000000 0.000000
0.000000 0.000000 0.000000
0.000000 0.000000 0.000000
0.000000 0.000000 0.000000
0.000000 0.000000 0.000000
0.000000 0.000000 0.000000
0.000000 0.000000 0.000000
0.000000 0.000000 0.000000
0.000000 0.000000 0.000000
0.000000 0.000000 0.000000
0.000000 0.000000 0.000000
0.000000 0.000000 0.000000
0.000000 0.000000 0.000000
0.000000 0.000000 0.000000
0.000000 0.000000 0.000000
0.000000 0.000000 0.000000
0.000000 0.000000 0.000000
0.000000 0.000000 0.000000
0.000000 0.000000 0.000000
0.000000 0.000000 0.000000
0.000000 0.000000 0.000000
0.000000 0.000000 0.000000
0.000000 0.000000 0.000000
0.000000 0.000000 0.000000
0.000000 0.000000 0.000000
0.000000 0.000000 0.000000
0.000000 0.000000 0.000000
0.000000 0.000000 0.000000
0.000000 0.000000 0.000000
0.000000 0.000000 0.000000
0.000000 0.000000 0.000000
0.000000 0.000000 0.000000
0.000000 0.000000 0.000000
0.000000 0.000000 0.000000
0.000000 0.000000 0.000000
0.000000 0.000000 0.000000
0.000000 0.000000 0.000000
0.000000 0.000000 0.000000
0.000000 0.000000 0.000000
0.000000 0.000000 0.000000
0.000000 0.000000 0.000000
0.000000 0.000000 0.000000
0.000000 0.000000 0.000000
0.000000 0.000000 0.000000
0.000000 0.000000 0.000000
0.000000 0.000000 0.000000
0.000000 0.000000 0.000000
0.000000 0.000000 0.000000
0.000000 0.000000 0.000000
0.000000 0.000000 0.000000
0.000000 0.000000 0.000000
0.000000 0.000000 0.000000
0.000000 0.000000 0.000000
0.000000 0.000000 0.000000
0.000000 0.000000 0.000000
