Ti82 Nb1
1.0
6.391540 0.000000 0.000000
0.000000 9.587310 0.000000
0.000000 0.000000 23.271695
Ti Nb
82 1
Selective dynamics
direct
0.122233 0.083428 0.581044 F F F Ti
0.623445 0.083559 0.580675 F F F Ti
0.124800 0.083370 0.709569 F F F Ti
0.624688 0.083377 0.709532 F F F Ti
0.124978 0.083345 0.838419 F F F Ti
0.624950 0.083346 0.838415 F F F Ti
0.124547 0.417527 0.581098 F F F Ti
0.624927 0.417071 0.580689 F F F Ti
0.124907 0.416758 0.709611 F F F Ti
0.624800 0.416746 0.709570 F F F Ti
0.124982 0.416678 0.838431 F F F Ti
0.624955 0.416677 0.838427 F F F Ti
0.124628 0.750003 0.580787 F F F Ti
0.624683 0.750103 0.580647 F F F Ti
0.124918 0.750083 0.709580 F F F Ti
0.624776 0.750086 0.709568 F F F Ti
0.124980 0.750024 0.838429 F F F Ti
0.624951 0.750025 0.838428 F F F Ti
0.374636 0.250150 0.645060 F F F Ti
0.874247 0.250194 0.645202 F F F Ti
0.374941 0.250013 0.773973 F F F Ti
0.874883 0.250015 0.773998 F F F Ti
0.374991 0.249993 0.902846 F F F Ti
0.874994 0.249994 0.902850 F F F Ti
0.375078 0.583580 0.645160 F F F Ti
0.874589 0.583583 0.645234 F F F Ti
0.374965 0.583383 0.774002 F F F Ti
0.874912 0.583379 0.774014 F F F Ti
0.374986 0.583331 0.902852 F F F Ti
0.874986 0.583332 0.902854 F F F Ti
0.374624 0.916768 0.645023 F F F Ti
0.874292 0.916616 0.645160 F F F Ti
0.374926 0.916701 0.773968 F F F Ti
0.874889 0.916690 0.773990 F F F Ti
0.374982 0.916678 0.902842 F F F Ti
0.874989 0.916676 0.902845 F F F Ti
0.632710 0.167821 0.385307 F F F Ti
0.124389 0.666037 0.386504 F F F Ti
0.626107 0.665787 0.386492 F F F Ti
0.125011 0.166667 -0.000031 F F F Ti
0.624997 0.166664 -0.000034 F F F Ti
0.125011 0.666662 -0.000041 F F F Ti
0.625002 0.666658 -0.000042 F F F Ti
0.125026 0.833324 0.096591 F F F Ti
0.625029 0.833319 0.096583 F F F Ti
0.121770 0.830764 0.483439 F F F Ti
0.624991 0.832416 0.483338 F F F Ti
0.125039 0.333316 0.096621 F F F Ti
0.625015 0.333340 0.096607 F F F Ti
0.117565 0.339540 0.484017 F F F Ti
0.627416 0.335704 0.483312 F F F Ti
0.375243 0.584041 0.483431 F F F Ti
0.873596 0.584424 0.483482 F F F Ti
0.375007 0.583303 0.096592 F F F Ti
0.875077 0.583298 0.096584 F F F Ti
0.375010 0.083342 0.096613 F F F Ti
0.875080 0.083350 0.096603 F F F Ti
0.866631 0.083068 0.483912 F F F Ti
0.375583 0.417628 0.386520 F F F Ti
0.875091 0.417327 0.386451 F F F Ti
0.378408 0.911122 0.384818 F F F Ti
0.874286 0.916025 0.386576 F F F Ti
0.374985 0.416657 -0.000034 F F F Ti
0.875004 0.416655 -0.000034 F F F Ti
0.374993 0.916667 -0.000034 F F F Ti
0.875001 0.916667 -0.000035 F F F Ti
0.375615 0.083222 0.289781 F F F Ti
0.876055 0.083050 0.289773 F F F Ti
0.125122 0.166672 0.193286 F F F Ti
0.625162 0.166644 0.193206 F F F Ti
0.125266 0.333146 0.290043 F F F Ti
0.625317 0.333668 0.289664 F F F Ti
0.374912 0.416622 0.193248 F F F Ti
0.875221 0.416603 0.193231 F F F Ti
0.375048 0.583224 0.289804 F F F Ti
0.875424 0.583201 0.289781 F F F Ti
0.125033 0.666548 0.193190 F F F Ti
0.625103 0.666488 0.193151 F F F Ti
0.124520 0.833014 0.289737 F F F Ti
0.626280 0.832799 0.289530 F F F Ti
0.375017 0.916592 0.193204 F F F Ti
0.875086 0.916639 0.193175 F F F Ti
0.313331 0.104728 0.460131 T T T Nb

0.000000 0.000000 0.000000
0.000000 0.000000 0.000000
0.000000 0.000000 0.000000
0.000000 0.000000 0.000000
0.000000 0.000000 0.000000
0.000000 0.000000 0.000000
0.000000 0.000000 0.000000
0.000000 0.000000 0.000000
0.000000 0.000000 0.000000
0.000000 0.000000 0.000000
0.000000 0.000000 0.000000
0.000000 0.000000 0.000000
0.000000 0.000000 0.000000
0.000000 0.000000 0.000000
0.000000 0.000000 0.000000
0.000000 0.000000 0.000000
0.000000 0.000000 0.000000
0.000000 0.000000 0.000000
0.000000 0.000000 0.000000
0.000000 0.000000 0.000000
0.000000 0.000000 0.000000
0.000000 0.000000 0.000000
0.000000 0.000000 0.000000
0.000000 0.000000 0.000000
0.000000 0.000000 0.000000
0.000000 0.000000 0.000000
0.000000 0.000000 0.000000
0.000000 0.000000 0.000000
0.000000 0.000000 0.000000
0.000000 0.000000 0.000000
0.000000 0.000000 0.000000
0.000000 0.000000 0.000000
0.000000 0.000000 0.000000
0.000000 0.000000 0.000000
0.000000 0.000000 0.000000
0.000000 0.000000 0.000000
0.000000 0.000000 0.000000
0.000000 0.000000 0.000000
0.000000 0.000000 0.000000
0.000000 0.000000 0.000000
0.000000 0.000000 0.000000
0.000000 0.000000 0.000000
0.000000 0.000000 0.000000
0.000000 0.000000 0.000000
0.000000 0.000000 0.000000
0.000000 0.000000 0.000000
0.000000 0.000000 0.000000
0.000000 0.000000 0.000000
0.000000 0.000000 0.000000
0.000000 0.000000 0.000000
0.000000 0.000000 0.000000
0.000000 0.000000 0.000000
0.000000 0.000000 0.000000
0.000000 0.000000 0.000000
0.000000 0.000000 0.000000
0.000000 0.000000 0.000000
0.000000 0.000000 0.000000
0.000000 0.000000 0.000000
0.000000 0.000000 0.000000
0.000000 0.000000 0.000000
0.000000 0.000000 0.000000
0.000000 0.000000 0.000000
0.000000 0.000000 0.000000
0.000000 0.000000 0.000000
0.000000 0.000000 0.000000
0.000000 0.000000 0.000000
0.000000 0.000000 0.000000
0.000000 0.000000 0.000000
0.000000 0.000000 0.000000
0.000000 0.000000 0.000000
0.000000 0.000000 0.000000
0.000000 0.000000 0.000000
0.000000 0.000000 0.000000
0.000000 0.000000 0.000000
0.000000 0.000000 0.000000
0.000000 0.000000 0.000000
0.000000 0.000000 0.000000
0.000000 0.000000 0.000000
0.000000 0.000000 0.000000
0.000000 0.000000 0.000000
0.000000 0.000000 0.000000
0.000000 0.000000 0.000000
0.000000 0.000000 0.000000
