total_Ti
1.0
8.805261 0.000000 0.000000
-4.402630 7.625580 0.000000
0.000000 0.000000 17.488801
Ti
72
direct
0.222214 0.944436 0.485564 Ti
0.222214 0.444436 0.485564 Ti
0.722214 0.944436 0.485564 Ti
0.722214 0.444436 0.485564 Ti
0.388880 0.277769 0.855643 Ti
0.388880 0.777769 0.855643 Ti
0.888880 0.277769 0.855643 Ti
0.888880 0.777769 0.855643 Ti
0.555547 0.111102 0.908512 Ti
0.555547 0.611103 0.908512 Ti
0.055556 0.111102 0.908512 Ti
0.055556 0.611103 0.908512 Ti
0.388880 0.277769 0.538432 Ti
0.388880 0.777769 0.538432 Ti
0.888880 0.277769 0.538432 Ti
0.888880 0.777769 0.538432 Ti
0.555547 0.111102 0.591301 Ti
0.555547 0.611103 0.591301 Ti
0.055556 0.111102 0.591301 Ti
0.055556 0.611103 0.591301 Ti
0.222214 0.944436 0.644169 Ti
0.222214 0.444436 0.644169 Ti
0.722214 0.944436 0.644169 Ti
0.722214 0.444436 0.644169 Ti
0.388880 0.277769 0.697038 Ti
0.388880 0.777769 0.697038 Ti
0.888880 0.277769 0.697038 Ti
0.888880 0.777769 0.697038 Ti
0.555547 0.111102 0.749906 Ti
0.555547 0.611103 0.749906 Ti
0.055556 0.111102 0.749906 Ti
0.055556 0.611103 0.749906 Ti
0.222214 0.944436 0.802775 Ti
0.222214 0.444436 0.802775 Ti
0.722214 0.944436 0.802775 Ti
0.722214 0.444436 0.802775 Ti
0.166666 0.833342 -0.000000 Ti
0.166666 0.833342 0.262718 Ti
0.166666 0.500009 -0.000000 Ti
0.277778 0.722231 0.131359 Ti
0.166666 0.500009 0.262718 Ti
0.500000 0.833342 -0.000000 Ti
0.166666 0.166675 -0.000000 Ti
0.277778 0.722231 0.394077 Ti
0.277778 0.388897 0.131359 Ti
0.500000 0.833342 0.262718 Ti
0.166666 0.166675 0.262718 Ti
0.500000 0.500009 -0.000000 Ti
0.277778 0.388897 0.394077 Ti
0.611111 0.722231 0.131359 Ti
0.277778 0.055564 0.131359 Ti
0.500000 0.500009 0.262718 Ti
0.833333 0.833342 -0.000000 Ti
0.500000 0.166675 0.000000 Ti
0.611111 0.722231 0.394077 Ti
0.277778 0.055564 0.394077 Ti
0.611111 0.388897 0.131359 Ti
0.833333 0.833342 0.262718 Ti
0.500000 0.166675 0.262718 Ti
0.833333 0.500009 -0.000000 Ti
0.611111 0.388897 0.394077 Ti
0.944444 0.722231 0.131359 Ti
0.611111 0.055564 0.131359 Ti
0.833333 0.500009 0.262718 Ti
0.833333 0.166675 -0.000000 Ti
0.944444 0.722231 0.394077 Ti
0.611111 0.055564 0.394077 Ti
0.944444 0.388897 0.131359 Ti
0.833333 0.166675 0.262718 Ti
0.944444 0.388897 0.394077 Ti
0.944444 0.055564 0.131359 Ti
0.944444 0.055564 0.394077 Ti
