Ti96 Al1
1.0
9.513020 0.000000 0.000000
0.000000 9.350860 0.000000
0.000000 0.000000 18.547230
Ti Al
96 1
Selective dynamics
direct
0.147001 0.373301 0.404838 T T T Ti
0.645090 0.341614 0.405157 T T T Ti
0.138954 0.856218 0.394045 T T T Ti
0.673807 0.885548 0.391078 T T T Ti
0.161250 0.373170 0.235324 T T T Ti
0.661946 0.376255 0.233987 T T T Ti
0.164747 0.874727 0.235357 T T T Ti
0.654669 0.869970 0.237446 T T T Ti
0.166665 0.375008 0.077689 F F F Ti
0.666665 0.375002 0.077690 F F F Ti
0.166674 0.875008 0.077699 F F F Ti
0.666667 0.874998 0.077697 F F F Ti
0.407109 0.377172 0.311941 T T T Ti
0.898720 0.372798 0.320538 T T T Ti
0.403544 0.893753 0.330761 T T T Ti
0.914448 0.883618 0.309847 T T T Ti
0.416671 0.374996 0.155342 F F F Ti
0.916662 0.374994 0.155347 F F F Ti
0.416660 0.875001 0.155370 F F F Ti
0.916688 0.875018 0.155353 F F F Ti
0.416667 0.375001 0.000001 F F F Ti
0.916664 0.375000 0.000000 F F F Ti
0.416665 0.874999 0.000009 F F F Ti
0.916671 0.875001 0.000004 F F F Ti
0.101280 0.127202 0.320537 T T T Ti
0.592891 0.122828 0.311940 T T T Ti
0.085552 0.616382 0.309846 T T T Ti
0.596456 0.606247 0.330760 T T T Ti
0.083338 0.125007 0.155347 F F F Ti
0.583329 0.125005 0.155342 F F F Ti
0.083311 0.624983 0.155353 F F F Ti
0.583340 0.625000 0.155370 F F F Ti
0.083336 0.125001 0.000000 F F F Ti
0.583333 0.124999 0.000001 F F F Ti
0.083329 0.625000 0.000004 F F F Ti
0.583335 0.625001 0.000009 F F F Ti
0.354909 0.158386 0.405157 T T T Ti
0.852998 0.126699 0.404838 T T T Ti
0.326192 0.614452 0.391078 T T T Ti
0.861045 0.643782 0.394045 T T T Ti
0.338053 0.123745 0.233987 T T T Ti
0.838749 0.126831 0.235324 T T T Ti
0.345330 0.630030 0.237446 T T T Ti
0.835252 0.625273 0.235357 T T T Ti
0.333334 0.124998 0.077690 F F F Ti
0.833334 0.124993 0.077689 F F F Ti
0.333332 0.625002 0.077697 F F F Ti
0.833325 0.624992 0.077699 F F F Ti
0.374997 0.375005 0.823756 F F F Ti
0.875002 0.374997 0.823754 F F F Ti
0.375000 0.875003 0.823750 F F F Ti
0.874999 0.874996 0.823750 F F F Ti
0.124998 0.125003 0.823754 F F F Ti
0.625003 0.124995 0.823756 F F F Ti
0.125001 0.625005 0.823750 F F F Ti
0.625001 0.624997 0.823750 F F F Ti
0.124998 0.375003 0.910092 F F F Ti
0.625001 0.375001 0.910092 F F F Ti
0.125001 0.875001 0.910094 F F F Ti
0.624998 0.874997 0.910093 F F F Ti
0.374999 0.125000 0.910092 F F F Ti
0.875002 0.124997 0.910091 F F F Ti
0.375002 0.625003 0.910093 F F F Ti
0.875000 0.624999 0.910094 F F F Ti
0.393055 0.390640 0.658233 T T T Ti
0.894084 0.372486 0.645981 T T T Ti
0.388669 0.893056 0.644833 T T T Ti
0.881227 0.884326 0.670176 T T T Ti
0.105916 0.127514 0.645981 T T T Ti
0.606945 0.109360 0.658233 T T T Ti
0.118773 0.615674 0.670176 T T T Ti
0.611331 0.606944 0.644833 T T T Ti
0.153837 0.384692 0.568354 T T T Ti
0.640654 0.335165 0.573470 T T T Ti
0.119438 0.856444 0.585427 T T T Ti
0.655958 0.861315 0.575876 T T T Ti
0.359346 0.164835 0.573470 T T T Ti
0.846163 0.115308 0.568354 T T T Ti
0.344042 0.638685 0.575876 T T T Ti
0.880562 0.643555 0.585427 T T T Ti
0.413821 0.414156 0.487870 T T T Ti
0.901020 0.370659 0.488272 T T T Ti
0.319282 0.933946 0.494185 T T T Ti
0.908466 0.880245 0.485623 T T T Ti
0.098980 0.129341 0.488272 T T T Ti
0.586179 0.085844 0.487870 T T T Ti
0.091534 0.619755 0.485623 T T T Ti
0.680718 0.566054 0.494185 T T T Ti
0.124981 0.875012 0.737434 F F F Ti
0.625022 0.874954 0.737434 F F F Ti
0.374977 0.625045 0.737434 F F F Ti
0.875019 0.624987 0.737434 F F F Ti
0.124968 0.375009 0.737436 F F F Ti
0.625032 0.374944 0.737451 F F F Ti
0.374967 0.125055 0.737451 F F F Ti
0.875031 0.124990 0.737436 F F F Ti
0.500000 0.750000 0.469443 T T T Al

0.000000 0.000000 0.000000
0.000000 0.000000 0.000000
0.000000 0.000000 0.000000
0.000000 0.000000 0.000000
0.000000 0.000000 0.000000
0.000000 0.000000 0.000000
0.000000 0.000000 0.000000
0.000000 0.000000 0.000000
0.000000 0.000000 0.000000
0.000000 0.000000 0.000000
0.000000 0.000000 0.000000
0.000000 0.000000 0.000000
0.000000 0.000000 0.000000
0.000000 0.000000 0.000000
0.000000 0.000000 0.000000
0.000000 0.000000 0.000000
0.000000 0.000000 0.000000
0.000000 0.000000 0.000000
0.000000 0.000000 0.000000
0.000000 0.000000 0.000000
0.000000 0.000000 0.000000
0.000000 0.000000 0.000000
0.000000 0.000000 0.000000
0.000000 0.000000 0.000000
0.000000 0.000000 0.000000
0.000000 0.000000 0.000000
0.000000 0.000000 0.000000
0.000000 0.000000 0.000000
0.000000 0.000000 0.000000
0.000000 0.000000 0.000000
0.000000 0.000000 0.000000
0.000000 0.000000 0.000000
0.000000 0.000000 0.000000
0.000000 0.000000 0.000000
0.000000 0.000000 0.000000
0.000000 0.000000 0.000000
0.000000 0.000000 0.000000
0.000000 0.000000 0.000000
0.000000 0.000000 0.000000
0.000000 0.000000 0.000000
0.000000 0.000000 0.000000
0.000000 0.000000 0.000000
0.000000 0.000000 0.000000
0.000000 0.000000 0.000000
0.000000 0.000000 0.000000
0.000000 0.000000 0.000000
0.000000 0.000000 0.000000
0.000000 0.000000 0.000000
0.000000 0.000000 0.000000
0.000000 0.000000 0.000000
0.000000 0.000000 0.000000
0.000000 0.000000 0.000000
0.000000 0.000000 0.000000
0.000000 0.000000 0.000000
0.000000 0.000000 0.000000
0.000000 0.000000 0.000000
0.000000 0.000000 0.000000
0.000000 0.000000 0.000000
0.000000 0.000000 0.000000
0.000000 0.000000 0.000000
0.000000 0.000000 0.000000
0.000000 0.000000 0.000000
0.000000 0.000000 0.000000
0.000000 0.000000 0.000000
0.000000 0.000000 0.000000
0.000000 0.000000 0.000000
0.000000 0.000000 0.000000
0.000000 0.000000 0.000000
0.000000 0.000000 0.000000
0.000000 0.000000 0.000000
0.000000 0.000000 0.000000
0.000000 0.000000 0.000000
0.000000 0.000000 0.000000
0.000000 0.000000 0.000000
0.000000 0.000000 0.000000
0.000000 0.000000 0.000000
0.000000 0.000000 0.000000
0.000000 0.000000 0.000000
0.000000 0.000000 0.000000
0.000000 0.000000 0.000000
0.000000 0.000000 0.000000
0.000000 0.000000 0.000000
0.000000 0.000000 0.000000
0.000000 0.000000 0.000000
0.000000 0.000000 0.000000
0.000000 0.000000 0.000000
0.000000 0.000000 0.000000
0.000000 0.000000 0.000000
0.000000 0.000000 0.000000
0.000000 0.000000 0.000000
0.000000 0.000000 0.000000
0.000000 0.000000 0.000000
0.000000 0.000000 0.000000
0.000000 0.000000 0.000000
0.000000 0.000000 0.000000
0.000000 0.000000 0.000000
0.000000 0.000000 0.000000
