Ti82 Nb1
1.0
6.391540 0.000000 0.000000
0.000000 9.587310 0.000000
0.000000 0.000000 23.271695
Ti Nb
82 1
Selective dynamics
direct
0.124496 0.083436 0.580747 F F F Ti
0.623410 0.083449 0.580930 F F F Ti
0.124956 0.083346 0.709578 F F F Ti
0.624873 0.083344 0.709594 F F F Ti
0.125003 0.083338 0.838435 F F F Ti
0.624988 0.083338 0.838438 F F F Ti
0.124919 0.417592 0.581363 F F F Ti
0.625163 0.416864 0.580737 F F F Ti
0.124998 0.416739 0.709662 F F F Ti
0.624928 0.416706 0.709601 F F F Ti
0.125003 0.416671 0.838450 F F F Ti
0.624982 0.416668 0.838445 F F F Ti
0.124953 0.750120 0.580792 F F F Ti
0.624897 0.750011 0.580787 F F F Ti
0.124991 0.750077 0.709610 F F F Ti
0.624917 0.750088 0.709613 F F F Ti
0.124997 0.750018 0.838447 F F F Ti
0.624979 0.750021 0.838448 F F F Ti
0.374893 0.250097 0.645149 F F F Ti
0.874689 0.250028 0.645239 F F F Ti
0.374996 0.249997 0.774006 F F F Ti
0.874961 0.249996 0.774023 F F F Ti
0.374996 0.249987 0.902858 F F F Ti
0.875015 0.249987 0.902860 F F F Ti
0.375283 0.583560 0.645232 F F F Ti
0.874718 0.583573 0.645279 F F F Ti
0.375019 0.583370 0.774031 F F F Ti
0.874956 0.583368 0.774038 F F F Ti
0.374991 0.583320 0.902864 F F F Ti
0.875001 0.583319 0.902864 F F F Ti
0.374791 0.916691 0.645110 F F F Ti
0.874805 0.916677 0.645184 F F F Ti
0.374965 0.916687 0.773999 F F F Ti
0.874974 0.916680 0.774013 F F F Ti
0.374984 0.916676 0.902853 F F F Ti
0.875009 0.916674 0.902855 F F F Ti
0.632890 0.166908 0.386280 F F F Ti
0.124802 0.666017 0.386701 F F F Ti
0.626528 0.665585 0.386636 F F F Ti
0.125022 0.166664 -0.000011 F F F Ti
0.625014 0.166660 -0.000018 F F F Ti
0.125019 0.666653 -0.000025 F F F Ti
0.625016 0.666648 -0.000029 F F F Ti
0.125035 0.833302 0.096616 F F F Ti
0.625100 0.833297 0.096599 F F F Ti
0.124494 0.832339 0.483572 F F F Ti
0.624728 0.832620 0.483638 F F F Ti
0.125080 0.333295 0.096661 F F F Ti
0.625068 0.333330 0.096634 F F F Ti
0.121032 0.339060 0.485104 F F F Ti
0.625849 0.334075 0.483534 F F F Ti
0.375750 0.584028 0.483617 F F F Ti
0.874156 0.584293 0.483660 F F F Ti
0.375028 0.583280 0.096618 F F F Ti
0.875116 0.583272 0.096611 F F F Ti
0.375046 0.083333 0.096639 F F F Ti
0.875139 0.083330 0.096632 F F F Ti
0.866087 0.082044 0.485010 F F F Ti
0.377874 0.418983 0.386655 F F F Ti
0.875014 0.417532 0.386767 F F F Ti
0.381906 0.910570 0.385783 F F F Ti
0.872725 0.914390 0.386756 F F F Ti
0.374996 0.416648 -0.000015 F F F Ti
0.875024 0.416645 -0.000015 F F F Ti
0.375005 0.916663 -0.000020 F F F Ti
0.875023 0.916664 -0.000020 F F F Ti
0.377575 0.082711 0.289567 F F F Ti
0.876136 0.082874 0.289962 F F F Ti
0.125269 0.166608 0.193365 F F F Ti
0.625515 0.166652 0.193234 F F F Ti
0.125754 0.333196 0.290122 F F F Ti
0.626058 0.333439 0.289862 F F F Ti
0.375139 0.416568 0.193309 F F F Ti
0.875339 0.416541 0.193309 F F F Ti
0.375316 0.583287 0.289836 F F F Ti
0.875681 0.583110 0.289860 F F F Ti
0.125117 0.666513 0.193238 F F F Ti
0.625256 0.666422 0.193177 F F F Ti
0.125170 0.832894 0.289888 F F F Ti
0.626530 0.832584 0.289579 F F F Ti
0.375178 0.916469 0.193199 F F F Ti
0.875246 0.916620 0.193254 F F F Ti
0.186794 0.142046 0.412749 T T T Nb

0.000000 0.000000 0.000000
0.000000 0.000000 0.000000
0.000000 0.000000 0.000000
0.000000 0.000000 0.000000
0.000000 0.000000 0.000000
0.000000 0.000000 0.000000
0.000000 0.000000 0.000000
0.000000 0.000000 0.000000
0.000000 0.000000 0.000000
0.000000 0.000000 0.000000
0.000000 0.000000 0.000000
0.000000 0.000000 0.000000
0.000000 0.000000 0.000000
0.000000 0.000000 0.000000
0.000000 0.000000 0.000000
0.000000 0.000000 0.000000
0.000000 0.000000 0.000000
0.000000 0.000000 0.000000
0.000000 0.000000 0.000000
0.000000 0.000000 0.000000
0.000000 0.000000 0.000000
0.000000 0.000000 0.000000
0.000000 0.000000 0.000000
0.000000 0.000000 0.000000
0.000000 0.000000 0.000000
0.000000 0.000000 0.000000
0.000000 0.000000 0.000000
0.000000 0.000000 0.000000
0.000000 0.000000 0.000000
0.000000 0.000000 0.000000
0.000000 0.000000 0.000000
0.000000 0.000000 0.000000
0.000000 0.000000 0.000000
0.000000 0.000000 0.000000
0.000000 0.000000 0.000000
0.000000 0.000000 0.000000
0.000000 0.000000 0.000000
0.000000 0.000000 0.000000
0.000000 0.000000 0.000000
0.000000 0.000000 0.000000
0.000000 0.000000 0.000000
0.000000 0.000000 0.000000
0.000000 0.000000 0.000000
0.000000 0.000000 0.000000
0.000000 0.000000 0.000000
0.000000 0.000000 0.000000
0.000000 0.000000 0.000000
0.000000 0.000000 0.000000
0.000000 0.000000 0.000000
0.000000 0.000000 0.000000
0.000000 0.000000 0.000000
0.000000 0.000000 0.000000
0.000000 0.000000 0.000000
0.000000 0.000000 0.000000
0.000000 0.000000 0.000000
0.000000 0.000000 0.000000
0.000000 0.000000 0.000000
0.000000 0.000000 0.000000
0.000000 0.000000 0.000000
0.000000 0.000000 0.000000
0.000000 0.000000 0.000000
0.000000 0.000000 0.000000
0.000000 0.000000 0.000000
0.000000 0.000000 0.000000
0.000000 0.000000 0.000000
0.000000 0.000000 0.000000
0.000000 0.000000 0.000000
0.000000 0.000000 0.000000
0.000000 0.000000 0.000000
0.000000 0.000000 0.000000
0.000000 0.000000 0.000000
0.000000 0.000000 0.000000
0.000000 0.000000 0.000000
0.000000 0.000000 0.000000
0.000000 0.000000 0.000000
0.000000 0.000000 0.000000
0.000000 0.000000 0.000000
0.000000 0.000000 0.000000
0.000000 0.000000 0.000000
0.000000 0.000000 0.000000
0.000000 0.000000 0.000000
0.000000 0.000000 0.000000
0.000000 0.000000 0.000000
