Zr1 Ti66
1.0
6.309760 0.000000 0.000000
0.000000 9.464640 0.000000
0.000000 0.000000 18.918326
Ti Zr
66 1
Selective dynamics
direct
0.628059 0.041216 0.499965 F F F Ti
0.124684 0.041471 0.658965 F F F Ti
0.625007 0.041584 0.658689 F F F Ti
0.124993 0.041664 0.817220 F F F Ti
0.624963 0.041668 0.817204 F F F Ti
0.124319 0.376857 0.499936 F F F Ti
0.625032 0.375162 0.499958 F F F Ti
0.124975 0.375059 0.658630 F F F Ti
0.624692 0.375129 0.658670 F F F Ti
0.125014 0.375002 0.817189 F F F Ti
0.624961 0.375010 0.817195 F F F Ti
0.125066 0.708373 0.500043 F F F Ti
0.625255 0.708156 0.499975 F F F Ti
0.124969 0.708199 0.658687 F F F Ti
0.625181 0.708128 0.658728 F F F Ti
0.124995 0.708305 0.817208 F F F Ti
0.624991 0.708298 0.817218 F F F Ti
0.872957 0.209198 0.579784 F F F Ti
0.374995 0.208333 0.737894 F F F Ti
0.874882 0.208389 0.737975 F F F Ti
0.375009 0.208345 0.896455 F F F Ti
0.874983 0.208349 0.896465 F F F Ti
0.375118 0.541686 0.579343 F F F Ti
0.874763 0.541860 0.579383 F F F Ti
0.374982 0.541637 0.737924 F F F Ti
0.875009 0.541637 0.737942 F F F Ti
0.375003 0.541652 0.896465 F F F Ti
0.874993 0.541653 0.896468 F F F Ti
0.376348 0.873840 0.579713 F F F Ti
0.874812 0.874635 0.579508 F F F Ti
0.375069 0.874922 0.737972 F F F Ti
0.874889 0.874915 0.737971 F F F Ti
0.375010 0.874992 0.896472 F F F Ti
0.874980 0.874992 0.896474 F F F Ti
0.124997 0.625303 0.356832 F F F Ti
0.624976 0.625145 0.356784 F F F Ti
0.125006 0.625026 0.118935 F F F Ti
0.625001 0.625020 0.118932 F F F Ti
0.124985 0.125207 0.356364 F F F Ti
0.625544 0.125054 0.356680 F F F Ti
0.125011 0.125012 0.118910 F F F Ti
0.625005 0.125011 0.118903 F F F Ti
0.125002 0.375014 0.039642 F F F Ti
0.624996 0.375014 0.039641 F F F Ti
0.125001 0.875003 0.039644 F F F Ti
0.624998 0.875001 0.039643 F F F Ti
0.124997 0.375160 0.277448 F F F Ti
0.625051 0.375082 0.277445 F F F Ti
0.125029 0.875019 0.277469 F F F Ti
0.625153 0.875008 0.277452 F F F Ti
0.375020 0.875004 0.158554 F F F Ti
0.875007 0.875001 0.158553 F F F Ti
0.375015 0.375038 0.158552 F F F Ti
0.875000 0.375043 0.158547 F F F Ti
0.375212 0.375448 0.396311 F F F Ti
0.874749 0.375295 0.396335 F F F Ti
0.375621 0.874659 0.396273 F F F Ti
0.875305 0.875027 0.396426 F F F Ti
0.374992 0.625067 0.237866 F F F Ti
0.875035 0.625066 0.237872 F F F Ti
0.374995 0.625018 0.000001 F F F Ti
0.875006 0.625018 0.000003 F F F Ti
0.375138 0.125030 0.237796 F F F Ti
0.874956 0.125032 0.237780 F F F Ti
0.375000 0.125000 -0.000009 F F F Ti
0.875009 0.124998 -0.000005 F F F Ti
0.193333 0.092590 0.503674 T T T Zr

0.000000 0.000000 0.000000
0.000000 0.000000 0.000000
0.000000 0.000000 0.000000
0.000000 0.000000 0.000000
0.000000 0.000000 0.000000
0.000000 0.000000 0.000000
0.000000 0.000000 0.000000
0.000000 0.000000 0.000000
0.000000 0.000000 0.000000
0.000000 0.000000 0.000000
0.000000 0.000000 0.000000
0.000000 0.000000 0.000000
0.000000 0.000000 0.000000
0.000000 0.000000 0.000000
0.000000 0.000000 0.000000
0.000000 0.000000 0.000000
0.000000 0.000000 0.000000
0.000000 0.000000 0.000000
0.000000 0.000000 0.000000
0.000000 0.000000 0.000000
0.000000 0.000000 0.000000
0.000000 0.000000 0.000000
0.000000 0.000000 0.000000
0.000000 0.000000 0.000000
0.000000 0.000000 0.000000
0.000000 0.000000 0.000000
0.000000 0.000000 0.000000
0.000000 0.000000 0.000000
0.000000 0.000000 0.000000
0.000000 0.000000 0.000000
0.000000 0.000000 0.000000
0.000000 0.000000 0.000000
0.000000 0.000000 0.000000
0.000000 0.000000 0.000000
0.000000 0.000000 0.000000
0.000000 0.000000 0.000000
0.000000 0.000000 0.000000
0.000000 0.000000 0.000000
0.000000 0.000000 0.000000
0.000000 0.000000 0.000000
0.000000 0.000000 0.000000
0.000000 0.000000 0.000000
0.000000 0.000000 0.000000
0.000000 0.000000 0.000000
0.000000 0.000000 0.000000
0.000000 0.000000 0.000000
0.000000 0.000000 0.000000
0.000000 0.000000 0.000000
0.000000 0.000000 0.000000
0.000000 0.000000 0.000000
0.000000 0.000000 0.000000
0.000000 0.000000 0.000000
0.000000 0.000000 0.000000
0.000000 0.000000 0.000000
0.000000 0.000000 0.000000
0.000000 0.000000 0.000000
0.000000 0.000000 0.000000
0.000000 0.000000 0.000000
0.000000 0.000000 0.000000
0.000000 0.000000 0.000000
0.000000 0.000000 0.000000
0.000000 0.000000 0.000000
0.000000 0.000000 0.000000
0.000000 0.000000 0.000000
0.000000 0.000000 0.000000
0.000000 0.000000 0.000000
0.000000 0.000000 0.000000
