Ti66 Al1
1.0
6.309760 0.000000 0.000000
0.000000 9.464640 0.000000
0.000000 0.000000 18.918326
Ti Al
66 1
Selective dynamics
direct
0.119675 0.038605 0.500669 F F F Ti
0.628662 0.039489 0.500555 F F F Ti
0.125529 0.041433 0.659278 F F F Ti
0.623792 0.041635 0.659301 F F F Ti
0.125183 0.041786 0.817715 F F F Ti
0.624791 0.041841 0.817698 F F F Ti
0.096249 0.379804 0.505044 F F F Ti
0.658504 0.384685 0.506391 F F F Ti
0.124535 0.375255 0.659564 F F F Ti
0.624524 0.375554 0.660176 F F F Ti
0.125018 0.375043 0.817711 F F F Ti
0.624681 0.375030 0.817843 F F F Ti
0.124524 0.708576 0.500665 F F F Ti
0.623877 0.710120 0.500705 F F F Ti
0.126143 0.709437 0.659722 F F F Ti
0.623029 0.709737 0.659851 F F F Ti
0.125081 0.708613 0.817858 F F F Ti
0.624637 0.708660 0.817885 F F F Ti
0.873263 0.205545 0.581620 F F F Ti
0.374764 0.208422 0.738289 F F F Ti
0.874905 0.208171 0.738745 F F F Ti
0.375012 0.208350 0.896791 F F F Ti
0.875038 0.208353 0.896845 F F F Ti
0.374355 0.542071 0.580173 F F F Ti
0.874953 0.547649 0.582856 F F F Ti
0.374795 0.541937 0.738639 F F F Ti
0.874900 0.542311 0.739098 F F F Ti
0.374983 0.541653 0.896883 F F F Ti
0.874987 0.541668 0.896934 F F F Ti
0.374672 0.875476 0.579723 F F F Ti
0.874343 0.874354 0.580396 F F F Ti
0.374778 0.875477 0.738589 F F F Ti
0.874817 0.875312 0.738666 F F F Ti
0.375059 0.875122 0.896886 F F F Ti
0.874942 0.875102 0.896895 F F F Ti
0.124674 0.623436 0.357380 F F F Ti
0.624875 0.624794 0.356896 F F F Ti
0.125235 0.624630 0.119148 F F F Ti
0.624823 0.624634 0.119125 F F F Ti
0.116847 0.119982 0.356066 F F F Ti
0.635430 0.118296 0.354946 F F F Ti
0.125279 0.124672 0.118951 F F F Ti
0.624692 0.124653 0.118848 F F F Ti
0.125217 0.374876 0.039932 F F F Ti
0.624801 0.374883 0.039923 F F F Ti
0.125100 0.874821 0.039787 F F F Ti
0.624839 0.874805 0.039770 F F F Ti
0.124381 0.373685 0.277943 F F F Ti
0.625947 0.374087 0.277004 F F F Ti
0.124515 0.873209 0.277357 F F F Ti
0.624892 0.872728 0.277016 F F F Ti
0.374855 0.874326 0.158546 F F F Ti
0.875177 0.874201 0.158363 F F F Ti
0.374789 0.374475 0.158857 F F F Ti
0.875511 0.374731 0.158542 F F F Ti
0.868541 0.374354 0.395945 F F F Ti
0.374414 0.873502 0.396521 F F F Ti
0.874310 0.871800 0.396557 F F F Ti
0.374541 0.623833 0.238189 F F F Ti
0.875220 0.624038 0.237924 F F F Ti
0.374952 0.624780 0.000391 F F F Ti
0.874907 0.624843 0.000379 F F F Ti
0.374725 0.123816 0.237915 F F F Ti
0.874867 0.124006 0.236931 F F F Ti
0.375022 0.125012 0.000295 F F F Ti
0.875139 0.124961 0.000283 F F F Ti
0.387481 0.317075 0.431839 T T T Al

0.000000 0.000000 0.000000
0.000000 0.000000 0.000000
0.000000 0.000000 0.000000
0.000000 0.000000 0.000000
0.000000 0.000000 0.000000
0.000000 0.000000 0.000000
0.000000 0.000000 0.000000
0.000000 0.000000 0.000000
0.000000 0.000000 0.000000
0.000000 0.000000 0.000000
0.000000 0.000000 0.000000
0.000000 0.000000 0.000000
0.000000 0.000000 0.000000
0.000000 0.000000 0.000000
0.000000 0.000000 0.000000
0.000000 0.000000 0.000000
0.000000 0.000000 0.000000
0.000000 0.000000 0.000000
0.000000 0.000000 0.000000
0.000000 0.000000 0.000000
0.000000 0.000000 0.000000
0.000000 0.000000 0.000000
0.000000 0.000000 0.000000
0.000000 0.000000 0.000000
0.000000 0.000000 0.000000
0.000000 0.000000 0.000000
0.000000 0.000000 0.000000
0.000000 0.000000 0.000000
0.000000 0.000000 0.000000
0.000000 0.000000 0.000000
0.000000 0.000000 0.000000
0.000000 0.000000 0.000000
0.000000 0.000000 0.000000
0.000000 0.000000 0.000000
0.000000 0.000000 0.000000
0.000000 0.000000 0.000000
0.000000 0.000000 0.000000
0.000000 0.000000 0.000000
0.000000 0.000000 0.000000
0.000000 0.000000 0.000000
0.000000 0.000000 0.000000
0.000000 0.000000 0.000000
0.000000 0.000000 0.000000
0.000000 0.000000 0.000000
0.000000 0.000000 0.000000
0.000000 0.000000 0.000000
0.000000 0.000000 0.000000
0.000000 0.000000 0.000000
0.000000 0.000000 0.000000
0.000000 0.000000 0.000000
0.000000 0.000000 0.000000
0.000000 0.000000 0.000000
0.000000 0.000000 0.000000
0.000000 0.000000 0.000000
0.000000 0.000000 0.000000
0.000000 0.000000 0.000000
0.000000 0.000000 0.000000
0.000000 0.000000 0.000000
0.000000 0.000000 0.000000
0.000000 0.000000 0.000000
0.000000 0.000000 0.000000
0.000000 0.000000 0.000000
0.000000 0.000000 0.000000
0.000000 0.000000 0.000000
0.000000 0.000000 0.000000
0.000000 0.000000 0.000000
0.000000 0.000000 0.000000
