Ti96 Mo1
1.0
9.513020 0.000000 0.000000
0.000000 9.350860 0.000000
0.000000 0.000000 18.547230
Ti Mo
96 1
Selective dynamics
direct
0.137406 0.380310 0.406597 T T T Ti
0.643748 0.358620 0.408148 T T T Ti
0.168403 0.887767 0.402221 T T T Ti
0.635362 0.941361 0.416211 T T T Ti
0.159321 0.380721 0.236030 T T T Ti
0.660041 0.375142 0.230870 T T T Ti
0.163831 0.876190 0.237520 T T T Ti
0.654503 0.885450 0.234220 T T T Ti
0.166644 0.375000 0.077499 F F F Ti
0.666703 0.375021 0.077562 F F F Ti
0.166682 0.874991 0.077497 F F F Ti
0.666666 0.874964 0.077645 F F F Ti
0.392387 0.360595 0.319767 T T T Ti
0.904092 0.360950 0.313565 T T T Ti
0.416865 0.858007 0.324109 T T T Ti
0.924701 0.909625 0.322110 T T T Ti
0.416673 0.375028 0.155052 F F F Ti
0.916724 0.374951 0.155119 F F F Ti
0.416746 0.875051 0.155144 F F F Ti
0.916565 0.874863 0.155167 F F F Ti
0.416676 0.375011 -0.000107 F F F Ti
0.916627 0.375009 -0.000074 F F F Ti
0.416706 0.874992 -0.000075 F F F Ti
0.916608 0.874978 -0.000053 F F F Ti
0.107613 0.139406 0.319766 T T T Ti
0.595908 0.139051 0.313564 T T T Ti
0.083135 0.641994 0.324108 T T T Ti
0.575299 0.590376 0.322109 T T T Ti
0.083332 0.124993 0.155053 F F F Ti
0.583273 0.125067 0.155118 F F F Ti
0.083257 0.624966 0.155144 F F F Ti
0.583432 0.625155 0.155165 F F F Ti
0.083328 0.124996 -0.000106 F F F Ti
0.583369 0.124996 -0.000072 F F F Ti
0.083297 0.625012 -0.000076 F F F Ti
0.583390 0.625027 -0.000054 F F F Ti
0.362593 0.119690 0.406597 T T T Ti
0.856251 0.141380 0.408148 T T T Ti
0.331596 0.612234 0.402221 T T T Ti
0.864637 0.558639 0.416211 T T T Ti
0.340678 0.119283 0.236030 T T T Ti
0.839958 0.124863 0.230870 T T T Ti
0.336169 0.623814 0.237520 T T T Ti
0.845495 0.614554 0.234220 T T T Ti
0.333355 0.125015 0.077500 F F F Ti
0.833296 0.124992 0.077562 F F F Ti
0.333317 0.625025 0.077496 F F F Ti
0.833334 0.625047 0.077643 F F F Ti
0.374941 0.375029 0.823813 F F F Ti
0.874972 0.375022 0.823837 F F F Ti
0.375049 0.874950 0.823800 F F F Ti
0.875034 0.874924 0.823713 F F F Ti
0.125059 0.124962 0.823813 F F F Ti
0.625029 0.124967 0.823839 F F F Ti
0.124954 0.625037 0.823798 F F F Ti
0.624971 0.625066 0.823713 F F F Ti
0.124931 0.375041 0.910102 F F F Ti
0.625042 0.375079 0.910120 F F F Ti
0.124924 0.874960 0.910107 F F F Ti
0.625083 0.874934 0.910138 F F F Ti
0.375073 0.124950 0.910103 F F F Ti
0.874961 0.124910 0.910121 F F F Ti
0.375079 0.625028 0.910106 F F F Ti
0.874920 0.625055 0.910136 F F F Ti
0.395895 0.364546 0.648517 T T T Ti
0.892459 0.364194 0.658367 T T T Ti
0.384161 0.866277 0.664614 T T T Ti
0.888463 0.866851 0.661517 T T T Ti
0.104104 0.135450 0.648517 T T T Ti
0.607540 0.135802 0.658367 T T T Ti
0.115837 0.633718 0.664613 T T T Ti
0.611535 0.633145 0.661517 T T T Ti
0.150048 0.395129 0.574279 T T T Ti
0.652395 0.399329 0.575758 T T T Ti
0.141548 0.877563 0.575841 T T T Ti
0.632048 0.881632 0.579291 T T T Ti
0.349952 0.104869 0.574279 T T T Ti
0.847605 0.100670 0.575758 T T T Ti
0.358452 0.622436 0.575842 T T T Ti
0.867952 0.618366 0.579291 T T T Ti
0.391416 0.366671 0.493077 T T T Ti
0.905717 0.349547 0.502817 T T T Ti
0.397259 0.855051 0.487190 T T T Ti
0.909655 0.874459 0.480513 T T T Ti
0.108584 0.133328 0.493077 T T T Ti
0.594283 0.150453 0.502817 T T T Ti
0.102741 0.644948 0.487190 T T T Ti
0.590345 0.625541 0.480513 T T T Ti
0.125219 0.874998 0.737529 F F F Ti
0.625096 0.874981 0.737506 F F F Ti
0.374777 0.624987 0.737531 F F F Ti
0.874900 0.625006 0.737506 F F F Ti
0.125012 0.375056 0.737566 F F F Ti
0.624761 0.375223 0.737589 F F F Ti
0.374984 0.124927 0.737567 F F F Ti
0.875233 0.124757 0.737591 F F F Ti
0.750000 0.750000 0.373794 T T T Mo

0.000000 0.000000 0.000000
0.000000 0.000000 0.000000
0.000000 0.000000 0.000000
0.000000 0.000000 0.000000
0.000000 0.000000 0.000000
0.000000 0.000000 0.000000
0.000000 0.000000 0.000000
0.000000 0.000000 0.000000
0.000000 0.000000 0.000000
0.000000 0.000000 0.000000
0.000000 0.000000 0.000000
0.000000 0.000000 0.000000
0.000000 0.000000 0.000000
0.000000 0.000000 0.000000
0.000000 0.000000 0.000000
0.000000 0.000000 0.000000
0.000000 0.000000 0.000000
0.000000 0.000000 0.000000
0.000000 0.000000 0.000000
0.000000 0.000000 0.000000
0.000000 0.000000 0.000000
0.000000 0.000000 0.000000
0.000000 0.000000 0.000000
0.000000 0.000000 0.000000
0.000000 0.000000 0.000000
0.000000 0.000000 0.000000
0.000000 0.000000 0.000000
0.000000 0.000000 0.000000
0.000000 0.000000 0.000000
0.000000 0.000000 0.000000
0.000000 0.000000 0.000000
0.000000 0.000000 0.000000
0.000000 0.000000 0.000000
0.000000 0.000000 0.000000
0.000000 0.000000 0.000000
0.000000 0.000000 0.000000
0.000000 0.000000 0.000000
0.000000 0.000000 0.000000
0.000000 0.000000 0.000000
0.000000 0.000000 0.000000
0.000000 0.000000 0.000000
0.000000 0.000000 0.000000
0.000000 0.000000 0.000000
0.000000 0.000000 0.000000
0.000000 0.000000 0.000000
0.000000 0.000000 0.000000
0.000000 0.000000 0.000000
0.000000 0.000000 0.000000
0.000000 0.000000 0.000000
0.000000 0.000000 0.000000
0.000000 0.000000 0.000000
0.000000 0.000000 0.000000
0.000000 0.000000 0.000000
0.000000 0.000000 0.000000
0.000000 0.000000 0.000000
0.000000 0.000000 0.000000
0.000000 0.000000 0.000000
0.000000 0.000000 0.000000
0.000000 0.000000 0.000000
0.000000 0.000000 0.000000
0.000000 0.000000 0.000000
0.000000 0.000000 0.000000
0.000000 0.000000 0.000000
0.000000 0.000000 0.000000
0.000000 0.000000 0.000000
0.000000 0.000000 0.000000
0.000000 0.000000 0.000000
0.000000 0.000000 0.000000
0.000000 0.000000 0.000000
0.000000 0.000000 0.000000
0.000000 0.000000 0.000000
0.000000 0.000000 0.000000
0.000000 0.000000 0.000000
0.000000 0.000000 0.000000
0.000000 0.000000 0.000000
0.000000 0.000000 0.000000
0.000000 0.000000 0.000000
0.000000 0.000000 0.000000
0.000000 0.000000 0.000000
0.000000 0.000000 0.000000
0.000000 0.000000 0.000000
0.000000 0.000000 0.000000
0.000000 0.000000 0.000000
0.000000 0.000000 0.000000
0.000000 0.000000 0.000000
0.000000 0.000000 0.000000
0.000000 0.000000 0.000000
0.000000 0.000000 0.000000
0.000000 0.000000 0.000000
0.000000 0.000000 0.000000
0.000000 0.000000 0.000000
0.000000 0.000000 0.000000
0.000000 0.000000 0.000000
0.000000 0.000000 0.000000
0.000000 0.000000 0.000000
0.000000 0.000000 0.000000
0.000000 0.000000 0.000000
