Zr1 Ti96
1.0
9.513020 0.000000 0.000000
0.000000 9.350860 0.000000
0.000000 0.000000 18.547230
Ti Zr
96 1
Selective dynamics
direct
0.146906 0.370477 0.403533 T T T Ti
0.649350 0.352486 0.395996 T T T Ti
0.150008 0.860520 0.394171 T T T Ti
0.671419 0.883454 0.399949 T T T Ti
0.160184 0.371832 0.236428 T T T Ti
0.660702 0.373896 0.234028 T T T Ti
0.162166 0.875097 0.234956 T T T Ti
0.662338 0.872036 0.234472 T T T Ti
0.166646 0.375023 0.077650 F F F Ti
0.666676 0.374996 0.077645 F F F Ti
0.166665 0.874989 0.077662 F F F Ti
0.666662 0.874980 0.077641 F F F Ti
0.407497 0.380861 0.313325 T T T Ti
0.904574 0.376399 0.319815 T T T Ti
0.407905 0.879109 0.317903 T T T Ti
0.910684 0.880443 0.314054 T T T Ti
0.416707 0.374980 0.155216 F F F Ti
0.916644 0.374938 0.155211 F F F Ti
0.416659 0.874988 0.155254 F F F Ti
0.916706 0.874981 0.155186 F F F Ti
0.416668 0.375051 -0.000034 F F F Ti
0.916614 0.375029 -0.000028 F F F Ti
0.416658 0.874974 -0.000078 F F F Ti
0.916630 0.874978 -0.000068 F F F Ti
0.095426 0.123602 0.319814 T T T Ti
0.592503 0.119140 0.313324 T T T Ti
0.089316 0.619558 0.314053 T T T Ti
0.592095 0.620892 0.317902 T T T Ti
0.083356 0.125073 0.155211 F F F Ti
0.583293 0.125031 0.155216 F F F Ti
0.083293 0.625035 0.155186 F F F Ti
0.583342 0.625025 0.155254 F F F Ti
0.083388 0.124979 -0.000027 F F F Ti
0.583334 0.124961 -0.000033 F F F Ti
0.083371 0.625040 -0.000067 F F F Ti
0.583343 0.625044 -0.000077 F F F Ti
0.350649 0.147514 0.395996 T T T Ti
0.853093 0.129523 0.403532 T T T Ti
0.328579 0.616546 0.399949 T T T Ti
0.849991 0.639480 0.394171 T T T Ti
0.339297 0.126107 0.234028 T T T Ti
0.839815 0.128170 0.236428 T T T Ti
0.337661 0.627967 0.234472 T T T Ti
0.837833 0.624906 0.234956 T T T Ti
0.333324 0.125015 0.077646 F F F Ti
0.833354 0.124987 0.077651 F F F Ti
0.333338 0.625034 0.077641 F F F Ti
0.833335 0.625023 0.077662 F F F Ti
0.374998 0.375024 0.823980 F F F Ti
0.874957 0.374919 0.823951 F F F Ti
0.375052 0.874954 0.823848 F F F Ti
0.875017 0.874963 0.823855 F F F Ti
0.125051 0.125068 0.823950 F F F Ti
0.625009 0.124975 0.823981 F F F Ti
0.124986 0.625037 0.823857 F F F Ti
0.624955 0.625033 0.823851 F F F Ti
0.124988 0.375035 0.910175 F F F Ti
0.625020 0.374995 0.910187 F F F Ti
0.125037 0.874962 0.910114 F F F Ti
0.624999 0.874956 0.910121 F F F Ti
0.374985 0.125002 0.910187 F F F Ti
0.875020 0.124962 0.910175 F F F Ti
0.375005 0.625044 0.910120 F F F Ti
0.874970 0.625040 0.910114 F F F Ti
0.386275 0.377597 0.663401 T T T Ti
0.885666 0.380057 0.648821 T T T Ti
0.379943 0.892398 0.657948 T T T Ti
0.895423 0.879460 0.660726 T T T Ti
0.114332 0.119940 0.648820 T T T Ti
0.613722 0.122397 0.663401 T T T Ti
0.104574 0.620533 0.660726 T T T Ti
0.620055 0.607595 0.657949 T T T Ti
0.139831 0.370462 0.569939 T T T Ti
0.639571 0.349808 0.575262 T T T Ti
0.141075 0.858701 0.572955 T T T Ti
0.674297 0.902431 0.575462 T T T Ti
0.360428 0.150190 0.575262 T T T Ti
0.860168 0.129537 0.569939 T T T Ti
0.325702 0.597567 0.575462 T T T Ti
0.858924 0.641297 0.572955 T T T Ti
0.403787 0.383749 0.486349 T T T Ti
0.891703 0.376966 0.488235 T T T Ti
0.346477 -0.063734 0.483180 T T T Ti
0.914053 0.880084 0.482995 T T T Ti
0.108297 0.123034 0.488235 T T T Ti
0.596213 0.116251 0.486349 T T T Ti
0.085946 0.619915 0.482995 T T T Ti
0.653523 0.563734 0.483180 T T T Ti
0.125639 0.875001 0.737725 F F F Ti
0.625153 0.874876 0.737749 F F F Ti
0.374833 0.625099 0.737749 F F F Ti
0.874352 0.624978 0.737731 F F F Ti
0.124802 0.374803 0.737785 F F F Ti
0.625110 0.374670 0.737849 F F F Ti
0.374876 0.125298 0.737845 F F F Ti
0.875188 0.125170 0.737780 F F F Ti
0.500000 0.749999 0.514060 T T T Zr

0.000000 0.000000 0.000000
0.000000 0.000000 0.000000
0.000000 0.000000 0.000000
0.000000 0.000000 0.000000
0.000000 0.000000 0.000000
0.000000 0.000000 0.000000
0.000000 0.000000 0.000000
0.000000 0.000000 0.000000
0.000000 0.000000 0.000000
0.000000 0.000000 0.000000
0.000000 0.000000 0.000000
0.000000 0.000000 0.000000
0.000000 0.000000 0.000000
0.000000 0.000000 0.000000
0.000000 0.000000 0.000000
0.000000 0.000000 0.000000
0.000000 0.000000 0.000000
0.000000 0.000000 0.000000
0.000000 0.000000 0.000000
0.000000 0.000000 0.000000
0.000000 0.000000 0.000000
0.000000 0.000000 0.000000
0.000000 0.000000 0.000000
0.000000 0.000000 0.000000
0.000000 0.000000 0.000000
0.000000 0.000000 0.000000
0.000000 0.000000 0.000000
0.000000 0.000000 0.000000
0.000000 0.000000 0.000000
0.000000 0.000000 0.000000
0.000000 0.000000 0.000000
0.000000 0.000000 0.000000
0.000000 0.000000 0.000000
0.000000 0.000000 0.000000
0.000000 0.000000 0.000000
0.000000 0.000000 0.000000
0.000000 0.000000 0.000000
0.000000 0.000000 0.000000
0.000000 0.000000 0.000000
0.000000 0.000000 0.000000
0.000000 0.000000 0.000000
0.000000 0.000000 0.000000
0.000000 0.000000 0.000000
0.000000 0.000000 0.000000
0.000000 0.000000 0.000000
0.000000 0.000000 0.000000
0.000000 0.000000 0.000000
0.000000 0.000000 0.000000
0.000000 0.000000 0.000000
0.000000 0.000000 0.000000
0.000000 0.000000 0.000000
0.000000 0.000000 0.000000
0.000000 0.000000 0.000000
0.000000 0.000000 0.000000
0.000000 0.000000 0.000000
0.000000 0.000000 0.000000
0.000000 0.000000 0.000000
0.000000 0.000000 0.000000
0.000000 0.000000 0.000000
0.000000 0.000000 0.000000
0.000000 0.000000 0.000000
0.000000 0.000000 0.000000
0.000000 0.000000 0.000000
0.000000 0.000000 0.000000
0.000000 0.000000 0.000000
0.000000 0.000000 0.000000
0.000000 0.000000 0.000000
0.000000 0.000000 0.000000
0.000000 0.000000 0.000000
0.000000 0.000000 0.000000
0.000000 0.000000 0.000000
0.000000 0.000000 0.000000
0.000000 0.000000 0.000000
0.000000 0.000000 0.000000
0.000000 0.000000 0.000000
0.000000 0.000000 0.000000
0.000000 0.000000 0.000000
0.000000 0.000000 0.000000
0.000000 0.000000 0.000000
0.000000 0.000000 0.000000
0.000000 0.000000 0.000000
0.000000 0.000000 0.000000
0.000000 0.000000 0.000000
0.000000 0.000000 0.000000
0.000000 0.000000 0.000000
0.000000 0.000000 0.000000
0.000000 0.000000 0.000000
0.000000 0.000000 0.000000
0.000000 0.000000 0.000000
0.000000 0.000000 0.000000
0.000000 0.000000 0.000000
0.000000 0.000000 0.000000
0.000000 0.000000 0.000000
0.000000 0.000000 0.000000
0.000000 0.000000 0.000000
0.000000 0.000000 0.000000
0.000000 0.000000 0.000000
