total_Ti
1.0
4.756512 0.000000 0.000000
0.000000 4.675432 0.000000
0.000000 0.000000 19.211800
Ti
24
direct
0.333333 0.750000 0.375009 Ti
0.333333 0.750000 0.225005 Ti
0.333333 0.750000 0.075002 Ti
0.833334 0.750000 0.300007 Ti
0.833334 0.750000 0.150004 Ti
0.833334 0.750000 -0.000000 Ti
0.166666 0.250000 0.300007 Ti
0.166666 0.250000 0.150004 Ti
0.166666 0.250000 -0.000000 Ti
0.666667 0.250000 0.375009 Ti
0.666667 0.250000 0.225005 Ti
0.666667 0.250000 0.075002 Ti
0.666667 0.750000 0.895900 Ti
0.166667 0.250000 0.895900 Ti
0.166667 0.750000 0.812542 Ti
0.666667 0.250000 0.812542 Ti
0.666667 0.750000 0.729185 Ti
0.166667 0.250000 0.729185 Ti
0.166667 0.750000 0.645827 Ti
0.666667 0.250000 0.645827 Ti
0.666667 0.750000 0.562469 Ti
0.166667 0.250000 0.562469 Ti
0.166667 0.750000 0.479112 Ti
0.666667 0.250000 0.479112 Ti
