Ti66 Sn1
1.0
6.309760 0.000000 0.000000
0.000000 9.464640 0.000000
0.000000 0.000000 18.918326
Ti Sn
66 1
Selective dynamics
direct
0.627143 0.041773 0.499286 F F F Ti
0.629133 0.041693 0.658345 F F F Ti
0.125091 0.041677 0.816655 F F F Ti
0.625210 0.041697 0.817009 F F F Ti
0.125459 0.375958 0.499587 F F F Ti
0.625183 0.378173 0.498677 F F F Ti
0.125533 0.376280 0.658417 F F F Ti
0.625664 0.377104 0.659254 F F F Ti
0.125293 0.374870 0.817159 F F F Ti
0.625075 0.375059 0.817388 F F F Ti
0.125297 0.707346 0.499488 F F F Ti
0.624922 0.705562 0.498451 F F F Ti
0.125360 0.706807 0.658518 F F F Ti
0.625421 0.706424 0.659359 F F F Ti
0.125246 0.708401 0.817245 F F F Ti
0.625065 0.708292 0.817473 F F F Ti
0.387061 0.214594 0.578081 F F F Ti
0.861646 0.216642 0.577725 F F F Ti
0.375935 0.208604 0.737595 F F F Ti
0.874478 0.209247 0.737953 F F F Ti
0.374906 0.208136 0.896310 F F F Ti
0.875254 0.208190 0.896374 F F F Ti
0.375570 0.542012 0.579170 F F F Ti
0.875071 0.542036 0.579142 F F F Ti
0.374932 0.541788 0.738204 F F F Ti
0.875657 0.541727 0.738289 F F F Ti
0.374942 0.541654 0.896543 F F F Ti
0.875234 0.541651 0.896558 F F F Ti
0.387461 0.868614 0.578056 F F F Ti
0.861019 0.866450 0.577739 F F F Ti
0.375968 0.874727 0.737643 F F F Ti
0.874347 0.874070 0.738002 F F F Ti
0.374904 0.875197 0.896319 F F F Ti
0.875235 0.875162 0.896388 F F F Ti
0.124966 0.625039 0.356422 F F F Ti
0.625037 0.625001 0.356091 F F F Ti
0.124954 0.625105 0.118892 F F F Ti
0.624875 0.625083 0.118868 F F F Ti
0.125006 0.124916 0.356922 F F F Ti
0.625152 0.125046 0.356530 F F F Ti
0.124993 0.124951 0.118979 F F F Ti
0.624859 0.124964 0.118936 F F F Ti
0.124996 0.374897 0.039536 F F F Ti
0.624922 0.374910 0.039562 F F F Ti
0.124986 0.875109 0.039499 F F F Ti
0.624889 0.875095 0.039534 F F F Ti
0.124958 0.374906 0.277257 F F F Ti
0.624988 0.374918 0.277170 F F F Ti
0.125011 0.875099 0.277431 F F F Ti
0.624965 0.875071 0.277327 F F F Ti
0.374935 0.875058 0.158484 F F F Ti
0.875015 0.875061 0.158476 F F F Ti
0.374945 0.374956 0.158431 F F F Ti
0.875053 0.374954 0.158411 F F F Ti
0.374774 0.375004 0.395910 F F F Ti
0.875470 0.375124 0.395869 F F F Ti
0.374971 0.875094 0.396328 F F F Ti
0.875263 0.874883 0.396189 F F F Ti
0.374874 0.625052 0.237625 F F F Ti
0.875083 0.625037 0.237611 F F F Ti
0.374937 0.625076 0.000021 F F F Ti
0.875018 0.625071 0.000033 F F F Ti
0.374882 0.124959 0.237824 F F F Ti
0.875128 0.124959 0.237797 F F F Ti
0.374918 0.124978 -0.000092 F F F Ti
0.875047 0.124970 -0.000059 F F F Ti
0.115411 0.040613 0.617875 T T T Sn

0.000000 0.000000 0.000000
0.000000 0.000000 0.000000
0.000000 0.000000 0.000000
0.000000 0.000000 0.000000
0.000000 0.000000 0.000000
0.000000 0.000000 0.000000
0.000000 0.000000 0.000000
0.000000 0.000000 0.000000
0.000000 0.000000 0.000000
0.000000 0.000000 0.000000
0.000000 0.000000 0.000000
0.000000 0.000000 0.000000
0.000000 0.000000 0.000000
0.000000 0.000000 0.000000
0.000000 0.000000 0.000000
0.000000 0.000000 0.000000
0.000000 0.000000 0.000000
0.000000 0.000000 0.000000
0.000000 0.000000 0.000000
0.000000 0.000000 0.000000
0.000000 0.000000 0.000000
0.000000 0.000000 0.000000
0.000000 0.000000 0.000000
0.000000 0.000000 0.000000
0.000000 0.000000 0.000000
0.000000 0.000000 0.000000
0.000000 0.000000 0.000000
0.000000 0.000000 0.000000
0.000000 0.000000 0.000000
0.000000 0.000000 0.000000
0.000000 0.000000 0.000000
0.000000 0.000000 0.000000
0.000000 0.000000 0.000000
0.000000 0.000000 0.000000
0.000000 0.000000 0.000000
0.000000 0.000000 0.000000
0.000000 0.000000 0.000000
0.000000 0.000000 0.000000
0.000000 0.000000 0.000000
0.000000 0.000000 0.000000
0.000000 0.000000 0.000000
0.000000 0.000000 0.000000
0.000000 0.000000 0.000000
0.000000 0.000000 0.000000
0.000000 0.000000 0.000000
0.000000 0.000000 0.000000
0.000000 0.000000 0.000000
0.000000 0.000000 0.000000
0.000000 0.000000 0.000000
0.000000 0.000000 0.000000
0.000000 0.000000 0.000000
0.000000 0.000000 0.000000
0.000000 0.000000 0.000000
0.000000 0.000000 0.000000
0.000000 0.000000 0.000000
0.000000 0.000000 0.000000
0.000000 0.000000 0.000000
0.000000 0.000000 0.000000
0.000000 0.000000 0.000000
0.000000 0.000000 0.000000
0.000000 0.000000 0.000000
0.000000 0.000000 0.000000
0.000000 0.000000 0.000000
0.000000 0.000000 0.000000
0.000000 0.000000 0.000000
0.000000 0.000000 0.000000
0.000000 0.000000 0.000000
