Zr1 Ti66
1.0
6.309760 0.000000 0.000000
0.000000 9.464640 0.000000
0.000000 0.000000 18.918326
Ti Zr
66 1
Selective dynamics
direct
0.630616 0.041767 0.499815 F F F Ti
0.628585 0.041715 0.659071 F F F Ti
0.125129 0.041736 0.816835 F F F Ti
0.625192 0.041737 0.817248 F F F Ti
0.125524 0.376535 0.499956 F F F Ti
0.625507 0.379292 0.498527 F F F Ti
0.125806 0.376181 0.658842 F F F Ti
0.625500 0.378804 0.660313 F F F Ti
0.125302 0.374777 0.817409 F F F Ti
0.625094 0.374993 0.817695 F F F Ti
0.125366 0.706393 0.499730 F F F Ti
0.625336 0.704897 0.498321 F F F Ti
0.125620 0.707092 0.659013 F F F Ti
0.625211 0.705290 0.660379 F F F Ti
0.125223 0.708586 0.817530 F F F Ti
0.625105 0.708490 0.817790 F F F Ti
0.394242 0.218105 0.579759 F F F Ti
0.853079 0.221596 0.580043 F F F Ti
0.375362 0.208369 0.737775 F F F Ti
0.875311 0.208854 0.738103 F F F Ti
0.374897 0.208109 0.896454 F F F Ti
0.875287 0.208157 0.896512 F F F Ti
0.375709 0.542254 0.579462 F F F Ti
0.875234 0.542322 0.579499 F F F Ti
0.374452 0.541854 0.738700 F F F Ti
0.876346 0.541763 0.738802 F F F Ti
0.374933 0.541649 0.896738 F F F Ti
0.875262 0.541640 0.896757 F F F Ti
0.393386 0.865627 0.579718 F F F Ti
0.854320 0.862276 0.580023 F F F Ti
0.375329 0.875114 0.737832 F F F Ti
0.875251 0.874624 0.738149 F F F Ti
0.374896 0.875266 0.896478 F F F Ti
0.875259 0.875242 0.896541 F F F Ti
0.125085 0.624992 0.356475 F F F Ti
0.625134 0.624968 0.356035 F F F Ti
0.124937 0.625100 0.118944 F F F Ti
0.624862 0.625079 0.118920 F F F Ti
0.125062 0.124813 0.357354 F F F Ti
0.625403 0.125002 0.356807 F F F Ti
0.125002 0.124934 0.119081 F F F Ti
0.624865 0.124950 0.119036 F F F Ti
0.124968 0.374833 0.039575 F F F Ti
0.624852 0.374855 0.039619 F F F Ti
0.124956 0.875152 0.039544 F F F Ti
0.624811 0.875132 0.039599 F F F Ti
0.125010 0.374815 0.277357 F F F Ti
0.625040 0.374842 0.277238 F F F Ti
0.125122 0.875155 0.277621 F F F Ti
0.625016 0.875128 0.277457 F F F Ti
0.374915 0.875095 0.158583 F F F Ti
0.875060 0.875095 0.158570 F F F Ti
0.374914 0.374909 0.158502 F F F Ti
0.875071 0.374911 0.158469 F F F Ti
0.374662 0.374964 0.396042 F F F Ti
0.875786 0.375221 0.395957 F F F Ti
0.375308 0.875074 0.396643 F F F Ti
0.875239 0.874552 0.396346 F F F Ti
0.374854 0.625065 0.237659 F F F Ti
0.875174 0.625034 0.237638 F F F Ti
0.374894 0.625127 0.000143 F F F Ti
0.875005 0.625129 0.000155 F F F Ti
0.374835 0.124928 0.238016 F F F Ti
0.875263 0.124928 0.237965 F F F Ti
0.374891 0.124955 0.000006 F F F Ti
0.875046 0.124945 0.000037 F F F Ti
0.111280 0.044330 0.571231 T T T Zr

0.000000 0.000000 0.000000
0.000000 0.000000 0.000000
0.000000 0.000000 0.000000
0.000000 0.000000 0.000000
0.000000 0.000000 0.000000
0.000000 0.000000 0.000000
0.000000 0.000000 0.000000
0.000000 0.000000 0.000000
0.000000 0.000000 0.000000
0.000000 0.000000 0.000000
0.000000 0.000000 0.000000
0.000000 0.000000 0.000000
0.000000 0.000000 0.000000
0.000000 0.000000 0.000000
0.000000 0.000000 0.000000
0.000000 0.000000 0.000000
0.000000 0.000000 0.000000
0.000000 0.000000 0.000000
0.000000 0.000000 0.000000
0.000000 0.000000 0.000000
0.000000 0.000000 0.000000
0.000000 0.000000 0.000000
0.000000 0.000000 0.000000
0.000000 0.000000 0.000000
0.000000 0.000000 0.000000
0.000000 0.000000 0.000000
0.000000 0.000000 0.000000
0.000000 0.000000 0.000000
0.000000 0.000000 0.000000
0.000000 0.000000 0.000000
0.000000 0.000000 0.000000
0.000000 0.000000 0.000000
0.000000 0.000000 0.000000
0.000000 0.000000 0.000000
0.000000 0.000000 0.000000
0.000000 0.000000 0.000000
0.000000 0.000000 0.000000
0.000000 0.000000 0.000000
0.000000 0.000000 0.000000
0.000000 0.000000 0.000000
0.000000 0.000000 0.000000
0.000000 0.000000 0.000000
0.000000 0.000000 0.000000
0.000000 0.000000 0.000000
0.000000 0.000000 0.000000
0.000000 0.000000 0.000000
0.000000 0.000000 0.000000
0.000000 0.000000 0.000000
0.000000 0.000000 0.000000
0.000000 0.000000 0.000000
0.000000 0.000000 0.000000
0.000000 0.000000 0.000000
0.000000 0.000000 0.000000
0.000000 0.000000 0.000000
0.000000 0.000000 0.000000
0.000000 0.000000 0.000000
0.000000 0.000000 0.000000
0.000000 0.000000 0.000000
0.000000 0.000000 0.000000
0.000000 0.000000 0.000000
0.000000 0.000000 0.000000
0.000000 0.000000 0.000000
0.000000 0.000000 0.000000
0.000000 0.000000 0.000000
0.000000 0.000000 0.000000
0.000000 0.000000 0.000000
0.000000 0.000000 0.000000
