Ti66 Nb1
1.0
6.309760 0.000000 0.000000
0.000000 9.464640 0.000000
0.000000 0.000000 18.918326
Ti Nb
66 1
Selective dynamics
direct
0.125617 0.032286 0.501615 F F F Ti
0.627413 0.039525 0.499921 F F F Ti
0.125663 0.039042 0.659095 F F F Ti
0.625190 0.038658 0.659250 F F F Ti
0.125183 0.040740 0.817241 F F F Ti
0.625088 0.040709 0.817290 F F F Ti
0.631802 0.373357 0.500144 F F F Ti
0.125358 0.372852 0.658601 F F F Ti
0.625854 0.373794 0.658926 F F F Ti
0.125253 0.374285 0.817108 F F F Ti
0.625245 0.374372 0.817199 F F F Ti
0.124948 0.701459 0.499349 F F F Ti
0.623571 0.706502 0.499678 F F F Ti
0.125403 0.705646 0.658309 F F F Ti
0.624492 0.706247 0.658618 F F F Ti
0.125129 0.707414 0.817077 F F F Ti
0.625003 0.707467 0.817131 F F F Ti
0.380522 0.204361 0.580522 F F F Ti
0.870214 0.203242 0.581514 F F F Ti
0.375505 0.207107 0.738082 F F F Ti
0.875136 0.207005 0.738250 F F F Ti
0.375135 0.207899 0.896301 F F F Ti
0.875137 0.207888 0.896323 F F F Ti
0.376076 0.538654 0.579005 F F F Ti
0.874211 0.539996 0.579534 F F F Ti
0.375070 0.540332 0.737832 F F F Ti
0.875372 0.540495 0.737928 F F F Ti
0.375069 0.541201 0.896274 F F F Ti
0.875141 0.541220 0.896281 F F F Ti
0.375935 0.871732 0.579475 F F F Ti
0.874577 0.871231 0.579596 F F F Ti
0.375011 0.873317 0.738025 F F F Ti
0.875292 0.873233 0.738026 F F F Ti
0.375060 0.874525 0.896355 F F F Ti
0.875068 0.874520 0.896354 F F F Ti
0.125506 0.625869 0.355651 F F F Ti
0.624374 0.630193 0.355240 F F F Ti
0.125231 0.625675 0.118305 F F F Ti
0.625023 0.625707 0.118218 F F F Ti
0.627778 0.124242 0.356174 F F F Ti
0.125438 0.125214 0.118585 F F F Ti
0.625087 0.125186 0.118516 F F F Ti
0.125286 0.375054 0.039042 F F F Ti
0.625076 0.375049 0.039083 F F F Ti
0.125011 0.875278 0.039365 F F F Ti
0.624925 0.875305 0.039351 F F F Ti
0.125695 0.376098 0.276591 F F F Ti
0.624335 0.375980 0.273965 F F F Ti
0.124903 0.876446 0.277364 F F F Ti
0.625025 0.876857 0.276997 F F F Ti
0.374946 0.875812 0.158238 F F F Ti
0.875243 0.875791 0.158180 F F F Ti
0.374304 0.375433 0.157555 F F F Ti
0.876293 0.375486 0.157429 F F F Ti
0.396685 0.380506 0.391987 F F F Ti
0.847847 0.383145 0.389713 F F F Ti
0.374133 0.876109 0.396401 F F F Ti
0.876241 0.875122 0.396399 F F F Ti
0.374964 0.626453 0.236872 F F F Ti
0.875385 0.626534 0.236797 F F F Ti
0.375029 0.625182 -0.000349 F F F Ti
0.875051 0.625192 -0.000347 F F F Ti
0.374787 0.125682 0.237636 F F F Ti
0.875950 0.125650 0.237342 F F F Ti
0.375037 0.124824 -0.000219 F F F Ti
0.875106 0.124827 -0.000195 F F F Ti
0.109561 0.319844 0.469817 T T T Nb

0.000000 0.000000 0.000000
0.000000 0.000000 0.000000
0.000000 0.000000 0.000000
0.000000 0.000000 0.000000
0.000000 0.000000 0.000000
0.000000 0.000000 0.000000
0.000000 0.000000 0.000000
0.000000 0.000000 0.000000
0.000000 0.000000 0.000000
0.000000 0.000000 0.000000
0.000000 0.000000 0.000000
0.000000 0.000000 0.000000
0.000000 0.000000 0.000000
0.000000 0.000000 0.000000
0.000000 0.000000 0.000000
0.000000 0.000000 0.000000
0.000000 0.000000 0.000000
0.000000 0.000000 0.000000
0.000000 0.000000 0.000000
0.000000 0.000000 0.000000
0.000000 0.000000 0.000000
0.000000 0.000000 0.000000
0.000000 0.000000 0.000000
0.000000 0.000000 0.000000
0.000000 0.000000 0.000000
0.000000 0.000000 0.000000
0.000000 0.000000 0.000000
0.000000 0.000000 0.000000
0.000000 0.000000 0.000000
0.000000 0.000000 0.000000
0.000000 0.000000 0.000000
0.000000 0.000000 0.000000
0.000000 0.000000 0.000000
0.000000 0.000000 0.000000
0.000000 0.000000 0.000000
0.000000 0.000000 0.000000
0.000000 0.000000 0.000000
0.000000 0.000000 0.000000
0.000000 0.000000 0.000000
0.000000 0.000000 0.000000
0.000000 0.000000 0.000000
0.000000 0.000000 0.000000
0.000000 0.000000 0.000000
0.000000 0.000000 0.000000
0.000000 0.000000 0.000000
0.000000 0.000000 0.000000
0.000000 0.000000 0.000000
0.000000 0.000000 0.000000
0.000000 0.000000 0.000000
0.000000 0.000000 0.000000
0.000000 0.000000 0.000000
0.000000 0.000000 0.000000
0.000000 0.000000 0.000000
0.000000 0.000000 0.000000
0.000000 0.000000 0.000000
0.000000 0.000000 0.000000
0.000000 0.000000 0.000000
0.000000 0.000000 0.000000
0.000000 0.000000 0.000000
0.000000 0.000000 0.000000
0.000000 0.000000 0.000000
0.000000 0.000000 0.000000
0.000000 0.000000 0.000000
0.000000 0.000000 0.000000
0.000000 0.000000 0.000000
0.000000 0.000000 0.000000
0.000000 0.000000 0.000000
