Ti67
1.0
6.309760 0.000000 0.000000
0.000000 9.464640 0.000000
0.000000 0.000000 18.918326
Ti
67
Selective dynamics
direct
0.125643 0.031774 0.501633 F F F Ti
0.627456 0.039442 0.499895 F F F Ti
0.125661 0.038967 0.659066 F F F Ti
0.625138 0.038644 0.659228 F F F Ti
0.125183 0.040712 0.817217 F F F Ti
0.625080 0.040694 0.817270 F F F Ti
0.631638 0.373312 0.500100 F F F Ti
0.125316 0.372771 0.658492 F F F Ti
0.625768 0.373712 0.658862 F F F Ti
0.125253 0.374223 0.817067 F F F Ti
0.625238 0.374309 0.817162 F F F Ti
0.124983 0.701945 0.499381 F F F Ti
0.623686 0.706463 0.499674 F F F Ti
0.125415 0.705590 0.658336 F F F Ti
0.624498 0.706104 0.658644 F F F Ti
0.125133 0.707352 0.817071 F F F Ti
0.625007 0.707390 0.817126 F F F Ti
0.380282 0.204328 0.580403 F F F Ti
0.870209 0.203165 0.581458 F F F Ti
0.375455 0.207064 0.738028 F F F Ti
0.875151 0.206960 0.738203 F F F Ti
0.375125 0.207870 0.896273 F F F Ti
0.875148 0.207858 0.896297 F F F Ti
0.375968 0.538612 0.578952 F F F Ti
0.874269 0.539952 0.579490 F F F Ti
0.375036 0.540230 0.737804 F F F Ti
0.875394 0.540391 0.737902 F F F Ti
0.375065 0.541136 0.896248 F F F Ti
0.875151 0.541155 0.896255 F F F Ti
0.376207 0.871526 0.579543 F F F Ti
0.874355 0.871021 0.579674 F F F Ti
0.375049 0.873249 0.738039 F F F Ti
0.875257 0.873167 0.738041 F F F Ti
0.375069 0.874502 0.896339 F F F Ti
0.875067 0.874497 0.896338 F F F Ti
0.125631 0.626146 0.355538 F F F Ti
0.624516 0.630165 0.355170 F F F Ti
0.125259 0.625670 0.118256 F F F Ti
0.625053 0.625692 0.118167 F F F Ti
0.627859 0.124301 0.356183 F F F Ti
0.125463 0.125221 0.118575 F F F Ti
0.625103 0.125202 0.118510 F F F Ti
0.125295 0.375038 0.039025 F F F Ti
0.625086 0.375030 0.039066 F F F Ti
0.125031 0.875275 0.039326 F F F Ti
0.624944 0.875307 0.039312 F F F Ti
0.125710 0.376170 0.276585 F F F Ti
0.624357 0.375983 0.273993 F F F Ti
0.124969 0.876369 0.277272 F F F Ti
0.625128 0.876850 0.276918 F F F Ti
0.375006 0.875818 0.158180 F F F Ti
0.875255 0.875797 0.158117 F F F Ti
0.374328 0.375426 0.157546 F F F Ti
0.876302 0.375477 0.157418 F F F Ti
0.396182 0.380687 0.392050 F F F Ti
0.848263 0.383479 0.389767 F F F Ti
0.374518 0.875763 0.396322 F F F Ti
0.876011 0.874766 0.396318 F F F Ti
0.375085 0.626473 0.236796 F F F Ti
0.875375 0.626554 0.236717 F F F Ti
0.375042 0.625151 -0.000379 F F F Ti
0.875064 0.625162 -0.000376 F F F Ti
0.374788 0.125693 0.237646 F F F Ti
0.876011 0.125663 0.237343 F F F Ti
0.375043 0.124830 -0.000232 F F F Ti
0.875122 0.124833 -0.000208 F F F Ti
0.108847 0.316605 0.470383 T T T Ti

0.000000 0.000000 0.000000
0.000000 0.000000 0.000000
0.000000 0.000000 0.000000
0.000000 0.000000 0.000000
0.000000 0.000000 0.000000
0.000000 0.000000 0.000000
0.000000 0.000000 0.000000
0.000000 0.000000 0.000000
0.000000 0.000000 0.000000
0.000000 0.000000 0.000000
0.000000 0.000000 0.000000
0.000000 0.000000 0.000000
0.000000 0.000000 0.000000
0.000000 0.000000 0.000000
0.000000 0.000000 0.000000
0.000000 0.000000 0.000000
0.000000 0.000000 0.000000
0.000000 0.000000 0.000000
0.000000 0.000000 0.000000
0.000000 0.000000 0.000000
0.000000 0.000000 0.000000
0.000000 0.000000 0.000000
0.000000 0.000000 0.000000
0.000000 0.000000 0.000000
0.000000 0.000000 0.000000
0.000000 0.000000 0.000000
0.000000 0.000000 0.000000
0.000000 0.000000 0.000000
0.000000 0.000000 0.000000
0.000000 0.000000 0.000000
0.000000 0.000000 0.000000
0.000000 0.000000 0.000000
0.000000 0.000000 0.000000
0.000000 0.000000 0.000000
0.000000 0.000000 0.000000
0.000000 0.000000 0.000000
0.000000 0.000000 0.000000
0.000000 0.000000 0.000000
0.000000 0.000000 0.000000
0.000000 0.000000 0.000000
0.000000 0.000000 0.000000
0.000000 0.000000 0.000000
0.000000 0.000000 0.000000
0.000000 0.000000 0.000000
0.000000 0.000000 0.000000
0.000000 0.000000 0.000000
0.000000 0.000000 0.000000
0.000000 0.000000 0.000000
0.000000 0.000000 0.000000
0.000000 0.000000 0.000000
0.000000 0.000000 0.000000
0.000000 0.000000 0.000000
0.000000 0.000000 0.000000
0.000000 0.000000 0.000000
0.000000 0.000000 0.000000
0.000000 0.000000 0.000000
0.000000 0.000000 0.000000
0.000000 0.000000 0.000000
0.000000 0.000000 0.000000
0.000000 0.000000 0.000000
0.000000 0.000000 0.000000
0.000000 0.000000 0.000000
0.000000 0.000000 0.000000
0.000000 0.000000 0.000000
0.000000 0.000000 0.000000
0.000000 0.000000 0.000000
0.000000 0.000000 0.000000
