total_Ti
1.0
8.805261 0.000000 0.000000
-4.402630 7.625580 0.000000
0.000000 0.000000 19.088801
Ti
72
direct
0.967272 0.027818 0.486774 Ti
0.967272 0.527818 0.486774 Ti
0.467272 0.027818 0.486774 Ti
0.467272 0.527818 0.486774 Ti
0.133938 0.361151 0.825834 Ti
0.133938 0.861151 0.825834 Ti
0.633938 0.361151 0.825834 Ti
0.633938 0.861151 0.825834 Ti
0.300605 0.194485 0.874271 Ti
0.300605 0.694485 0.874271 Ti
0.800605 0.194485 0.874271 Ti
0.800605 0.694485 0.874271 Ti
0.133938 0.361151 0.535211 Ti
0.133938 0.861151 0.535211 Ti
0.633938 0.361151 0.535211 Ti
0.633938 0.861151 0.535211 Ti
0.300605 0.194485 0.583648 Ti
0.300605 0.694485 0.583648 Ti
0.800605 0.194485 0.583648 Ti
0.800605 0.694485 0.583648 Ti
0.967272 0.027818 0.632085 Ti
0.967272 0.527818 0.632085 Ti
0.467272 0.027818 0.632085 Ti
0.467272 0.527818 0.632085 Ti
0.133938 0.361151 0.680522 Ti
0.133938 0.861151 0.680522 Ti
0.633938 0.361151 0.680522 Ti
0.633938 0.861151 0.680522 Ti
0.300605 0.194485 0.728960 Ti
0.300605 0.694485 0.728960 Ti
0.800605 0.194485 0.728960 Ti
0.800605 0.694485 0.728960 Ti
0.967272 0.027818 0.777397 Ti
0.967272 0.527818 0.777397 Ti
0.467272 0.027818 0.777397 Ti
0.467272 0.527818 0.777397 Ti
0.111111 0.888889 -0.000000 Ti
0.111111 0.888889 0.240697 Ti
0.111111 0.555556 -0.000000 Ti
0.222222 0.777778 0.120349 Ti
0.111111 0.555556 0.240697 Ti
0.444444 0.888889 -0.000000 Ti
0.111111 0.222222 -0.000000 Ti
0.222222 0.777778 0.361046 Ti
0.222222 0.444444 0.120349 Ti
0.444444 0.888889 0.240697 Ti
0.111111 0.222222 0.240697 Ti
0.444444 0.555556 -0.000000 Ti
0.222222 0.444444 0.361046 Ti
0.555556 0.777778 0.120349 Ti
0.222222 0.111111 0.120349 Ti
0.444444 0.555556 0.240697 Ti
0.777778 0.888889 -0.000000 Ti
0.444444 0.222222 -0.000000 Ti
0.555556 0.777778 0.361046 Ti
0.222222 0.111111 0.361046 Ti
0.555556 0.444444 0.120349 Ti
0.777778 0.888889 0.240697 Ti
0.444444 0.222222 0.240697 Ti
0.777778 0.555556 -0.000000 Ti
0.555556 0.444444 0.361046 Ti
0.888889 0.777778 0.120349 Ti
0.555556 0.111111 0.120349 Ti
0.777778 0.555556 0.240697 Ti
0.777778 0.222222 -0.000000 Ti
0.888889 0.777778 0.361046 Ti
0.555556 0.111111 0.361046 Ti
0.888889 0.444444 0.120349 Ti
0.777778 0.222222 0.240697 Ti
0.888889 0.444444 0.361046 Ti
0.888889 0.111111 0.120349 Ti
0.888889 0.111111 0.361046 Ti
