Ti36
1.0
8.805261 0.000000 0.000000
-4.402630 7.625579 0.000000
0.000000 0.000000 17.988801
Ti
36
direct
0.000000 0.000000 0.485965 Ti
1.000000 0.500000 0.485965 Ti
0.500000 0.000000 0.485965 Ti
0.500000 0.500000 0.485965 Ti
0.166667 0.333333 0.845758 Ti
0.166667 0.833333 0.845758 Ti
0.666667 0.333333 0.845758 Ti
0.666667 0.833333 0.845758 Ti
0.333333 0.166667 0.897157 Ti
0.333333 0.666667 0.897157 Ti
0.833333 0.166667 0.897157 Ti
0.833333 0.666667 0.897157 Ti
0.166667 0.333333 0.537364 Ti
0.166667 0.833333 0.537364 Ti
0.666667 0.333333 0.537364 Ti
0.666667 0.833333 0.537364 Ti
0.333333 0.166667 0.588763 Ti
0.333333 0.666667 0.588763 Ti
0.833333 0.166667 0.588763 Ti
0.833333 0.666667 0.588763 Ti
0.000000 0.000000 0.640162 Ti
1.000000 0.500000 0.640162 Ti
0.500000 0.000000 0.640162 Ti
0.500000 0.500000 0.640162 Ti
0.166667 0.333333 0.691561 Ti
0.166667 0.833333 0.691561 Ti
0.666667 0.333333 0.691561 Ti
0.666667 0.833333 0.691561 Ti
0.333333 0.166667 0.742960 Ti
0.333333 0.666667 0.742960 Ti
0.833333 0.166667 0.742960 Ti
0.833333 0.666667 0.742960 Ti
0.000000 0.000000 0.794359 Ti
1.000000 0.500000 0.794359 Ti
0.500000 0.000000 0.794359 Ti
0.500000 0.500000 0.794359 Ti

0.000000 0.000000 0.000000
0.000000 0.000000 0.000000
0.000000 0.000000 0.000000
0.000000 0.000000 0.000000
0.000000 0.000000 0.000000
0.000000 0.000000 0.000000
0.000000 0.000000 0.000000
0.000000 0.000000 0.000000
0.000000 0.000000 0.000000
0.000000 0.000000 0.000000
0.000000 0.000000 0.000000
0.000000 0.000000 0.000000
0.000000 0.000000 0.000000
0.000000 0.000000 0.000000
0.000000 0.000000 0.000000
0.000000 0.000000 0.000000
0.000000 0.000000 0.000000
0.000000 0.000000 0.000000
0.000000 0.000000 0.000000
0.000000 0.000000 0.000000
0.000000 0.000000 0.000000
0.000000 0.000000 0.000000
0.000000 0.000000 0.000000
0.000000 0.000000 0.000000
0.000000 0.000000 0.000000
0.000000 0.000000 0.000000
0.000000 0.000000 0.000000
0.000000 0.000000 0.000000
0.000000 0.000000 0.000000
0.000000 0.000000 0.000000
0.000000 0.000000 0.000000
0.000000 0.000000 0.000000
0.000000 0.000000 0.000000
0.000000 0.000000 0.000000
0.000000 0.000000 0.000000
0.000000 0.000000 0.000000
