Ti97
1.0
9.513020 0.000000 0.000000
0.000000 9.350860 0.000000
0.000000 0.000000 18.547230
Ti
97
Selective dynamics
direct
0.146617 0.377489 0.404883 T T T Ti
0.658815 0.346434 0.415420 T T T Ti
0.146293 0.859147 0.414143 T T T Ti
0.661536 0.877493 0.407145 T T T Ti
0.149189 0.370526 0.240605 T T T Ti
0.659393 0.361753 0.232542 T T T Ti
0.163343 0.867220 0.233531 T T T Ti
0.671894 0.893594 0.237878 T T T Ti
0.166649 0.375063 0.077514 F F F Ti
0.666717 0.374958 0.077509 F F F Ti
0.166670 0.875042 0.077580 F F F Ti
0.666617 0.874935 0.077599 F F F Ti
0.406896 0.372522 0.324963 T T T Ti
0.896414 0.375319 0.323868 T T T Ti
0.356595 0.940275 0.331162 T T T Ti
0.914140 0.873687 0.319645 T T T Ti
0.416812 0.375098 0.155122 F F F Ti
0.916744 0.374876 0.155104 F F F Ti
0.416507 0.875052 0.155434 F F F Ti
0.916814 0.875024 0.155103 F F F Ti
0.416692 0.375032 -0.000075 F F F Ti
0.916645 0.374989 -0.000104 F F F Ti
0.416664 0.874982 -0.000001 F F F Ti
0.916662 0.874989 -0.000088 F F F Ti
0.103586 0.124681 0.323867 T T T Ti
0.593104 0.127479 0.324962 T T T Ti
0.085860 0.626314 0.319644 T T T Ti
0.643405 0.559725 0.331161 T T T Ti
0.083254 0.125139 0.155102 F F F Ti
0.583187 0.124915 0.155123 F F F Ti
0.083186 0.624990 0.155104 F F F Ti
0.583494 0.624948 0.155435 F F F Ti
0.083355 0.125014 -0.000105 F F F Ti
0.583308 0.124974 -0.000075 F F F Ti
0.083338 0.625013 -0.000088 F F F Ti
0.583337 0.625014 -0.000001 F F F Ti
0.341184 0.153566 0.415420 T T T Ti
0.853382 0.122511 0.404883 T T T Ti
0.338463 0.622507 0.407145 T T T Ti
0.853706 0.640853 0.414143 T T T Ti
0.340606 0.138248 0.232542 T T T Ti
0.850810 0.129477 0.240605 T T T Ti
0.328105 0.606408 0.237878 T T T Ti
0.836657 0.632783 0.233531 T T T Ti
0.333282 0.125052 0.077508 F F F Ti
0.833350 0.124947 0.077514 F F F Ti
0.333382 0.625072 0.077599 F F F Ti
0.833329 0.624964 0.077580 F F F Ti
0.375031 0.375045 0.823766 F F F Ti
0.874949 0.375007 0.823745 F F F Ti
0.375018 0.874988 0.823799 F F F Ti
0.874950 0.874984 0.823791 F F F Ti
0.125052 0.124987 0.823745 F F F Ti
0.624972 0.124951 0.823766 F F F Ti
0.125052 0.625009 0.823792 F F F Ti
0.624983 0.625002 0.823799 F F F Ti
0.124987 0.375010 0.910032 F F F Ti
0.625006 0.375000 0.910051 F F F Ti
0.125006 0.875003 0.910051 F F F Ti
0.624977 0.874980 0.910077 F F F Ti
0.374995 0.124995 0.910051 F F F Ti
0.875014 0.124986 0.910032 F F F Ti
0.375023 0.625010 0.910078 F F F Ti
0.874995 0.624991 0.910051 F F F Ti
0.396781 0.388624 0.652613 T T T Ti
0.900908 0.381004 0.653267 T T T Ti
0.397872 0.881168 0.652008 T T T Ti
0.891990 0.883193 0.655948 T T T Ti
0.099092 0.118994 0.653267 T T T Ti
0.603219 0.111374 0.652614 T T T Ti
0.108009 0.616805 0.655948 T T T Ti
0.602128 0.618830 0.652008 T T T Ti
0.153298 0.368772 0.572397 T T T Ti
0.652160 0.362737 0.578845 T T T Ti
0.148374 0.867690 0.577559 T T T Ti
0.652025 0.862057 0.567518 T T T Ti
0.347840 0.137263 0.578845 T T T Ti
0.846702 0.131228 0.572397 T T T Ti
0.347975 0.637943 0.567518 T T T Ti
0.851626 0.632309 0.577559 T T T Ti
0.403959 0.384941 0.494196 T T T Ti
0.901851 0.376990 0.490800 T T T Ti
0.394719 0.895482 0.493372 T T T Ti
0.908335 0.883179 0.494732 T T T Ti
0.098149 0.123010 0.490800 T T T Ti
0.596041 0.115059 0.494196 T T T Ti
0.091665 0.616821 0.494732 T T T Ti
0.605281 0.604518 0.493372 T T T Ti
0.124992 0.875081 0.737478 F F F Ti
0.624934 0.874946 0.737457 F F F Ti
0.375063 0.625044 0.737455 F F F Ti
0.875006 0.624909 0.737480 F F F Ti
0.124958 0.374969 0.737451 F F F Ti
0.625016 0.374977 0.737444 F F F Ti
0.374982 0.125017 0.737444 F F F Ti
0.875041 0.125025 0.737450 F F F Ti
0.500000 0.750000 0.318891 T T T Ti

0.000000 0.000000 0.000000
0.000000 0.000000 0.000000
0.000000 0.000000 0.000000
0.000000 0.000000 0.000000
0.000000 0.000000 0.000000
0.000000 0.000000 0.000000
0.000000 0.000000 0.000000
0.000000 0.000000 0.000000
0.000000 0.000000 0.000000
0.000000 0.000000 0.000000
0.000000 0.000000 0.000000
0.000000 0.000000 0.000000
0.000000 0.000000 0.000000
0.000000 0.000000 0.000000
0.000000 0.000000 0.000000
0.000000 0.000000 0.000000
0.000000 0.000000 0.000000
0.000000 0.000000 0.000000
0.000000 0.000000 0.000000
0.000000 0.000000 0.000000
0.000000 0.000000 0.000000
0.000000 0.000000 0.000000
0.000000 0.000000 0.000000
0.000000 0.000000 0.000000
0.000000 0.000000 0.000000
0.000000 0.000000 0.000000
0.000000 0.000000 0.000000
0.000000 0.000000 0.000000
0.000000 0.000000 0.000000
0.000000 0.000000 0.000000
0.000000 0.000000 0.000000
0.000000 0.000000 0.000000
0.000000 0.000000 0.000000
0.000000 0.000000 0.000000
0.000000 0.000000 0.000000
0.000000 0.000000 0.000000
0.000000 0.000000 0.000000
0.000000 0.000000 0.000000
0.000000 0.000000 0.000000
0.000000 0.000000 0.000000
0.000000 0.000000 0.000000
0.000000 0.000000 0.000000
0.000000 0.000000 0.000000
0.000000 0.000000 0.000000
0.000000 0.000000 0.000000
0.000000 0.000000 0.000000
0.000000 0.000000 0.000000
0.000000 0.000000 0.000000
0.000000 0.000000 0.000000
0.000000 0.000000 0.000000
0.000000 0.000000 0.000000
0.000000 0.000000 0.000000
0.000000 0.000000 0.000000
0.000000 0.000000 0.000000
0.000000 0.000000 0.000000
0.000000 0.000000 0.000000
0.000000 0.000000 0.000000
0.000000 0.000000 0.000000
0.000000 0.000000 0.000000
0.000000 0.000000 0.000000
0.000000 0.000000 0.000000
0.000000 0.000000 0.000000
0.000000 0.000000 0.000000
0.000000 0.000000 0.000000
0.000000 0.000000 0.000000
0.000000 0.000000 0.000000
0.000000 0.000000 0.000000
0.000000 0.000000 0.000000
0.000000 0.000000 0.000000
0.000000 0.000000 0.000000
0.000000 0.000000 0.000000
0.000000 0.000000 0.000000
0.000000 0.000000 0.000000
0.000000 0.000000 0.000000
0.000000 0.000000 0.000000
0.000000 0.000000 0.000000
0.000000 0.000000 0.000000
0.000000 0.000000 0.000000
0.000000 0.000000 0.000000
0.000000 0.000000 0.000000
0.000000 0.000000 0.000000
0.000000 0.000000 0.000000
0.000000 0.000000 0.000000
0.000000 0.000000 0.000000
0.000000 0.000000 0.000000
0.000000 0.000000 0.000000
0.000000 0.000000 0.000000
0.000000 0.000000 0.000000
0.000000 0.000000 0.000000
0.000000 0.000000 0.000000
0.000000 0.000000 0.000000
0.000000 0.000000 0.000000
0.000000 0.000000 0.000000
0.000000 0.000000 0.000000
0.000000 0.000000 0.000000
0.000000 0.000000 0.000000
0.000000 0.000000 0.000000
