total_structure
1.0
   3.5061499999999999    0.0000000000000000    0.0000000000000002
   0.0000000000000019   12.0001999999999995    0.0000000000000007
   0.0000000000000000    0.0000000000000000   26.4116049620000020
Cr Fe N
16 36 16
Selective dynamics
direct
   0.0000000000000000    0.0000000000000000    0.2380135864914122 F F F Cr
  -0.0000000000000000    0.2500000000000000    0.2380135864914122 F F F Cr
   0.5000000000000000    0.1250000000000000    0.1586723306300222 F F F Cr
   0.5000000000000000    0.3750000000000000    0.1586723306300222 F F F Cr
   0.0000000000000000    0.0000000000000000    0.0793412558613900 F F F Cr
  -0.0000000000000000    0.2500000000000000    0.0793412558613900 F F F Cr
   0.5000000000000000    0.1250000000000000   -0.0000000000000000 F F F Cr
   0.5000000000000000    0.3750000000000000   -0.0000000000000000 F F F Cr
  -0.0000000000000000    0.5000000000000000    0.2380135864914122 F F F Cr
  -0.0000000000000000    0.7500000000000000    0.2380135864914122 F F F Cr
   0.5000000000000000    0.6250000000000000    0.1586723306300222 F F F Cr
   0.4999999999999999    0.8749999999999999    0.1586723306300222 F F F Cr
  -0.0000000000000000    0.5000000000000000    0.0793412558613900 F F F Cr
  -0.0000000000000000    0.7500000000000000    0.0793412558613900 F F F Cr
   0.5000000000000000    0.6250000000000000   -0.0000000000000000 F F F Cr
   0.4999999999999999    0.8749999999999999   -0.0000000000000000 F F F Cr
   0.9933200000000000    0.7184400000000000    0.6213753414308695 F F F Fe
   0.4933200000000000    0.5543100000000000    0.6082315506805739 F F F Fe
   0.4933200000000000    0.7391600000000000    0.5679958721018219 F F F Fe
   0.9933200000000000    0.5750200000000000    0.5548520813515263 F F F Fe
   0.9933200000000001    0.3901700000000000    0.5950775788375203 F F F Fe
   0.4933200000000000    0.2260400000000000    0.5819337880872245 F F F Fe
   0.4933200000000000    0.4108899999999999    0.5416981095084727 F F F Fe
   0.9933200000000001    0.2467500000000000    0.5285543187581770 F F F Fe
   0.9933200000000000    0.0619000000000000    0.5687798162441711 F F F Fe
   0.4933200000000000    0.8977699999999998    0.5556360254938755 F F F Fe
   0.4933200000000000    0.0826200000000000    0.5154003469151235 F F F Fe
   0.9933200000000000    0.9184800000000000    0.5022565561648278 F F F Fe
   0.9933200000000000    0.7598700000000000    0.5146265838655321 F F F Fe
   0.4933200000000000    0.5957300000000000    0.5014726120224787 F F F Fe
   0.4933200000000000    0.7805800000000001    0.4612471145364846 F F F Fe
   0.9933200000000001    0.6164500000000001    0.4480931426934310 F F F Fe
   0.9933200000000001    0.4315999999999999    0.4883288212721829 F F F Fe
   0.4933200000000000    0.2674600000000000    0.4751748494291294 F F F Fe
   0.4933200000000000    0.4523100000000000    0.4349493519431354 F F F Fe
   0.9933200000000001    0.2881800000000000    0.4217953801000818 F F F Fe
   0.9933199999999999    0.1033300000000000    0.4620310586788338 F F F Fe
   0.4933200000000000    0.9391999999999999    0.4488770868357801 F F F Fe
   0.4933200000000000    0.1240400000000000    0.4086515893497862 F F F Fe
   0.9933200000000000    0.9599100000000000    0.3954976175067326 F F F Fe
   0.9933200000000000    0.8013000000000000    0.4078676452074370 F F F Fe
   0.4933200000000000    0.6371599999999998    0.3947238544571413 F F F Fe
   0.4933200000000000    0.8220099999999999    0.3544881758783894 F F F Fe
   0.9933200000000001    0.6578799999999999    0.3413443851280937 F F F Fe
   0.9933200000000001    0.4730300000000000    0.3815698826140878 F F F Fe
   0.4933200000000000    0.3088900000000000    0.3684260918637920 F F F Fe
   0.4933200000000000    0.4937400000000000    0.3281904132850402 F F F Fe
   0.9933200000000000    0.3296100000000000    0.3150466225347445 F F F Fe
   0.9933200000000001    0.1447600000000000    0.3552721200207386 F F F Fe
   0.4933200000000000    0.9806200000000000    0.3421283292704427 F F F Fe
   0.4933200000000000    0.1654700000000000    0.3018926506916910 F F F Fe
   0.9933200000000000    0.0013400000000000    0.2887488599413953 F F F Fe
   0.5000000000000000    0.1250000000000000    0.2380135864914122 F F F N
   0.5000000000000000    0.3750000000000000    0.2380135864914122 F F F N
   0.0000000000000000    0.0000000000000000    0.1586723306300222 F F F N
  -0.0000000000000000    0.2500000000000000    0.1586723306300222 F F F N
   0.5000000000000000    0.1250000000000000    0.0793412558613900 F F F N
   0.5000000000000000    0.3750000000000000    0.0793412558613900 F F F N
   0.0000000000000000    0.0000000000000000    0.0000000000000000 F F F N
  -0.0000000000000000    0.2500000000000000   -0.0000000000000000 F F F N
   0.5000000000000000    0.6250000000000000    0.2380135864914122 F F F N
   0.4999999999999999    0.8749999999999999    0.2380135864914122 F F F N
  -0.0000000000000000    0.5000000000000000    0.1586723306300222 F F F N
  -0.0000000000000000    0.7500000000000000    0.1586723306300222 F F F N
   0.5000000000000000    0.6250000000000000    0.0793412558613900 F F F N
   0.4999999999999999    0.8749999999999999    0.0793412558613900 F F F N
  -0.0000000000000000    0.5000000000000000   -0.0000000000000000 F F F N
  -0.0000000000000000    0.7500000000000000   -0.0000000000000000 F F F N
