Ti97
1.0
9.513020 0.000000 0.000000
0.000000 9.350860 0.000000
0.000000 0.000000 18.547230
Ti
97
Selective dynamics
direct
0.147194 0.376863 0.406032 T T T Ti
0.652273 0.337992 0.412399 T T T Ti
0.132041 0.857149 0.405165 T T T Ti
0.682155 0.882494 0.399733 T T T Ti
0.153179 0.368808 0.237573 T T T Ti
0.659126 0.367283 0.233609 T T T Ti
0.163502 0.869066 0.234176 T T T Ti
0.665131 0.887649 0.235959 T T T Ti
0.166677 0.375070 0.077410 F F F Ti
0.666707 0.374986 0.077378 F F F Ti
0.166826 0.875005 0.077501 F F F Ti
0.666572 0.874964 0.077596 F F F Ti
0.406075 0.375546 0.320793 T T T Ti
0.896188 0.372534 0.323470 T T T Ti
0.369622 0.928413 0.331195 T T T Ti
0.915088 0.880143 0.313217 T T T Ti
0.416723 0.375118 0.154918 F F F Ti
0.916760 0.374785 0.154856 F F F Ti
0.416640 0.874866 0.155404 F F F Ti
0.916691 0.875173 0.154843 F F F Ti
0.416664 0.375052 -0.000122 F F F Ti
0.916634 0.374991 -0.000184 F F F Ti
0.416681 0.874955 0.000014 F F F Ti
0.916648 0.874987 -0.000148 F F F Ti
0.103813 0.127469 0.323468 T T T Ti
0.593924 0.124456 0.320792 T T T Ti
0.084912 0.619860 0.313216 T T T Ti
0.630378 0.571589 0.331194 T T T Ti
0.083240 0.125250 0.154853 F F F Ti
0.583277 0.124915 0.154920 F F F Ti
0.083309 0.624862 0.154845 F F F Ti
0.583362 0.625144 0.155402 F F F Ti
0.083367 0.125019 -0.000184 F F F Ti
0.583336 0.124963 -0.000120 F F F Ti
0.083352 0.625022 -0.000147 F F F Ti
0.583321 0.625044 0.000012 F F F Ti
0.347725 0.162008 0.412399 T T T Ti
0.852805 0.123137 0.406032 T T T Ti
0.317844 0.617508 0.399733 T T T Ti
0.867958 0.642852 0.405165 T T T Ti
0.340874 0.132723 0.233608 T T T Ti
0.846820 0.131199 0.237573 T T T Ti
0.334868 0.612357 0.235960 T T T Ti
0.836497 0.630942 0.234176 T T T Ti
0.333293 0.125040 0.077379 F F F Ti
0.833322 0.124955 0.077411 F F F Ti
0.333427 0.625055 0.077595 F F F Ti
0.833173 0.625018 0.077500 F F F Ti
0.375045 0.375117 0.823833 F F F Ti
0.874926 0.374994 0.823869 F F F Ti
0.375088 0.874914 0.823748 F F F Ti
0.874929 0.874943 0.823795 F F F Ti
0.125073 0.124983 0.823870 F F F Ti
0.624958 0.124869 0.823835 F F F Ti
0.125074 0.625039 0.823796 F F F Ti
0.624917 0.625069 0.823747 F F F Ti
0.125085 0.375122 0.910134 F F F Ti
0.624967 0.375130 0.910182 F F F Ti
0.125147 0.874911 0.910187 F F F Ti
0.624940 0.874882 0.910266 F F F Ti
0.375039 0.124851 0.910185 F F F Ti
0.874920 0.124865 0.910135 F F F Ti
0.375063 0.625088 0.910265 F F F Ti
0.874857 0.625065 0.910186 F F F Ti
0.395441 0.385122 0.656554 T T T Ti
0.895769 0.376099 0.650889 T T T Ti
0.397193 0.888254 0.646990 T T T Ti
0.888298 0.884074 0.662408 T T T Ti
0.104230 0.123896 0.650889 T T T Ti
0.604557 0.114872 0.656554 T T T Ti
0.111700 0.615920 0.662408 T T T Ti
0.602807 0.611742 0.646991 T T T Ti
0.152474 0.371780 0.571101 T T T Ti
0.645074 0.349876 0.573946 T T T Ti
0.136648 0.864254 0.582094 T T T Ti
0.655643 0.866237 0.575167 T T T Ti
0.354926 0.150122 0.573946 T T T Ti
0.847526 0.128218 0.571101 T T T Ti
0.344357 0.633761 0.575167 T T T Ti
0.863352 0.635744 0.582094 T T T Ti
0.408077 0.402664 0.490673 T T T Ti
0.902289 0.375171 0.489433 T T T Ti
0.358001 0.908643 0.490950 T T T Ti
0.906823 0.882445 0.494113 T T T Ti
0.097711 0.124828 0.489433 T T T Ti
0.591923 0.097335 0.490673 T T T Ti
0.093177 0.617555 0.494113 T T T Ti
0.641999 0.591356 0.490950 T T T Ti
0.125059 0.875017 0.737686 F F F Ti
0.624961 0.874914 0.737514 F F F Ti
0.375036 0.625069 0.737511 F F F Ti
0.874933 0.624956 0.737687 F F F Ti
0.124949 0.374972 0.737677 F F F Ti
0.624977 0.374953 0.737689 F F F Ti
0.375013 0.125021 0.737689 F F F Ti
0.875045 0.125005 0.737678 F F F Ti
0.500000 0.750000 0.386505 T T T Ti

0.000000 0.000000 0.000000
0.000000 0.000000 0.000000
0.000000 0.000000 0.000000
0.000000 0.000000 0.000000
0.000000 0.000000 0.000000
0.000000 0.000000 0.000000
0.000000 0.000000 0.000000
0.000000 0.000000 0.000000
0.000000 0.000000 0.000000
0.000000 0.000000 0.000000
0.000000 0.000000 0.000000
0.000000 0.000000 0.000000
0.000000 0.000000 0.000000
0.000000 0.000000 0.000000
0.000000 0.000000 0.000000
0.000000 0.000000 0.000000
0.000000 0.000000 0.000000
0.000000 0.000000 0.000000
0.000000 0.000000 0.000000
0.000000 0.000000 0.000000
0.000000 0.000000 0.000000
0.000000 0.000000 0.000000
0.000000 0.000000 0.000000
0.000000 0.000000 0.000000
0.000000 0.000000 0.000000
0.000000 0.000000 0.000000
0.000000 0.000000 0.000000
0.000000 0.000000 0.000000
0.000000 0.000000 0.000000
0.000000 0.000000 0.000000
0.000000 0.000000 0.000000
0.000000 0.000000 0.000000
0.000000 0.000000 0.000000
0.000000 0.000000 0.000000
0.000000 0.000000 0.000000
0.000000 0.000000 0.000000
0.000000 0.000000 0.000000
0.000000 0.000000 0.000000
0.000000 0.000000 0.000000
0.000000 0.000000 0.000000
0.000000 0.000000 0.000000
0.000000 0.000000 0.000000
0.000000 0.000000 0.000000
0.000000 0.000000 0.000000
0.000000 0.000000 0.000000
0.000000 0.000000 0.000000
0.000000 0.000000 0.000000
0.000000 0.000000 0.000000
0.000000 0.000000 0.000000
0.000000 0.000000 0.000000
0.000000 0.000000 0.000000
0.000000 0.000000 0.000000
0.000000 0.000000 0.000000
0.000000 0.000000 0.000000
0.000000 0.000000 0.000000
0.000000 0.000000 0.000000
0.000000 0.000000 0.000000
0.000000 0.000000 0.000000
0.000000 0.000000 0.000000
0.000000 0.000000 0.000000
0.000000 0.000000 0.000000
0.000000 0.000000 0.000000
0.000000 0.000000 0.000000
0.000000 0.000000 0.000000
0.000000 0.000000 0.000000
0.000000 0.000000 0.000000
0.000000 0.000000 0.000000
0.000000 0.000000 0.000000
0.000000 0.000000 0.000000
0.000000 0.000000 0.000000
0.000000 0.000000 0.000000
0.000000 0.000000 0.000000
0.000000 0.000000 0.000000
0.000000 0.000000 0.000000
0.000000 0.000000 0.000000
0.000000 0.000000 0.000000
0.000000 0.000000 0.000000
0.000000 0.000000 0.000000
0.000000 0.000000 0.000000
0.000000 0.000000 0.000000
0.000000 0.000000 0.000000
0.000000 0.000000 0.000000
0.000000 0.000000 0.000000
0.000000 0.000000 0.000000
0.000000 0.000000 0.000000
0.000000 0.000000 0.000000
0.000000 0.000000 0.000000
0.000000 0.000000 0.000000
0.000000 0.000000 0.000000
0.000000 0.000000 0.000000
0.000000 0.000000 0.000000
0.000000 0.000000 0.000000
0.000000 0.000000 0.000000
0.000000 0.000000 0.000000
0.000000 0.000000 0.000000
0.000000 0.000000 0.000000
0.000000 0.000000 0.000000
