total_structure
1.0
   3.5061499999999999    0.0000000000000000    0.0000000000000002
   0.0000000000000019   12.0001999999999995    0.0000000000000007
   0.0000000000000000    0.0000000000000000   26.2316049620000022
Cr Fe N
16 36 16
Selective dynamics
direct
   0.0000000000000000    0.0000000000000000    0.2396468241690349 F F F Cr
  -0.0000000000000000    0.2500000000000000    0.2396468241690349 F F F Cr
   0.5000000000000000    0.1250000000000000    0.1597611324610493 F F F Cr
   0.5000000000000000    0.3750000000000000    0.1597611324610493 F F F Cr
   0.0000000000000000    0.0000000000000000    0.0798856917079857 F F F Cr
  -0.0000000000000000    0.2500000000000000    0.0798856917079857 F F F Cr
   0.5000000000000000    0.1250000000000000   -0.0000000000000000 F F F Cr
   0.5000000000000000    0.3750000000000000   -0.0000000000000000 F F F Cr
  -0.0000000000000000    0.5000000000000000    0.2396468241690349 F F F Cr
  -0.0000000000000000    0.7500000000000000    0.2396468241690349 F F F Cr
   0.5000000000000000    0.6250000000000000    0.1597611324610493 F F F Cr
   0.4999999999999999    0.8749999999999999    0.1597611324610493 F F F Cr
  -0.0000000000000000    0.5000000000000000    0.0798856917079857 F F F Cr
  -0.0000000000000000    0.7500000000000000    0.0798856917079857 F F F Cr
   0.5000000000000000    0.6250000000000000   -0.0000000000000000 F F F Cr
   0.4999999999999999    0.8749999999999999   -0.0000000000000000 F F F Cr
   0.9933200000000000    0.7184400000000000    0.6187772374017347 F F F Fe
   0.4933200000000000    0.5543100000000000    0.6055432545972936 F F F Fe
   0.4933200000000000    0.7391600000000000    0.5650314807451238 F F F Fe
   0.9933200000000000    0.5750200000000000    0.5517974979406828 F F F Fe
   0.9933200000000001    0.3901700000000000    0.5922990208379305 F F F Fe
   0.4933200000000000    0.2260400000000000    0.5790650380334893 F F F Fe
   0.4933200000000000    0.4108899999999999    0.5385532641813194 F F F Fe
   0.9933200000000001    0.2467500000000000    0.5253192813768784 F F F Fe
   0.9933200000000000    0.0619000000000000    0.5658208042741262 F F F Fe
   0.4933200000000000    0.8977699999999998    0.5525868214696851 F F F Fe
   0.4933200000000000    0.0826200000000000    0.5120750476175152 F F F Fe
   0.9933200000000000    0.9184800000000000    0.4988410648130740 F F F Fe
   0.9933200000000000    0.7598700000000000    0.5112959750434349 F F F Fe
   0.4933200000000000    0.5957300000000000    0.4980517412840718 F F F Fe
   0.4933200000000000    0.7805800000000001    0.4575502183868241 F F F Fe
   0.9933200000000001    0.6164500000000001    0.4443059846274608 F F F Fe
   0.9933200000000001    0.4315999999999999    0.4848177584796307 F F F Fe
   0.4933200000000000    0.2674600000000000    0.4715735247202675 F F F Fe
   0.4933200000000000    0.4523100000000000    0.4310720018230198 F F F Fe
   0.9933200000000001    0.2881800000000000    0.4178277680636565 F F F Fe
   0.9933199999999999    0.1033300000000000    0.4583395419158264 F F F Fe
   0.4933200000000000    0.9391999999999999    0.4450953081564631 F F F Fe
   0.4933200000000000    0.1240400000000000    0.4045937852592155 F F F Fe
   0.9933200000000000    0.9599100000000000    0.3913495514998522 F F F Fe
   0.9933200000000000    0.8013000000000000    0.4038044617302131 F F F Fe
   0.4933200000000000    0.6371599999999998    0.3905704789257721 F F F Fe
   0.4933200000000000    0.8220099999999999    0.3500587050736022 F F F Fe
   0.9933200000000001    0.6578799999999999    0.3368247222691611 F F F Fe
   0.9933200000000001    0.4730300000000000    0.3773262451664088 F F F Fe
   0.4933200000000000    0.3088900000000000    0.3640922623619677 F F F Fe
   0.4933200000000000    0.4937400000000000    0.3235804885097979 F F F Fe
   0.9933200000000000    0.3296100000000000    0.3103465057053568 F F F Fe
   0.9933200000000001    0.1447600000000000    0.3508480286026045 F F F Fe
   0.4933200000000000    0.9806200000000000    0.3376140457981633 F F F Fe
   0.4933200000000000    0.1654700000000000    0.2971022719459936 F F F Fe
   0.9933200000000000    0.0013400000000000    0.2838682891415525 F F F Fe
   0.5000000000000000    0.1250000000000000    0.2396468241690349 F F F N
   0.5000000000000000    0.3750000000000000    0.2396468241690349 F F F N
   0.0000000000000000    0.0000000000000000    0.1597611324610493 F F F N
  -0.0000000000000000    0.2500000000000000    0.1597611324610493 F F F N
   0.5000000000000000    0.1250000000000000    0.0798856917079857 F F F N
   0.5000000000000000    0.3750000000000000    0.0798856917079857 F F F N
   0.0000000000000000    0.0000000000000000    0.0000000000000000 F F F N
  -0.0000000000000000    0.2500000000000000   -0.0000000000000000 F F F N
   0.5000000000000000    0.6250000000000000    0.2396468241690349 F F F N
   0.4999999999999999    0.8749999999999999    0.2396468241690349 F F F N
  -0.0000000000000000    0.5000000000000000    0.1597611324610493 F F F N
  -0.0000000000000000    0.7500000000000000    0.1597611324610493 F F F N
   0.5000000000000000    0.6250000000000000    0.0798856917079857 F F F N
   0.4999999999999999    0.8749999999999999    0.0798856917079857 F F F N
  -0.0000000000000000    0.5000000000000000   -0.0000000000000000 F F F N
  -0.0000000000000000    0.7500000000000000   -0.0000000000000000 F F F N
