Ti66 Mo1
1.0
6.309760 0.000000 0.000000
0.000000 9.464640 0.000000
0.000000 0.000000 18.918326
Ti Mo
66 1
Selective dynamics
direct
0.122439 0.040363 0.497798 F F F Ti
0.625200 0.041275 0.499658 F F F Ti
0.630849 0.040933 0.658996 F F F Ti
0.125423 0.041904 0.817269 F F F Ti
0.625964 0.041517 0.817468 F F F Ti
0.124667 0.375274 0.499846 F F F Ti
0.623861 0.375466 0.499758 F F F Ti
0.123870 0.377999 0.658978 F F F Ti
0.625209 0.375720 0.658756 F F F Ti
0.124957 0.375519 0.817452 F F F Ti
0.625918 0.375805 0.817619 F F F Ti
0.124851 0.707748 0.499711 F F F Ti
0.625805 0.707536 0.499573 F F F Ti
0.125349 0.708487 0.658523 F F F Ti
0.625843 0.707999 0.658696 F F F Ti
0.125148 0.708540 0.817239 F F F Ti
0.625411 0.708501 0.817340 F F F Ti
0.868248 0.210816 0.578179 F F F Ti
0.379418 0.210714 0.739662 F F F Ti
0.874418 0.209377 0.738284 F F F Ti
0.375216 0.208509 0.896697 F F F Ti
0.875142 0.208439 0.896573 F F F Ti
0.375136 0.541585 0.579258 F F F Ti
0.874622 0.542119 0.579176 F F F Ti
0.375375 0.542272 0.738072 F F F Ti
0.874808 0.542260 0.738095 F F F Ti
0.375053 0.541929 0.896582 F F F Ti
0.875131 0.541928 0.896598 F F F Ti
0.379185 0.871345 0.578229 F F F Ti
0.874580 0.874249 0.578864 F F F Ti
0.376542 0.874575 0.738127 F F F Ti
0.876212 0.875077 0.737893 F F F Ti
0.375103 0.875054 0.896534 F F F Ti
0.875278 0.875052 0.896506 F F F Ti
0.124972 0.624969 0.356707 F F F Ti
0.624797 0.624908 0.356646 F F F Ti
0.124996 0.625047 0.118904 F F F Ti
0.624967 0.625040 0.118911 F F F Ti
0.124982 0.125113 0.356403 F F F Ti
0.624819 0.125021 0.356642 F F F Ti
0.124982 0.125011 0.118893 F F F Ti
0.624968 0.125013 0.118901 F F F Ti
0.124975 0.375055 0.039682 F F F Ti
0.625022 0.375065 0.039700 F F F Ti
0.124987 0.875023 0.039651 F F F Ti
0.625029 0.875009 0.039663 F F F Ti
0.124957 0.375063 0.277414 F F F Ti
0.624900 0.375007 0.277420 F F F Ti
0.124970 0.874936 0.277360 F F F Ti
0.624922 0.874971 0.277349 F F F Ti
0.375004 0.874990 0.158526 F F F Ti
0.874965 0.874991 0.158524 F F F Ti
0.375003 0.375026 0.158552 F F F Ti
0.875007 0.375031 0.158549 F F F Ti
0.374803 0.374918 0.396324 F F F Ti
0.874746 0.375102 0.396267 F F F Ti
0.375316 0.874692 0.396132 F F F Ti
0.874459 0.874594 0.396069 F F F Ti
0.374966 0.624990 0.237808 F F F Ti
0.874971 0.624986 0.237806 F F F Ti
0.374995 0.625116 0.000068 F F F Ti
0.875014 0.625117 0.000069 F F F Ti
0.375050 0.125011 0.237764 F F F Ti
0.874881 0.125018 0.237755 F F F Ti
0.375023 0.124973 0.000106 F F F Ti
0.874989 0.125003 0.000057 F F F Ti
0.193661 0.090973 0.632485 T T T Mo

0.000000 0.000000 0.000000
0.000000 0.000000 0.000000
0.000000 0.000000 0.000000
0.000000 0.000000 0.000000
0.000000 0.000000 0.000000
0.000000 0.000000 0.000000
0.000000 0.000000 0.000000
0.000000 0.000000 0.000000
0.000000 0.000000 0.000000
0.000000 0.000000 0.000000
0.000000 0.000000 0.000000
0.000000 0.000000 0.000000
0.000000 0.000000 0.000000
0.000000 0.000000 0.000000
0.000000 0.000000 0.000000
0.000000 0.000000 0.000000
0.000000 0.000000 0.000000
0.000000 0.000000 0.000000
0.000000 0.000000 0.000000
0.000000 0.000000 0.000000
0.000000 0.000000 0.000000
0.000000 0.000000 0.000000
0.000000 0.000000 0.000000
0.000000 0.000000 0.000000
0.000000 0.000000 0.000000
0.000000 0.000000 0.000000
0.000000 0.000000 0.000000
0.000000 0.000000 0.000000
0.000000 0.000000 0.000000
0.000000 0.000000 0.000000
0.000000 0.000000 0.000000
0.000000 0.000000 0.000000
0.000000 0.000000 0.000000
0.000000 0.000000 0.000000
0.000000 0.000000 0.000000
0.000000 0.000000 0.000000
0.000000 0.000000 0.000000
0.000000 0.000000 0.000000
0.000000 0.000000 0.000000
0.000000 0.000000 0.000000
0.000000 0.000000 0.000000
0.000000 0.000000 0.000000
0.000000 0.000000 0.000000
0.000000 0.000000 0.000000
0.000000 0.000000 0.000000
0.000000 0.000000 0.000000
0.000000 0.000000 0.000000
0.000000 0.000000 0.000000
0.000000 0.000000 0.000000
0.000000 0.000000 0.000000
0.000000 0.000000 0.000000
0.000000 0.000000 0.000000
0.000000 0.000000 0.000000
0.000000 0.000000 0.000000
0.000000 0.000000 0.000000
0.000000 0.000000 0.000000
0.000000 0.000000 0.000000
0.000000 0.000000 0.000000
0.000000 0.000000 0.000000
0.000000 0.000000 0.000000
0.000000 0.000000 0.000000
0.000000 0.000000 0.000000
0.000000 0.000000 0.000000
0.000000 0.000000 0.000000
0.000000 0.000000 0.000000
0.000000 0.000000 0.000000
0.000000 0.000000 0.000000
