Ti66 Mo1
1.0
6.309760 0.000000 0.000000
0.000000 9.464640 0.000000
0.000000 0.000000 18.918326
Ti Mo
66 1
Selective dynamics
direct
0.124588 0.041286 0.500361 F F F Ti
0.624922 0.041666 0.500074 F F F Ti
0.124932 0.041638 0.658683 F F F Ti
0.624892 0.041659 0.658644 F F F Ti
0.125016 0.041689 0.817133 F F F Ti
0.624969 0.041691 0.817132 F F F Ti
0.122028 0.374929 0.500981 F F F Ti
0.623896 0.374995 0.500008 F F F Ti
0.124834 0.375008 0.658714 F F F Ti
0.624757 0.375013 0.658612 F F F Ti
0.125016 0.375011 0.817116 F F F Ti
0.624932 0.375009 0.817112 F F F Ti
0.124632 0.708738 0.500318 F F F Ti
0.624813 0.708409 0.500042 F F F Ti
0.124934 0.708373 0.658673 F F F Ti
0.624836 0.708366 0.658640 F F F Ti
0.125012 0.708319 0.817132 F F F Ti
0.624947 0.708320 0.817132 F F F Ti
0.374802 0.208276 0.579355 F F F Ti
0.874326 0.208172 0.579464 F F F Ti
0.374996 0.208327 0.737880 F F F Ti
0.874894 0.208328 0.737904 F F F Ti
0.375022 0.208349 0.896396 F F F Ti
0.875010 0.208352 0.896391 F F F Ti
0.374787 0.541733 0.579333 F F F Ti
0.874343 0.541841 0.579442 F F F Ti
0.374991 0.541676 0.737876 F F F Ti
0.874893 0.541678 0.737900 F F F Ti
0.375019 0.541656 0.896398 F F F Ti
0.875004 0.541654 0.896393 F F F Ti
0.375089 0.875035 0.579387 F F F Ti
0.874668 0.874993 0.579456 F F F Ti
0.375004 0.875007 0.737899 F F F Ti
0.874927 0.874997 0.737915 F F F Ti
0.375016 0.875005 0.896396 F F F Ti
0.874997 0.875003 0.896393 F F F Ti
0.120092 0.630160 0.356934 F F F Ti
0.626704 0.626213 0.356486 F F F Ti
0.125368 0.625133 0.118767 F F F Ti
0.625335 0.625072 0.118714 F F F Ti
0.119833 0.119692 0.357011 F F F Ti
0.627223 0.123708 0.356499 F F F Ti
0.125348 0.124907 0.118749 F F F Ti
0.625415 0.124952 0.118692 F F F Ti
0.125405 0.375009 0.039490 F F F Ti
0.625216 0.375010 0.039509 F F F Ti
0.125018 0.875031 0.039504 F F F Ti
0.625054 0.875021 0.039483 F F F Ti
0.635272 0.374964 0.275659 F F F Ti
0.124915 0.875246 0.277153 F F F Ti
0.624872 0.875144 0.277268 F F F Ti
0.375177 0.875069 0.158315 F F F Ti
0.874938 0.874960 0.158339 F F F Ti
0.375592 0.375007 0.158454 F F F Ti
0.876970 0.375012 0.158132 F F F Ti
0.872083 0.375045 0.396740 F F F Ti
0.375458 0.875419 0.396519 F F F Ti
0.873731 0.875029 0.396669 F F F Ti
0.375736 0.625951 0.237521 F F F Ti
0.875762 0.625440 0.237535 F F F Ti
0.375074 0.625018 -0.000082 F F F Ti
0.875127 0.625020 -0.000094 F F F Ti
0.375722 0.124097 0.237508 F F F Ti
0.875770 0.124591 0.237527 F F F Ti
0.375080 0.125001 -0.000083 F F F Ti
0.875132 0.124991 -0.000096 F F F Ti
0.317711 0.373884 0.356624 T T T Mo

0.000000 0.000000 0.000000
0.000000 0.000000 0.000000
0.000000 0.000000 0.000000
0.000000 0.000000 0.000000
0.000000 0.000000 0.000000
0.000000 0.000000 0.000000
0.000000 0.000000 0.000000
0.000000 0.000000 0.000000
0.000000 0.000000 0.000000
0.000000 0.000000 0.000000
0.000000 0.000000 0.000000
0.000000 0.000000 0.000000
0.000000 0.000000 0.000000
0.000000 0.000000 0.000000
0.000000 0.000000 0.000000
0.000000 0.000000 0.000000
0.000000 0.000000 0.000000
0.000000 0.000000 0.000000
0.000000 0.000000 0.000000
0.000000 0.000000 0.000000
0.000000 0.000000 0.000000
0.000000 0.000000 0.000000
0.000000 0.000000 0.000000
0.000000 0.000000 0.000000
0.000000 0.000000 0.000000
0.000000 0.000000 0.000000
0.000000 0.000000 0.000000
0.000000 0.000000 0.000000
0.000000 0.000000 0.000000
0.000000 0.000000 0.000000
0.000000 0.000000 0.000000
0.000000 0.000000 0.000000
0.000000 0.000000 0.000000
0.000000 0.000000 0.000000
0.000000 0.000000 0.000000
0.000000 0.000000 0.000000
0.000000 0.000000 0.000000
0.000000 0.000000 0.000000
0.000000 0.000000 0.000000
0.000000 0.000000 0.000000
0.000000 0.000000 0.000000
0.000000 0.000000 0.000000
0.000000 0.000000 0.000000
0.000000 0.000000 0.000000
0.000000 0.000000 0.000000
0.000000 0.000000 0.000000
0.000000 0.000000 0.000000
0.000000 0.000000 0.000000
0.000000 0.000000 0.000000
0.000000 0.000000 0.000000
0.000000 0.000000 0.000000
0.000000 0.000000 0.000000
0.000000 0.000000 0.000000
0.000000 0.000000 0.000000
0.000000 0.000000 0.000000
0.000000 0.000000 0.000000
0.000000 0.000000 0.000000
0.000000 0.000000 0.000000
0.000000 0.000000 0.000000
0.000000 0.000000 0.000000
0.000000 0.000000 0.000000
0.000000 0.000000 0.000000
0.000000 0.000000 0.000000
0.000000 0.000000 0.000000
0.000000 0.000000 0.000000
0.000000 0.000000 0.000000
0.000000 0.000000 0.000000
