alpha_Ti
1.0
5.745590 0.000000 0.000000
0.000000 9.072750 0.000000
0.000000 0.000000 37.625032
Ti
32
direct
0.041667 0.875000 0.248055 Ti
0.041667 0.375000 0.248055 Ti
0.541667 0.875000 0.248055 Ti
0.541667 0.375000 0.248055 Ti
0.291667 0.875000 0.180403 Ti
0.291667 0.375000 0.180403 Ti
0.791667 0.875000 0.180403 Ti
0.791667 0.375000 0.180403 Ti
0.041667 0.625000 0.202954 Ti
0.041667 0.125000 0.202954 Ti
0.541667 0.625000 0.202954 Ti
0.541667 0.125000 0.202954 Ti
0.041667 0.875000 0.112752 Ti
0.041667 0.375000 0.112752 Ti
0.541667 0.875000 0.112752 Ti
0.541667 0.375000 0.112752 Ti
0.291667 0.625000 0.135303 Ti
0.291667 0.125000 0.135303 Ti
0.791667 0.625000 0.135303 Ti
0.791667 0.125000 0.135303 Ti
0.291667 0.875000 0.045100 Ti
0.291667 0.375000 0.045100 Ti
0.791667 0.875000 0.045100 Ti
0.791667 0.375000 0.045100 Ti
0.041667 0.625000 0.067652 Ti
0.041667 0.125000 0.067652 Ti
0.541667 0.625000 0.067652 Ti
0.541667 0.125000 0.067652 Ti
0.791667 0.125000 0.000000 Ti
0.291667 0.125000 0.000000 Ti
0.791667 0.625000 -0.000000 Ti
0.291667 0.625000 -0.000000 Ti
