beta_Ti
1.0
5.745590 0.000000 0.000000
0.000000 9.072750 0.000000
0.000000 0.000000 37.625032
Ti
32
direct
0.291667 0.625000 0.500546 Ti
0.291667 0.125000 0.500546 Ti
0.791667 0.625000 0.500546 Ti
0.791667 0.125000 0.500546 Ti
0.458333 0.625000 0.571107 Ti
0.458333 0.125000 0.571107 Ti
0.958333 0.625000 0.571107 Ti
0.958333 0.125000 0.571107 Ti
0.125000 0.625000 0.641667 Ti
0.125000 0.125000 0.641667 Ti
0.625000 0.625000 0.641667 Ti
0.625000 0.125000 0.641667 Ti
0.291667 0.625000 0.712227 Ti
0.291667 0.125000 0.712227 Ti
0.791667 0.625000 0.712227 Ti
0.791667 0.125000 0.712227 Ti
0.125000 0.875000 0.535826 Ti
0.125000 0.375000 0.535826 Ti
0.625000 0.875000 0.535826 Ti
0.625000 0.375000 0.535826 Ti
0.291667 0.875000 0.606387 Ti
0.291667 0.375000 0.606387 Ti
0.791667 0.875000 0.606387 Ti
0.791667 0.375000 0.606387 Ti
0.458333 0.875000 0.676947 Ti
0.458333 0.375000 0.676947 Ti
0.958333 0.875000 0.676947 Ti
0.958333 0.375000 0.676947 Ti
0.125000 0.875000 0.747507 Ti
0.125000 0.375000 0.747507 Ti
0.625000 0.875000 0.747507 Ti
0.625000 0.375000 0.747507 Ti
