Ti66 Sn1
1.0
6.309760 0.000000 0.000000
0.000000 9.464640 0.000000
0.000000 0.000000 18.918326
Ti Sn
66 1
Selective dynamics
direct
0.625000 0.964770 0.488091 T T T Ti
0.125000 0.032309 0.651963 T T T Ti
0.625000 0.039216 0.638079 T T T Ti
0.125000 0.041667 0.817153 F F F Ti
0.625000 0.041667 0.817153 F F F Ti
0.125000 0.379053 0.492376 T T T Ti
0.625000 0.336703 0.509572 T T T Ti
0.125000 0.326713 0.634627 T T T Ti
0.625000 0.337053 0.651344 T T T Ti
0.125000 0.375000 0.817153 F F F Ti
0.625000 0.375000 0.817153 F F F Ti
0.125000 0.659680 0.482732 T T T Ti
0.625000 0.650700 0.486530 T T T Ti
0.125000 0.712624 0.656906 T T T Ti
0.625000 0.730377 0.646237 T T T Ti
0.125000 0.708333 0.817153 F F F Ti
0.625000 0.708333 0.817153 F F F Ti
0.337685 0.143418 0.527070 T T T Ti
0.912315 0.143418 0.527070 T T T Ti
0.375000 0.208333 0.737865 F F F Ti
0.875000 0.208333 0.737865 F F F Ti
0.375000 0.208333 0.896441 F F F Ti
0.875000 0.208333 0.896441 F F F Ti
0.383346 0.527524 0.584374 T T T Ti
0.866654 0.527524 0.584374 T T T Ti
0.375000 0.541667 0.737865 F F F Ti
0.875000 0.541667 0.737865 F F F Ti
0.375000 0.541667 0.896441 F F F Ti
0.875000 0.541667 0.896441 F F F Ti
0.334307 0.853482 0.557492 T T T Ti
0.915693 0.853482 0.557492 T T T Ti
0.375000 0.875000 0.737865 F F F Ti
0.875000 0.875000 0.737865 F F F Ti
0.375000 0.875000 0.896441 F F F Ti
0.875000 0.875000 0.896441 F F F Ti
0.125000 0.637017 0.356854 T T T Ti
0.625000 0.674568 0.357602 T T T Ti
0.125000 0.625000 0.118932 F F F Ti
0.625000 0.625000 0.118932 F F F Ti
0.625000 0.164775 0.383037 T T T Ti
0.125000 0.125000 0.118932 F F F Ti
0.625000 0.125000 0.118932 F F F Ti
0.125000 0.375000 0.039644 F F F Ti
0.625000 0.375000 0.039644 F F F Ti
0.125000 0.875000 0.039644 F F F Ti
0.625000 0.875000 0.039644 F F F Ti
0.125000 0.392676 0.277670 T T T Ti
0.625000 0.417260 0.273934 T T T Ti
0.125000 0.893350 0.279870 T T T Ti
0.625000 0.916179 0.284776 T T T Ti
0.375000 0.875000 0.158576 F F F Ti
0.875000 0.875000 0.158576 F F F Ti
0.374999 0.375000 0.158576 F F F Ti
0.874999 0.375000 0.158576 F F F Ti
0.408883 0.429056 0.396129 T T T Ti
0.841117 0.429056 0.396129 T T T Ti
0.341045 0.894741 0.403927 T T T Ti
0.908955 0.894741 0.403927 T T T Ti
0.365910 0.641100 0.242808 T T T Ti
0.884090 0.641100 0.242808 T T T Ti
0.375000 0.625000 0.000000 F F F Ti
0.875000 0.625000 0.000000 F F F Ti
0.389188 0.144851 0.251157 T T T Ti
0.860812 0.144851 0.251157 T T T Ti
0.375000 0.125000 0.000000 F F F Ti
0.875000 0.125000 0.000000 F F F Ti
0.125000 0.162035 0.381719 T T T Sn
