Ti66 Mo1
1.0
6.309760 0.000000 0.000000
0.000000 9.464640 0.000000
0.000000 0.000000 18.918326
Ti Mo
66 1
Selective dynamics
direct
0.637787 0.037429 0.498680 F F F Ti
0.120956 0.039543 0.660006 F F F Ti
0.625771 0.040454 0.659032 F F F Ti
0.124689 0.041517 0.817408 F F F Ti
0.624582 0.041560 0.817353 F F F Ti
0.118288 0.381584 0.498770 F F F Ti
0.627041 0.376952 0.499328 F F F Ti
0.123256 0.375380 0.658786 F F F Ti
0.623768 0.374969 0.658670 F F F Ti
0.124862 0.374844 0.817244 F F F Ti
0.624577 0.374862 0.817259 F F F Ti
0.124773 0.708948 0.499997 F F F Ti
0.625205 0.707761 0.499808 F F F Ti
0.124713 0.707759 0.658897 F F F Ti
0.624905 0.707666 0.658956 F F F Ti
0.124904 0.708045 0.817388 F F F Ti
0.624657 0.708006 0.817434 F F F Ti
0.869173 0.209302 0.579729 F F F Ti
0.374331 0.207978 0.737845 F F F Ti
0.873957 0.208380 0.738159 F F F Ti
0.374880 0.208277 0.896475 F F F Ti
0.874788 0.208313 0.896538 F F F Ti
0.374554 0.541846 0.579303 F F F Ti
0.873542 0.542487 0.579656 F F F Ti
0.374688 0.541360 0.738006 F F F Ti
0.874501 0.541442 0.738157 F F F Ti
0.374899 0.541469 0.896534 F F F Ti
0.874866 0.541473 0.896564 F F F Ti
0.376778 0.872104 0.579742 F F F Ti
0.875385 0.873841 0.579712 F F F Ti
0.374912 0.874509 0.738181 F F F Ti
0.874097 0.874180 0.738382 F F F Ti
0.374921 0.874901 0.896568 F F F Ti
0.874797 0.874881 0.896613 F F F Ti
0.125063 0.625083 0.356645 F F F Ti
0.624680 0.625107 0.356568 F F F Ti
0.125022 0.624995 0.118887 F F F Ti
0.624955 0.624995 0.118880 F F F Ti
0.125118 0.125168 0.356673 F F F Ti
0.625878 0.124861 0.356312 F F F Ti
0.125041 0.124972 0.118877 F F F Ti
0.624980 0.124966 0.118867 F F F Ti
0.125011 0.374938 0.039581 F F F Ti
0.624905 0.374944 0.039587 F F F Ti
0.125004 0.874996 0.039622 F F F Ti
0.624905 0.874989 0.039629 F F F Ti
0.124910 0.375040 0.277249 F F F Ti
0.624859 0.375063 0.277126 F F F Ti
0.125235 0.875063 0.277409 F F F Ti
0.625159 0.874894 0.277335 F F F Ti
0.375014 0.874983 0.158510 F F F Ti
0.875055 0.874966 0.158496 F F F Ti
0.374969 0.374989 0.158441 F F F Ti
0.875032 0.375002 0.158420 F F F Ti
0.374923 0.375887 0.395922 F F F Ti
0.873553 0.375304 0.395611 F F F Ti
0.375411 0.874906 0.396336 F F F Ti
0.876402 0.874324 0.396048 F F F Ti
0.374960 0.625007 0.237747 F F F Ti
0.875061 0.625004 0.237726 F F F Ti
0.374972 0.624935 0.000024 F F F Ti
0.874975 0.624940 0.000045 F F F Ti
0.375009 0.124981 0.237753 F F F Ti
0.875199 0.124951 0.237677 F F F Ti
0.374985 0.124961 0.000002 F F F Ti
0.874963 0.124949 0.000035 F F F Ti
0.318831 0.168863 0.550828 T T T Mo

0.000000 0.000000 0.000000
0.000000 0.000000 0.000000
0.000000 0.000000 0.000000
0.000000 0.000000 0.000000
0.000000 0.000000 0.000000
0.000000 0.000000 0.000000
0.000000 0.000000 0.000000
0.000000 0.000000 0.000000
0.000000 0.000000 0.000000
0.000000 0.000000 0.000000
0.000000 0.000000 0.000000
0.000000 0.000000 0.000000
0.000000 0.000000 0.000000
0.000000 0.000000 0.000000
0.000000 0.000000 0.000000
0.000000 0.000000 0.000000
0.000000 0.000000 0.000000
0.000000 0.000000 0.000000
0.000000 0.000000 0.000000
0.000000 0.000000 0.000000
0.000000 0.000000 0.000000
0.000000 0.000000 0.000000
0.000000 0.000000 0.000000
0.000000 0.000000 0.000000
0.000000 0.000000 0.000000
0.000000 0.000000 0.000000
0.000000 0.000000 0.000000
0.000000 0.000000 0.000000
0.000000 0.000000 0.000000
0.000000 0.000000 0.000000
0.000000 0.000000 0.000000
0.000000 0.000000 0.000000
0.000000 0.000000 0.000000
0.000000 0.000000 0.000000
0.000000 0.000000 0.000000
0.000000 0.000000 0.000000
0.000000 0.000000 0.000000
0.000000 0.000000 0.000000
0.000000 0.000000 0.000000
0.000000 0.000000 0.000000
0.000000 0.000000 0.000000
0.000000 0.000000 0.000000
0.000000 0.000000 0.000000
0.000000 0.000000 0.000000
0.000000 0.000000 0.000000
0.000000 0.000000 0.000000
0.000000 0.000000 0.000000
0.000000 0.000000 0.000000
0.000000 0.000000 0.000000
0.000000 0.000000 0.000000
0.000000 0.000000 0.000000
0.000000 0.000000 0.000000
0.000000 0.000000 0.000000
0.000000 0.000000 0.000000
0.000000 0.000000 0.000000
0.000000 0.000000 0.000000
0.000000 0.000000 0.000000
0.000000 0.000000 0.000000
0.000000 0.000000 0.000000
0.000000 0.000000 0.000000
0.000000 0.000000 0.000000
0.000000 0.000000 0.000000
0.000000 0.000000 0.000000
0.000000 0.000000 0.000000
0.000000 0.000000 0.000000
0.000000 0.000000 0.000000
0.000000 0.000000 0.000000
