total_Ti
1.0
4.756512 0.000000 0.000000
0.000000 4.675432 0.000000
0.000000 0.000000 21.111800
Ti
24
direct
0.333333 0.750000 0.341259 Ti
0.333333 0.750000 0.204756 Ti
0.333333 0.750000 0.068252 Ti
0.833334 0.750000 0.273008 Ti
0.833334 0.750000 0.136504 Ti
0.833334 0.750000 -0.000000 Ti
0.166666 0.250000 0.273007 Ti
0.166666 0.250000 0.136504 Ti
0.166666 0.250000 -0.000000 Ti
0.666667 0.250000 0.341259 Ti
0.666667 0.250000 0.204756 Ti
0.666667 0.250000 0.068252 Ti
0.666667 0.750000 0.860270 Ti
0.166667 0.250000 0.860270 Ti
0.166667 0.750000 0.784414 Ti
0.666667 0.250000 0.784414 Ti
0.666667 0.750000 0.708559 Ti
0.166667 0.250000 0.708559 Ti
0.166667 0.750000 0.632703 Ti
0.666667 0.250000 0.632703 Ti
0.666667 0.750000 0.556847 Ti
0.166667 0.250000 0.556847 Ti
0.166667 0.750000 0.480992 Ti
0.666667 0.250000 0.480992 Ti
