Ti67
1.0
6.309760 0.000000 0.000000
0.000000 9.464640 0.000000
0.000000 0.000000 18.918326
Ti
67
Selective dynamics
direct
0.631951 0.041662 0.500616 F F F Ti
0.626666 0.041641 0.659627 F F F Ti
0.125106 0.041742 0.817296 F F F Ti
0.625087 0.041729 0.817621 F F F Ti
0.125530 0.377252 0.500532 F F F Ti
0.625811 0.377745 0.499441 F F F Ti
0.125874 0.375906 0.659260 F F F Ti
0.625127 0.378236 0.660407 F F F Ti
0.125243 0.374890 0.817702 F F F Ti
0.625060 0.375063 0.817918 F F F Ti
0.125388 0.705908 0.500279 F F F Ti
0.625661 0.706143 0.499315 F F F Ti
0.125690 0.707576 0.659372 F F F Ti
0.624896 0.706002 0.660382 F F F Ti
0.125159 0.708580 0.817795 F F F Ti
0.625054 0.708501 0.817977 F F F Ti
0.388190 0.214737 0.581117 F F F Ti
0.859729 0.217760 0.582085 F F F Ti
0.375166 0.208385 0.738257 F F F Ti
0.875354 0.208689 0.738526 F F F Ti
0.374941 0.208210 0.896742 F F F Ti
0.875205 0.208245 0.896788 F F F Ti
0.375993 0.542176 0.579808 F F F Ti
0.874985 0.542259 0.579907 F F F Ti
0.374534 0.541864 0.738901 F F F Ti
0.876170 0.541805 0.738967 F F F Ti
0.374967 0.541648 0.896950 F F F Ti
0.875188 0.541641 0.896962 F F F Ti
0.386916 0.869063 0.580918 F F F Ti
0.861663 0.866279 0.581762 F F F Ti
0.375072 0.875137 0.738283 F F F Ti
0.875340 0.874831 0.738531 F F F Ti
0.374925 0.875205 0.896789 F F F Ti
0.875186 0.875191 0.896838 F F F Ti
0.125337 0.624795 0.356729 F F F Ti
0.625131 0.624729 0.356455 F F F Ti
0.124974 0.625049 0.119132 F F F Ti
0.624895 0.625032 0.119102 F F F Ti
0.125139 0.124728 0.357536 F F F Ti
0.625696 0.124908 0.357205 F F F Ti
0.125039 0.124947 0.119285 F F F Ti
0.624897 0.124961 0.119237 F F F Ti
0.124958 0.374847 0.039973 F F F Ti
0.624829 0.374868 0.039954 F F F Ti
0.124952 0.875149 0.040004 F F F Ti
0.624794 0.875127 0.039977 F F F Ti
0.125095 0.374763 0.277644 F F F Ti
0.625087 0.374779 0.277554 F F F Ti
0.125257 0.875056 0.277820 F F F Ti
0.625026 0.875069 0.277624 F F F Ti
0.374953 0.875081 0.158822 F F F Ti
0.875069 0.875071 0.158804 F F F Ti
0.374950 0.374870 0.158759 F F F Ti
0.875044 0.374881 0.158723 F F F Ti
0.374947 0.374937 0.396508 F F F Ti
0.875633 0.375392 0.396389 F F F Ti
0.376130 0.874595 0.396804 F F F Ti
0.874300 0.873601 0.396306 F F F Ti
0.374978 0.624975 0.237878 F F F Ti
0.875161 0.624930 0.237852 F F F Ti
0.374880 0.625138 0.000331 F F F Ti
0.874998 0.625141 0.000342 F F F Ti
0.374930 0.124914 0.238264 F F F Ti
0.875269 0.124917 0.238185 F F F Ti
0.374896 0.124949 0.000235 F F F Ti
0.875038 0.124939 0.000261 F F F Ti
0.109891 0.049070 0.527112 T T T Ti

0.000000 0.000000 0.000000
0.000000 0.000000 0.000000
0.000000 0.000000 0.000000
0.000000 0.000000 0.000000
0.000000 0.000000 0.000000
0.000000 0.000000 0.000000
0.000000 0.000000 0.000000
0.000000 0.000000 0.000000
0.000000 0.000000 0.000000
0.000000 0.000000 0.000000
0.000000 0.000000 0.000000
0.000000 0.000000 0.000000
0.000000 0.000000 0.000000
0.000000 0.000000 0.000000
0.000000 0.000000 0.000000
0.000000 0.000000 0.000000
0.000000 0.000000 0.000000
0.000000 0.000000 0.000000
0.000000 0.000000 0.000000
0.000000 0.000000 0.000000
0.000000 0.000000 0.000000
0.000000 0.000000 0.000000
0.000000 0.000000 0.000000
0.000000 0.000000 0.000000
0.000000 0.000000 0.000000
0.000000 0.000000 0.000000
0.000000 0.000000 0.000000
0.000000 0.000000 0.000000
0.000000 0.000000 0.000000
0.000000 0.000000 0.000000
0.000000 0.000000 0.000000
0.000000 0.000000 0.000000
0.000000 0.000000 0.000000
0.000000 0.000000 0.000000
0.000000 0.000000 0.000000
0.000000 0.000000 0.000000
0.000000 0.000000 0.000000
0.000000 0.000000 0.000000
0.000000 0.000000 0.000000
0.000000 0.000000 0.000000
0.000000 0.000000 0.000000
0.000000 0.000000 0.000000
0.000000 0.000000 0.000000
0.000000 0.000000 0.000000
0.000000 0.000000 0.000000
0.000000 0.000000 0.000000
0.000000 0.000000 0.000000
0.000000 0.000000 0.000000
0.000000 0.000000 0.000000
0.000000 0.000000 0.000000
0.000000 0.000000 0.000000
0.000000 0.000000 0.000000
0.000000 0.000000 0.000000
0.000000 0.000000 0.000000
0.000000 0.000000 0.000000
0.000000 0.000000 0.000000
0.000000 0.000000 0.000000
0.000000 0.000000 0.000000
0.000000 0.000000 0.000000
0.000000 0.000000 0.000000
0.000000 0.000000 0.000000
0.000000 0.000000 0.000000
0.000000 0.000000 0.000000
0.000000 0.000000 0.000000
0.000000 0.000000 0.000000
0.000000 0.000000 0.000000
0.000000 0.000000 0.000000
