Ti83
1.0
6.391540 0.000000 0.000000
0.000000 9.587310 0.000000
0.000000 0.000000 23.271695
Ti
83
Selective dynamics
direct
0.124544 0.083429 0.580731 F F F Ti
0.623501 0.083441 0.580914 F F F Ti
0.124961 0.083345 0.709571 F F F Ti
0.624882 0.083343 0.709587 F F F Ti
0.125003 0.083338 0.838432 F F F Ti
0.624989 0.083338 0.838434 F F F Ti
0.124925 0.417536 0.581317 F F F Ti
0.625156 0.416854 0.580730 F F F Ti
0.124999 0.416734 0.709650 F F F Ti
0.624934 0.416704 0.709594 F F F Ti
0.125003 0.416671 0.838446 F F F Ti
0.624983 0.416667 0.838441 F F F Ti
0.124959 0.750118 0.580776 F F F Ti
0.624900 0.750007 0.580777 F F F Ti
0.124992 0.750072 0.709601 F F F Ti
0.624923 0.750082 0.709605 F F F Ti
0.124998 0.750017 0.838443 F F F Ti
0.624981 0.750019 0.838444 F F F Ti
0.374901 0.250091 0.645141 F F F Ti
0.874711 0.250026 0.645228 F F F Ti
0.374997 0.249997 0.774001 F F F Ti
0.874964 0.249996 0.774017 F F F Ti
0.374995 0.249987 0.902855 F F F Ti
0.875016 0.249988 0.902858 F F F Ti
0.375263 0.583546 0.645220 F F F Ti
0.874739 0.583560 0.645264 F F F Ti
0.375018 0.583368 0.774025 F F F Ti
0.874959 0.583366 0.774032 F F F Ti
0.374991 0.583319 0.902861 F F F Ti
0.875002 0.583319 0.902862 F F F Ti
0.374804 0.916689 0.645104 F F F Ti
0.874822 0.916675 0.645175 F F F Ti
0.374967 0.916685 0.773994 F F F Ti
0.874977 0.916679 0.774008 F F F Ti
0.374984 0.916676 0.902851 F F F Ti
0.875010 0.916674 0.902853 F F F Ti
0.632638 0.166897 0.386305 F F F Ti
0.124799 0.666043 0.386705 F F F Ti
0.626439 0.665623 0.386643 F F F Ti
0.125021 0.166665 -0.000011 F F F Ti
0.625013 0.166661 -0.000017 F F F Ti
0.125018 0.666654 -0.000025 F F F Ti
0.625014 0.666648 -0.000028 F F F Ti
0.125033 0.833303 0.096619 F F F Ti
0.625093 0.833299 0.096603 F F F Ti
0.124531 0.832432 0.483559 F F F Ti
0.624726 0.832654 0.483633 F F F Ti
0.125076 0.333296 0.096664 F F F Ti
0.625063 0.333330 0.096637 F F F Ti
0.121268 0.338699 0.485018 F F F Ti
0.625812 0.334035 0.483531 F F F Ti
0.375696 0.583988 0.483611 F F F Ti
0.874217 0.584243 0.483653 F F F Ti
0.375025 0.583281 0.096622 F F F Ti
0.875109 0.583274 0.096615 F F F Ti
0.375041 0.083333 0.096642 F F F Ti
0.875132 0.083330 0.096635 F F F Ti
0.866498 0.082092 0.484948 F F F Ti
0.377763 0.418908 0.386663 F F F Ti
0.874941 0.417544 0.386766 F F F Ti
0.381658 0.910763 0.385832 F F F Ti
0.872699 0.914416 0.386755 F F F Ti
0.374996 0.416649 -0.000014 F F F Ti
0.875023 0.416645 -0.000015 F F F Ti
0.375005 0.916663 -0.000020 F F F Ti
0.875022 0.916665 -0.000020 F F F Ti
0.377477 0.082727 0.289589 F F F Ti
0.876056 0.082882 0.289962 F F F Ti
0.125254 0.166610 0.193369 F F F Ti
0.625484 0.166653 0.193241 F F F Ti
0.125712 0.333189 0.290129 F F F Ti
0.626003 0.333432 0.289872 F F F Ti
0.375126 0.416570 0.193314 F F F Ti
0.875323 0.416545 0.193313 F F F Ti
0.375292 0.583284 0.289846 F F F Ti
0.875644 0.583122 0.289867 F F F Ti
0.125110 0.666519 0.193245 F F F Ti
0.625239 0.666431 0.193185 F F F Ti
0.125154 0.832910 0.289897 F F F Ti
0.626444 0.832609 0.289597 F F F Ti
0.375164 0.916477 0.193207 F F F Ti
0.875231 0.916620 0.193259 F F F Ti
0.187549 0.141895 0.411796 T T T Ti

0.000000 0.000000 0.000000
0.000000 0.000000 0.000000
0.000000 0.000000 0.000000
0.000000 0.000000 0.000000
0.000000 0.000000 0.000000
0.000000 0.000000 0.000000
0.000000 0.000000 0.000000
0.000000 0.000000 0.000000
0.000000 0.000000 0.000000
0.000000 0.000000 0.000000
0.000000 0.000000 0.000000
0.000000 0.000000 0.000000
0.000000 0.000000 0.000000
0.000000 0.000000 0.000000
0.000000 0.000000 0.000000
0.000000 0.000000 0.000000
0.000000 0.000000 0.000000
0.000000 0.000000 0.000000
0.000000 0.000000 0.000000
0.000000 0.000000 0.000000
0.000000 0.000000 0.000000
0.000000 0.000000 0.000000
0.000000 0.000000 0.000000
0.000000 0.000000 0.000000
0.000000 0.000000 0.000000
0.000000 0.000000 0.000000
0.000000 0.000000 0.000000
0.000000 0.000000 0.000000
0.000000 0.000000 0.000000
0.000000 0.000000 0.000000
0.000000 0.000000 0.000000
0.000000 0.000000 0.000000
0.000000 0.000000 0.000000
0.000000 0.000000 0.000000
0.000000 0.000000 0.000000
0.000000 0.000000 0.000000
0.000000 0.000000 0.000000
0.000000 0.000000 0.000000
0.000000 0.000000 0.000000
0.000000 0.000000 0.000000
0.000000 0.000000 0.000000
0.000000 0.000000 0.000000
0.000000 0.000000 0.000000
0.000000 0.000000 0.000000
0.000000 0.000000 0.000000
0.000000 0.000000 0.000000
0.000000 0.000000 0.000000
0.000000 0.000000 0.000000
0.000000 0.000000 0.000000
0.000000 0.000000 0.000000
0.000000 0.000000 0.000000
0.000000 0.000000 0.000000
0.000000 0.000000 0.000000
0.000000 0.000000 0.000000
0.000000 0.000000 0.000000
0.000000 0.000000 0.000000
0.000000 0.000000 0.000000
0.000000 0.000000 0.000000
0.000000 0.000000 0.000000
0.000000 0.000000 0.000000
0.000000 0.000000 0.000000
0.000000 0.000000 0.000000
0.000000 0.000000 0.000000
0.000000 0.000000 0.000000
0.000000 0.000000 0.000000
0.000000 0.000000 0.000000
0.000000 0.000000 0.000000
0.000000 0.000000 0.000000
0.000000 0.000000 0.000000
0.000000 0.000000 0.000000
0.000000 0.000000 0.000000
0.000000 0.000000 0.000000
0.000000 0.000000 0.000000
0.000000 0.000000 0.000000
0.000000 0.000000 0.000000
0.000000 0.000000 0.000000
0.000000 0.000000 0.000000
0.000000 0.000000 0.000000
0.000000 0.000000 0.000000
0.000000 0.000000 0.000000
0.000000 0.000000 0.000000
0.000000 0.000000 0.000000
0.000000 0.000000 0.000000
