alpha_Ti
1.0
5.745590 0.000000 0.000000
0.000000 9.072750 0.000000
0.000000 0.000000 23.667173
Ti
36
direct
0.041667 0.875000 0.394346 Ti
0.041667 0.375000 0.394346 Ti
0.541667 0.875000 0.394346 Ti
0.541667 0.375000 0.394346 Ti
0.291667 0.625000 0.430197 Ti
0.291667 0.125000 0.430197 Ti
0.791667 0.625000 0.430197 Ti
0.791667 0.125000 0.430197 Ti
0.291667 0.875000 0.286797 Ti
0.291667 0.375000 0.286797 Ti
0.791667 0.875000 0.286797 Ti
0.791667 0.375000 0.286797 Ti
0.041667 0.625000 0.322647 Ti
0.041667 0.125000 0.322647 Ti
0.541667 0.625000 0.322647 Ti
0.541667 0.125000 0.322647 Ti
0.041667 0.875000 0.179248 Ti
0.041667 0.375000 0.179248 Ti
0.541667 0.875000 0.179248 Ti
0.541667 0.375000 0.179248 Ti
0.291667 0.625000 0.215098 Ti
0.291667 0.125000 0.215098 Ti
0.791667 0.625000 0.215098 Ti
0.791667 0.125000 0.215098 Ti
0.291667 0.875000 0.071699 Ti
0.291667 0.375000 0.071699 Ti
0.791667 0.875000 0.071699 Ti
0.791667 0.375000 0.071699 Ti
0.041667 0.625000 0.107549 Ti
0.041667 0.125000 0.107549 Ti
0.541667 0.625000 0.107549 Ti
0.541667 0.125000 0.107549 Ti
0.791667 0.125000 0.000000 Ti
0.291667 0.125000 0.000000 Ti
0.791667 0.625000 -0.000000 Ti
0.291667 0.625000 -0.000000 Ti
