Ti96 Mo1
1.0
9.513020 0.000000 0.000000
0.000000 9.350860 0.000000
0.000000 0.000000 18.547230
Ti Mo
96 1
Selective dynamics
direct
0.137455 0.364182 0.403200 T T T Ti
0.657799 0.354599 0.395615 T T T Ti
0.161624 0.859638 0.401458 T T T Ti
0.669957 0.897055 0.407751 T T T Ti
0.159774 0.375401 0.237347 T T T Ti
0.662312 0.370053 0.230951 T T T Ti
0.159529 0.872469 0.234458 T T T Ti
0.658831 0.866134 0.240704 T T T Ti
0.166645 0.375038 0.077571 F F F Ti
0.666688 0.375006 0.077590 F F F Ti
0.166699 0.874945 0.077645 F F F Ti
0.666675 0.874971 0.077664 F F F Ti
0.405745 0.376410 0.314612 T T T Ti
0.905403 0.379949 0.317058 T T T Ti
0.401316 0.892855 0.315664 T T T Ti
0.910640 0.877973 0.319687 T T T Ti
0.416689 0.375001 0.155148 F F F Ti
0.916614 0.374974 0.155128 F F F Ti
0.416618 0.874916 0.155312 F F F Ti
0.916771 0.874913 0.155173 F F F Ti
0.416702 0.375089 0.000076 F F F Ti
0.916587 0.375060 0.000022 F F F Ti
0.416694 0.874913 0.000159 F F F Ti
0.916615 0.874948 0.000064 F F F Ti
0.094597 0.120052 0.317057 T T T Ti
0.594255 0.123592 0.314611 T T T Ti
0.089359 0.622029 0.319686 T T T Ti
0.598684 0.607147 0.315663 T T T Ti
0.083387 0.125050 0.155128 F F F Ti
0.583311 0.125024 0.155149 F F F Ti
0.083229 0.625109 0.155171 F F F Ti
0.583383 0.625101 0.155310 F F F Ti
0.083414 0.124945 0.000025 F F F Ti
0.583299 0.124915 0.000079 F F F Ti
0.083386 0.625059 0.000064 F F F Ti
0.583307 0.625083 0.000158 F F F Ti
0.342200 0.145401 0.395615 T T T Ti
0.862544 0.135818 0.403200 T T T Ti
0.330042 0.602946 0.407751 T T T Ti
0.838375 0.640363 0.401458 T T T Ti
0.337687 0.129952 0.230951 T T T Ti
0.840225 0.124604 0.237347 T T T Ti
0.341168 0.633870 0.240704 T T T Ti
0.840470 0.627536 0.234458 T T T Ti
0.333311 0.125010 0.077591 F F F Ti
0.833355 0.124980 0.077572 F F F Ti
0.333325 0.625044 0.077664 F F F Ti
0.833300 0.625071 0.077644 F F F Ti
0.375018 0.375057 0.824008 F F F Ti
0.874956 0.374942 0.823989 F F F Ti
0.375025 0.874930 0.823881 F F F Ti
0.875025 0.874976 0.823953 F F F Ti
0.125047 0.125040 0.823990 F F F Ti
0.624989 0.124943 0.824011 F F F Ti
0.124981 0.625022 0.823953 F F F Ti
0.624983 0.625052 0.823880 F F F Ti
0.124985 0.375035 0.910214 F F F Ti
0.625000 0.375011 0.910212 F F F Ti
0.125055 0.874952 0.910194 F F F Ti
0.624953 0.874935 0.910190 F F F Ti
0.375006 0.124983 0.910215 F F F Ti
0.875021 0.124960 0.910215 F F F Ti
0.375051 0.625055 0.910188 F F F Ti
0.874951 0.625042 0.910193 F F F Ti
0.383441 0.382130 0.664246 T T T Ti
0.889861 0.389831 0.649412 T T T Ti
0.383870 0.880663 0.659196 T T T Ti
0.899068 0.883131 0.653609 T T T Ti
0.110138 0.110165 0.649412 T T T Ti
0.616556 0.117862 0.664246 T T T Ti
0.100929 0.616862 0.653610 T T T Ti
0.616129 0.619331 0.659196 T T T Ti
0.139061 0.362064 0.570085 T T T Ti
0.640288 0.359319 0.584467 T T T Ti
0.155237 0.852497 0.568962 T T T Ti
0.663903 0.899443 0.568492 T T T Ti
0.359711 0.140679 0.584467 T T T Ti
0.860938 0.137934 0.570085 T T T Ti
0.336096 0.600555 0.568492 T T T Ti
0.844762 0.647501 0.568962 T T T Ti
0.397964 0.359469 0.488474 T T T Ti
0.884421 0.384909 0.491005 T T T Ti
0.380252 0.941444 0.485957 T T T Ti
0.918612 0.886049 0.485068 T T T Ti
0.115579 0.115090 0.491005 T T T Ti
0.602035 0.140531 0.488474 T T T Ti
0.081388 0.613951 0.485068 T T T Ti
0.619748 0.558555 0.485957 T T T Ti
0.125376 0.874947 0.737745 F F F Ti
0.624962 0.874674 0.737723 F F F Ti
0.375028 0.625303 0.737717 F F F Ti
0.874616 0.625031 0.737748 F F F Ti
0.124684 0.375006 0.737835 F F F Ti
0.625248 0.374869 0.737828 F F F Ti
0.374741 0.125104 0.737830 F F F Ti
0.875305 0.124966 0.737832 F F F Ti
0.500000 0.750000 0.486982 T T T Mo

0.000000 0.000000 0.000000
0.000000 0.000000 0.000000
0.000000 0.000000 0.000000
0.000000 0.000000 0.000000
0.000000 0.000000 0.000000
0.000000 0.000000 0.000000
0.000000 0.000000 0.000000
0.000000 0.000000 0.000000
0.000000 0.000000 0.000000
0.000000 0.000000 0.000000
0.000000 0.000000 0.000000
0.000000 0.000000 0.000000
0.000000 0.000000 0.000000
0.000000 0.000000 0.000000
0.000000 0.000000 0.000000
0.000000 0.000000 0.000000
0.000000 0.000000 0.000000
0.000000 0.000000 0.000000
0.000000 0.000000 0.000000
0.000000 0.000000 0.000000
0.000000 0.000000 0.000000
0.000000 0.000000 0.000000
0.000000 0.000000 0.000000
0.000000 0.000000 0.000000
0.000000 0.000000 0.000000
0.000000 0.000000 0.000000
0.000000 0.000000 0.000000
0.000000 0.000000 0.000000
0.000000 0.000000 0.000000
0.000000 0.000000 0.000000
0.000000 0.000000 0.000000
0.000000 0.000000 0.000000
0.000000 0.000000 0.000000
0.000000 0.000000 0.000000
0.000000 0.000000 0.000000
0.000000 0.000000 0.000000
0.000000 0.000000 0.000000
0.000000 0.000000 0.000000
0.000000 0.000000 0.000000
0.000000 0.000000 0.000000
0.000000 0.000000 0.000000
0.000000 0.000000 0.000000
0.000000 0.000000 0.000000
0.000000 0.000000 0.000000
0.000000 0.000000 0.000000
0.000000 0.000000 0.000000
0.000000 0.000000 0.000000
0.000000 0.000000 0.000000
0.000000 0.000000 0.000000
0.000000 0.000000 0.000000
0.000000 0.000000 0.000000
0.000000 0.000000 0.000000
0.000000 0.000000 0.000000
0.000000 0.000000 0.000000
0.000000 0.000000 0.000000
0.000000 0.000000 0.000000
0.000000 0.000000 0.000000
0.000000 0.000000 0.000000
0.000000 0.000000 0.000000
0.000000 0.000000 0.000000
0.000000 0.000000 0.000000
0.000000 0.000000 0.000000
0.000000 0.000000 0.000000
0.000000 0.000000 0.000000
0.000000 0.000000 0.000000
0.000000 0.000000 0.000000
0.000000 0.000000 0.000000
0.000000 0.000000 0.000000
0.000000 0.000000 0.000000
0.000000 0.000000 0.000000
0.000000 0.000000 0.000000
0.000000 0.000000 0.000000
0.000000 0.000000 0.000000
0.000000 0.000000 0.000000
0.000000 0.000000 0.000000
0.000000 0.000000 0.000000
0.000000 0.000000 0.000000
0.000000 0.000000 0.000000
0.000000 0.000000 0.000000
0.000000 0.000000 0.000000
0.000000 0.000000 0.000000
0.000000 0.000000 0.000000
0.000000 0.000000 0.000000
0.000000 0.000000 0.000000
0.000000 0.000000 0.000000
0.000000 0.000000 0.000000
0.000000 0.000000 0.000000
0.000000 0.000000 0.000000
0.000000 0.000000 0.000000
0.000000 0.000000 0.000000
0.000000 0.000000 0.000000
0.000000 0.000000 0.000000
0.000000 0.000000 0.000000
0.000000 0.000000 0.000000
0.000000 0.000000 0.000000
0.000000 0.000000 0.000000
0.000000 0.000000 0.000000
