Ti96 Al1
1.0
9.513020 0.000000 0.000000
0.000000 9.350860 0.000000
0.000000 0.000000 18.547230
Ti Al
96 1
Selective dynamics
direct
0.140943 0.380935 0.405097 T T T Ti
0.652844 0.365259 0.400849 T T T Ti
0.167171 0.882596 0.399937 T T T Ti
0.616818 0.940259 0.409216 T T T Ti
0.161441 0.374980 0.234306 T T T Ti
0.658591 0.375066 0.232292 T T T Ti
0.162998 0.876464 0.236246 T T T Ti
0.662532 0.877666 0.235653 T T T Ti
0.166640 0.374990 0.077506 F F F Ti
0.666692 0.375033 0.077537 F F F Ti
0.166685 0.874978 0.077560 F F F Ti
0.666676 0.874932 0.077716 F F F Ti
0.394018 0.366857 0.322025 T T T Ti
0.908479 0.364722 0.311528 T T T Ti
0.414455 0.868693 0.316187 T T T Ti
0.919998 0.893271 0.320755 T T T Ti
0.416554 0.375058 0.155076 F F F Ti
0.916781 0.374876 0.155080 F F F Ti
0.416674 0.875010 0.155250 F F F Ti
0.916631 0.874787 0.155262 F F F Ti
0.416661 0.375025 -0.000064 F F F Ti
0.916636 0.375018 -0.000045 F F F Ti
0.416714 0.874978 -0.000003 F F F Ti
0.916618 0.874954 0.000010 F F F Ti
0.105982 0.133144 0.322023 T T T Ti
0.591521 0.135279 0.311526 T T T Ti
0.085545 0.631308 0.316186 T T T Ti
0.580002 0.606730 0.320754 T T T Ti
0.083451 0.124962 0.155076 F F F Ti
0.583215 0.125144 0.155079 F F F Ti
0.083328 0.625003 0.155250 F F F Ti
0.583367 0.625226 0.155260 F F F Ti
0.083343 0.124985 -0.000063 F F F Ti
0.583361 0.124991 -0.000043 F F F Ti
0.083290 0.625026 -0.000003 F F F Ti
0.583381 0.625051 0.000009 F F F Ti
0.359056 0.119065 0.405097 T T T Ti
0.847155 0.134741 0.400849 T T T Ti
0.332828 0.617404 0.399937 T T T Ti
0.883181 0.559741 0.409216 T T T Ti
0.338558 0.125024 0.234306 T T T Ti
0.841408 0.124937 0.232292 T T T Ti
0.337001 0.623539 0.236247 T T T Ti
0.837466 0.622337 0.235653 T T T Ti
0.333359 0.125026 0.077506 F F F Ti
0.833308 0.124981 0.077538 F F F Ti
0.333314 0.625037 0.077560 F F F Ti
0.833324 0.625078 0.077715 F F F Ti
0.374984 0.375017 0.823954 F F F Ti
0.875000 0.374973 0.823897 F F F Ti
0.375072 0.874989 0.823915 F F F Ti
0.874954 0.874937 0.823831 F F F Ti
0.125021 0.124973 0.823954 F F F Ti
0.625007 0.125021 0.823898 F F F Ti
0.124933 0.624999 0.823915 F F F Ti
0.625052 0.625057 0.823832 F F F Ti
0.124914 0.375047 0.910126 F F F Ti
0.625059 0.375078 0.910101 F F F Ti
0.124886 0.874936 0.910119 F F F Ti
0.625067 0.874933 0.910085 F F F Ti
0.375092 0.124951 0.910127 F F F Ti
0.874946 0.124920 0.910102 F F F Ti
0.375119 0.625056 0.910118 F F F Ti
0.874937 0.625065 0.910084 F F F Ti
0.392936 0.363591 0.646968 T T T Ti
0.889062 0.362275 0.662481 T T T Ti
0.382646 0.862937 0.664056 T T T Ti
0.888138 0.864674 0.654261 T T T Ti
0.107062 0.136405 0.646968 T T T Ti
0.610936 0.137720 0.662480 T T T Ti
0.117351 0.637056 0.664056 T T T Ti
0.611861 0.635320 0.654261 T T T Ti
0.142160 0.393198 0.573941 T T T Ti
0.652959 0.389642 0.576471 T T T Ti
0.146286 0.882913 0.576216 T T T Ti
0.626570 0.896084 0.581108 T T T Ti
0.357839 0.106800 0.573941 T T T Ti
0.847040 0.110356 0.576471 T T T Ti
0.353714 0.617085 0.576216 T T T Ti
0.873430 0.603914 0.581108 T T T Ti
0.384623 0.367236 0.488905 T T T Ti
0.903787 0.344368 0.497418 T T T Ti
0.397707 0.851740 0.490769 T T T Ti
0.922155 0.901664 0.481519 T T T Ti
0.115377 0.132764 0.488905 T T T Ti
0.596213 0.155632 0.497418 T T T Ti
0.102292 0.648259 0.490769 T T T Ti
0.577845 0.598335 0.481519 T T T Ti
0.125135 0.874921 0.737746 F F F Ti
0.624988 0.875156 0.737578 F F F Ti
0.374853 0.625052 0.737746 F F F Ti
0.875007 0.624828 0.737581 F F F Ti
0.125036 0.374916 0.737742 F F F Ti
0.625008 0.374972 0.737740 F F F Ti
0.374954 0.125061 0.737741 F F F Ti
0.874982 0.125002 0.737740 F F F Ti
0.750000 0.750000 0.424010 T T T Al

0.000000 0.000000 0.000000
0.000000 0.000000 0.000000
0.000000 0.000000 0.000000
0.000000 0.000000 0.000000
0.000000 0.000000 0.000000
0.000000 0.000000 0.000000
0.000000 0.000000 0.000000
0.000000 0.000000 0.000000
0.000000 0.000000 0.000000
0.000000 0.000000 0.000000
0.000000 0.000000 0.000000
0.000000 0.000000 0.000000
0.000000 0.000000 0.000000
0.000000 0.000000 0.000000
0.000000 0.000000 0.000000
0.000000 0.000000 0.000000
0.000000 0.000000 0.000000
0.000000 0.000000 0.000000
0.000000 0.000000 0.000000
0.000000 0.000000 0.000000
0.000000 0.000000 0.000000
0.000000 0.000000 0.000000
0.000000 0.000000 0.000000
0.000000 0.000000 0.000000
0.000000 0.000000 0.000000
0.000000 0.000000 0.000000
0.000000 0.000000 0.000000
0.000000 0.000000 0.000000
0.000000 0.000000 0.000000
0.000000 0.000000 0.000000
0.000000 0.000000 0.000000
0.000000 0.000000 0.000000
0.000000 0.000000 0.000000
0.000000 0.000000 0.000000
0.000000 0.000000 0.000000
0.000000 0.000000 0.000000
0.000000 0.000000 0.000000
0.000000 0.000000 0.000000
0.000000 0.000000 0.000000
0.000000 0.000000 0.000000
0.000000 0.000000 0.000000
0.000000 0.000000 0.000000
0.000000 0.000000 0.000000
0.000000 0.000000 0.000000
0.000000 0.000000 0.000000
0.000000 0.000000 0.000000
0.000000 0.000000 0.000000
0.000000 0.000000 0.000000
0.000000 0.000000 0.000000
0.000000 0.000000 0.000000
0.000000 0.000000 0.000000
0.000000 0.000000 0.000000
0.000000 0.000000 0.000000
0.000000 0.000000 0.000000
0.000000 0.000000 0.000000
0.000000 0.000000 0.000000
0.000000 0.000000 0.000000
0.000000 0.000000 0.000000
0.000000 0.000000 0.000000
0.000000 0.000000 0.000000
0.000000 0.000000 0.000000
0.000000 0.000000 0.000000
0.000000 0.000000 0.000000
0.000000 0.000000 0.000000
0.000000 0.000000 0.000000
0.000000 0.000000 0.000000
0.000000 0.000000 0.000000
0.000000 0.000000 0.000000
0.000000 0.000000 0.000000
0.000000 0.000000 0.000000
0.000000 0.000000 0.000000
0.000000 0.000000 0.000000
0.000000 0.000000 0.000000
0.000000 0.000000 0.000000
0.000000 0.000000 0.000000
0.000000 0.000000 0.000000
0.000000 0.000000 0.000000
0.000000 0.000000 0.000000
0.000000 0.000000 0.000000
0.000000 0.000000 0.000000
0.000000 0.000000 0.000000
0.000000 0.000000 0.000000
0.000000 0.000000 0.000000
0.000000 0.000000 0.000000
0.000000 0.000000 0.000000
0.000000 0.000000 0.000000
0.000000 0.000000 0.000000
0.000000 0.000000 0.000000
0.000000 0.000000 0.000000
0.000000 0.000000 0.000000
0.000000 0.000000 0.000000
0.000000 0.000000 0.000000
0.000000 0.000000 0.000000
0.000000 0.000000 0.000000
0.000000 0.000000 0.000000
0.000000 0.000000 0.000000
0.000000 0.000000 0.000000
