alpha_Ti
1.0
6.309760 0.000000 0.000000
0.000000 9.464640 0.000000
0.000000 0.000000 16.000004
Ti
32
direct
0.125000 0.625000 0.421875 Ti
0.625000 0.625000 0.421875 Ti
0.125000 0.625000 0.140625 Ti
0.625000 0.625000 0.140625 Ti
0.125000 0.125000 0.421875 Ti
0.625000 0.125000 0.421875 Ti
0.125000 0.125000 0.140625 Ti
0.625000 0.125000 0.140625 Ti
0.125000 0.375000 0.046875 Ti
0.625000 0.375000 0.046875 Ti
0.125000 0.875000 0.046875 Ti
0.625000 0.875000 0.046875 Ti
0.125000 0.375000 0.328125 Ti
0.625000 0.375000 0.328125 Ti
0.125000 0.875000 0.328125 Ti
0.625000 0.875000 0.328125 Ti
0.375000 0.875000 0.187500 Ti
0.875000 0.875000 0.187500 Ti
0.374999 0.375000 0.187500 Ti
0.874999 0.375000 0.187500 Ti
0.375000 0.375000 0.468750 Ti
0.875000 0.375000 0.468750 Ti
0.375000 0.875000 0.468750 Ti
0.875000 0.875000 0.468750 Ti
0.375000 0.625000 0.281250 Ti
0.875000 0.625000 0.281250 Ti
0.375000 0.625000 -0.000000 Ti
0.875000 0.625000 -0.000000 Ti
0.375000 0.125000 0.281250 Ti
0.875000 0.125000 0.281250 Ti
0.375000 0.125000 -0.000000 Ti
0.875000 0.125000 -0.000000 Ti
