Ti66 Sn1
1.0
6.309760 0.000000 0.000000
0.000000 9.464640 0.000000
0.000000 0.000000 18.918326
Ti Sn
66 1
Selective dynamics
direct
0.099632 0.053832 0.485149 T T T Ti
0.591026 0.024280 0.483348 T T T Ti
0.111311 0.059460 0.646724 T T T Ti
0.618978 0.041812 0.647641 T T T Ti
0.125210 0.041695 0.817439 F F F Ti
0.625266 0.041601 0.817549 F F F Ti
0.595119 0.375171 0.455973 T T T Ti
0.113379 0.375021 0.647955 T T T Ti
0.648022 0.375026 0.656158 T T T Ti
0.125326 0.375031 0.817355 F F F Ti
0.625153 0.375025 0.817558 F F F Ti
0.099961 0.695946 0.485130 T T T Ti
0.590675 0.725747 0.483333 T T T Ti
0.111440 0.690499 0.646705 T T T Ti
0.618814 0.708125 0.647614 T T T Ti
0.125236 0.708305 0.817437 F F F Ti
0.625239 0.708390 0.817544 F F F Ti
0.393755 0.213567 0.564587 T T T Ti
0.835109 0.221143 0.553632 T T T Ti
0.375219 0.208187 0.738179 F F F Ti
0.875181 0.208410 0.738432 F F F Ti
0.375045 0.208315 0.896503 F F F Ti
0.875117 0.208362 0.896550 F F F Ti
0.393565 0.536283 0.564501 T T T Ti
0.835226 0.528797 0.553604 T T T Ti
0.375216 0.541817 0.738169 F F F Ti
0.875210 0.541591 0.738424 F F F Ti
0.375046 0.541679 0.896509 F F F Ti
0.875118 0.541631 0.896555 F F F Ti
0.333511 0.875154 0.565008 T T T Ti
0.876028 0.874761 0.568634 T T T Ti
0.375236 0.875014 0.738210 F F F Ti
0.875632 0.874933 0.738487 F F F Ti
0.375041 0.874985 0.896556 F F F Ti
0.875169 0.874966 0.896617 F F F Ti
0.210978 0.601826 0.366386 T T T Ti
0.681793 0.612797 0.367866 T T T Ti
0.124589 0.625051 0.118728 F F F Ti
0.624768 0.624988 0.118645 F F F Ti
0.210741 0.148150 0.366302 T T T Ti
0.682089 0.137307 0.367888 T T T Ti
0.124597 0.124997 0.118715 F F F Ti
0.624768 0.125055 0.118631 F F F Ti
0.124685 0.375002 0.039463 F F F Ti
0.624842 0.375006 0.039474 F F F Ti
0.124933 0.875022 0.039451 F F F Ti
0.624889 0.875002 0.039413 F F F Ti
0.147084 0.375129 0.275023 T T T Ti
0.606477 0.375079 0.281552 T T T Ti
0.106092 0.875196 0.279620 T T T Ti
0.630285 0.875237 0.284220 T T T Ti
0.375008 0.875013 0.158137 F F F Ti
0.874605 0.875053 0.157868 F F F Ti
0.374292 0.375025 0.157818 F F F Ti
0.874768 0.375002 0.158382 F F F Ti
0.910137 0.375154 0.390349 T T T Ti
0.346267 0.875485 0.396439 T T T Ti
0.885963 0.874681 0.398915 T T T Ti
0.383353 0.632064 0.244624 T T T Ti
0.882181 0.620500 0.247847 T T T Ti
0.374895 0.625040 -0.000041 F F F Ti
0.874903 0.624983 -0.000020 F F F Ti
0.383362 0.118116 0.244593 T T T Ti
0.882141 0.129655 0.247831 T T T Ti
0.374921 0.124957 -0.000048 F F F Ti
0.874903 0.125008 -0.000029 F F F Ti
0.213804 0.373858 0.464129 T T T Sn

0.000000 0.000000 0.000000
0.000000 0.000000 0.000000
0.000000 0.000000 0.000000
0.000000 0.000000 0.000000
0.000000 0.000000 0.000000
0.000000 0.000000 0.000000
0.000000 0.000000 0.000000
0.000000 0.000000 0.000000
0.000000 0.000000 0.000000
0.000000 0.000000 0.000000
0.000000 0.000000 0.000000
0.000000 0.000000 0.000000
0.000000 0.000000 0.000000
0.000000 0.000000 0.000000
0.000000 0.000000 0.000000
0.000000 0.000000 0.000000
0.000000 0.000000 0.000000
0.000000 0.000000 0.000000
0.000000 0.000000 0.000000
0.000000 0.000000 0.000000
0.000000 0.000000 0.000000
0.000000 0.000000 0.000000
0.000000 0.000000 0.000000
0.000000 0.000000 0.000000
0.000000 0.000000 0.000000
0.000000 0.000000 0.000000
0.000000 0.000000 0.000000
0.000000 0.000000 0.000000
0.000000 0.000000 0.000000
0.000000 0.000000 0.000000
0.000000 0.000000 0.000000
0.000000 0.000000 0.000000
0.000000 0.000000 0.000000
0.000000 0.000000 0.000000
0.000000 0.000000 0.000000
0.000000 0.000000 0.000000
0.000000 0.000000 0.000000
0.000000 0.000000 0.000000
0.000000 0.000000 0.000000
0.000000 0.000000 0.000000
0.000000 0.000000 0.000000
0.000000 0.000000 0.000000
0.000000 0.000000 0.000000
0.000000 0.000000 0.000000
0.000000 0.000000 0.000000
0.000000 0.000000 0.000000
0.000000 0.000000 0.000000
0.000000 0.000000 0.000000
0.000000 0.000000 0.000000
0.000000 0.000000 0.000000
0.000000 0.000000 0.000000
0.000000 0.000000 0.000000
0.000000 0.000000 0.000000
0.000000 0.000000 0.000000
0.000000 0.000000 0.000000
0.000000 0.000000 0.000000
0.000000 0.000000 0.000000
0.000000 0.000000 0.000000
0.000000 0.000000 0.000000
0.000000 0.000000 0.000000
0.000000 0.000000 0.000000
0.000000 0.000000 0.000000
0.000000 0.000000 0.000000
0.000000 0.000000 0.000000
0.000000 0.000000 0.000000
0.000000 0.000000 0.000000
0.000000 0.000000 0.000000
