Ti66 Nb1
1.0
6.309760 0.000000 0.000000
0.000000 9.464640 0.000000
0.000000 0.000000 18.918326
Ti Nb
66 1
Selective dynamics
direct
0.132510 0.027283 0.469601 T T T Ti
0.631874 0.056719 0.486935 T T T Ti
0.126123 0.055486 0.654368 T T T Ti
0.626405 0.065176 0.643748 T T T Ti
0.125290 0.040869 0.817664 F F F Ti
0.625301 0.040819 0.817605 F F F Ti
0.629123 0.378019 0.483341 T T T Ti
0.125822 0.373253 0.655889 T T T Ti
0.626160 0.369508 0.642498 T T T Ti
0.125271 0.374444 0.817715 F F F Ti
0.625354 0.374621 0.817661 F F F Ti
0.125788 0.723535 0.489565 T T T Ti
0.621300 0.719083 0.501169 T T T Ti
0.125582 0.702109 0.644586 T T T Ti
0.624242 0.707307 0.649881 T T T Ti
0.125133 0.707879 0.817495 F F F Ti
0.624961 0.707893 0.817381 F F F Ti
0.345256 0.223850 0.555053 T T T Ti
0.908491 0.224166 0.555973 T T T Ti
0.376119 0.207241 0.738714 F F F Ti
0.875090 0.207195 0.738798 F F F Ti
0.375375 0.207991 0.896550 F F F Ti
0.875049 0.207984 0.896569 F F F Ti
0.354627 0.525736 0.559115 T T T Ti
0.895391 0.527380 0.559452 T T T Ti
0.375108 0.540626 0.738497 F F F Ti
0.875447 0.540799 0.738502 F F F Ti
0.375167 0.541618 0.896505 F F F Ti
0.875021 0.541655 0.896507 F F F Ti
0.365165 0.896967 0.570714 T T T Ti
0.887280 0.896024 0.570664 T T T Ti
0.375362 0.874033 0.738253 F F F Ti
0.875205 0.873905 0.738209 F F F Ti
0.375227 0.874908 0.896582 F F F Ti
0.874967 0.874890 0.896573 F F F Ti
0.126000 0.604597 0.370176 T T T Ti
0.619773 0.604920 0.374466 T T T Ti
0.125342 0.626998 0.118231 F F F Ti
0.624768 0.627140 0.118094 F F F Ti
0.636261 0.100463 0.357298 T T T Ti
0.125885 0.126372 0.118477 F F F Ti
0.625231 0.126300 0.118891 F F F Ti
0.125418 0.375935 0.038857 F F F Ti
0.625103 0.375850 0.038999 F F F Ti
0.125013 0.876100 0.039562 F F F Ti
0.624855 0.876126 0.039640 F F F Ti
0.126575 0.386883 0.275298 T T T Ti
0.622731 0.379691 0.277479 T T T Ti
0.125342 0.865993 0.282536 T T T Ti
0.624818 0.873027 0.273116 T T T Ti
0.374590 0.877322 0.158566 F F F Ti
0.875667 0.877067 0.158490 F F F Ti
0.373982 0.376750 0.157019 F F F Ti
0.877022 0.377219 0.156922 F F F Ti
0.382840 0.319510 0.386179 T T T Ti
0.855482 0.332748 0.382614 T T T Ti
0.403424 0.860292 0.396716 T T T Ti
0.848120 0.857492 0.396987 T T T Ti
0.377986 0.627016 0.246986 T T T Ti
0.871417 0.627078 0.247087 T T T Ti
0.374964 0.626059 -0.000270 F F F Ti
0.875018 0.626073 -0.000257 F F F Ti
0.367221 0.132540 0.247108 T T T Ti
0.884953 0.132930 0.245954 T T T Ti
0.375427 0.125326 0.000031 F F F Ti
0.874996 0.125328 0.000049 F F F Ti
0.093190 0.221612 0.427170 T T T Nb

0.000000 0.000000 0.000000
0.000000 0.000000 0.000000
0.000000 0.000000 0.000000
0.000000 0.000000 0.000000
0.000000 0.000000 0.000000
0.000000 0.000000 0.000000
0.000000 0.000000 0.000000
0.000000 0.000000 0.000000
0.000000 0.000000 0.000000
0.000000 0.000000 0.000000
0.000000 0.000000 0.000000
0.000000 0.000000 0.000000
0.000000 0.000000 0.000000
0.000000 0.000000 0.000000
0.000000 0.000000 0.000000
0.000000 0.000000 0.000000
0.000000 0.000000 0.000000
0.000000 0.000000 0.000000
0.000000 0.000000 0.000000
0.000000 0.000000 0.000000
0.000000 0.000000 0.000000
0.000000 0.000000 0.000000
0.000000 0.000000 0.000000
0.000000 0.000000 0.000000
0.000000 0.000000 0.000000
0.000000 0.000000 0.000000
0.000000 0.000000 0.000000
0.000000 0.000000 0.000000
0.000000 0.000000 0.000000
0.000000 0.000000 0.000000
0.000000 0.000000 0.000000
0.000000 0.000000 0.000000
0.000000 0.000000 0.000000
0.000000 0.000000 0.000000
0.000000 0.000000 0.000000
0.000000 0.000000 0.000000
0.000000 0.000000 0.000000
0.000000 0.000000 0.000000
0.000000 0.000000 0.000000
0.000000 0.000000 0.000000
0.000000 0.000000 0.000000
0.000000 0.000000 0.000000
0.000000 0.000000 0.000000
0.000000 0.000000 0.000000
0.000000 0.000000 0.000000
0.000000 0.000000 0.000000
0.000000 0.000000 0.000000
0.000000 0.000000 0.000000
0.000000 0.000000 0.000000
0.000000 0.000000 0.000000
0.000000 0.000000 0.000000
0.000000 0.000000 0.000000
0.000000 0.000000 0.000000
0.000000 0.000000 0.000000
0.000000 0.000000 0.000000
0.000000 0.000000 0.000000
0.000000 0.000000 0.000000
0.000000 0.000000 0.000000
0.000000 0.000000 0.000000
0.000000 0.000000 0.000000
0.000000 0.000000 0.000000
0.000000 0.000000 0.000000
0.000000 0.000000 0.000000
0.000000 0.000000 0.000000
0.000000 0.000000 0.000000
0.000000 0.000000 0.000000
0.000000 0.000000 0.000000
