beta_Ti
1.0
4.756510 0.000000 0.000000
0.000000 4.675430 0.000000
0.000000 0.000000 21.511761
Ti
12
direct
0.750000 0.750000 0.853571 Ti
0.250000 0.250000 0.853571 Ti
0.250000 0.750000 0.779127 Ti
0.750000 0.250000 0.779127 Ti
0.750000 0.750000 0.704681 Ti
0.250000 0.250000 0.704681 Ti
0.250000 0.750000 0.630236 Ti
0.750000 0.250000 0.630236 Ti
0.750000 0.750000 0.555790 Ti
0.250000 0.250000 0.555790 Ti
0.250000 0.750000 0.481346 Ti
0.750000 0.250000 0.481346 Ti
