total_Ti
1.0
4.756510 0.000000 0.000000
0.000000 4.675430 0.000000
0.000000 0.000000 21.511761
Ti
24
direct
0.333333 0.750000 0.334914 Ti
0.333333 0.750000 0.200949 Ti
0.333333 0.750000 0.066983 Ti
0.833334 0.750000 0.267932 Ti
0.833334 0.750000 0.133966 Ti
0.833334 0.750000 -0.000000 Ti
0.166666 0.250000 0.267931 Ti
0.166666 0.250000 0.133966 Ti
0.166666 0.250000 -0.000000 Ti
0.666667 0.250000 0.334914 Ti
0.666667 0.250000 0.200949 Ti
0.666667 0.250000 0.066983 Ti
0.750000 0.750000 0.853571 Ti
0.250000 0.250000 0.853571 Ti
0.250000 0.750000 0.779127 Ti
0.750000 0.250000 0.779127 Ti
0.750000 0.750000 0.704681 Ti
0.250000 0.250000 0.704681 Ti
0.250000 0.750000 0.630236 Ti
0.750000 0.250000 0.630236 Ti
0.750000 0.750000 0.555790 Ti
0.250000 0.250000 0.555790 Ti
0.250000 0.750000 0.481346 Ti
0.750000 0.250000 0.481346 Ti
