alpha_Ti
1.0
4.756512 0.000000 0.000000
0.000000 4.675432 0.000000
0.000000 0.000000 19.711800
Ti
12
direct
0.333333 0.750000 0.365497 Ti
0.333333 0.750000 0.219298 Ti
0.333333 0.750000 0.073099 Ti
0.833334 0.750000 0.292397 Ti
0.833334 0.750000 0.146199 Ti
0.833334 0.750000 -0.000000 Ti
0.166666 0.250000 0.292397 Ti
0.166666 0.250000 0.146199 Ti
0.166666 0.250000 -0.000000 Ti
0.666667 0.250000 0.365497 Ti
0.666667 0.250000 0.219298 Ti
0.666667 0.250000 0.073099 Ti
