Ti82 Sn1
1.0
6.391540 0.000000 0.000000
0.000000 9.587310 0.000000
0.000000 0.000000 23.271695
Ti Sn
82 1
Selective dynamics
direct
0.631792 0.083337 0.581729 F F F Ti
0.125167 0.083340 0.709498 F F F Ti
0.625307 0.083342 0.709682 F F F Ti
0.125011 0.083338 0.838420 F F F Ti
0.625028 0.083338 0.838446 F F F Ti
0.124934 0.417109 0.580688 F F F Ti
0.625448 0.417048 0.580688 F F F Ti
0.125150 0.416743 0.709568 F F F Ti
0.625132 0.416778 0.709593 F F F Ti
0.125020 0.416673 0.838436 F F F Ti
0.625016 0.416678 0.838443 F F F Ti
0.124814 0.749528 0.580707 F F F Ti
0.625442 0.749645 0.580695 F F F Ti
0.125109 0.749940 0.709577 F F F Ti
0.625130 0.749909 0.709602 F F F Ti
0.125010 0.750000 0.838437 F F F Ti
0.625012 0.749994 0.838445 F F F Ti
0.375558 0.250260 0.645216 F F F Ti
0.875798 0.250435 0.645228 F F F Ti
0.375015 0.250019 0.773996 F F F Ti
0.875120 0.250030 0.774010 F F F Ti
0.374995 0.249998 0.902869 F F F Ti
0.875020 0.249999 0.902873 F F F Ti
0.375116 0.583413 0.645112 F F F Ti
0.875018 0.583322 0.645170 F F F Ti
0.375020 0.583339 0.774003 F F F Ti
0.875057 0.583324 0.774017 F F F Ti
0.374996 0.583332 0.902874 F F F Ti
0.875010 0.583330 0.902878 F F F Ti
0.375554 0.916428 0.645225 F F F Ti
0.875783 0.916246 0.645233 F F F Ti
0.375008 0.916660 0.773997 F F F Ti
0.875111 0.916645 0.774010 F F F Ti
0.374988 0.916668 0.902865 F F F Ti
0.875015 0.916665 0.902870 F F F Ti
0.123767 0.166960 0.386521 F F F Ti
0.624194 0.166788 0.386695 F F F Ti
0.124868 0.666395 0.386520 F F F Ti
0.624955 0.666592 0.386623 F F F Ti
0.125002 0.166661 -0.000010 F F F Ti
0.624984 0.166662 -0.000008 F F F Ti
0.125002 0.666679 -0.000006 F F F Ti
0.624988 0.666677 -0.000005 F F F Ti
0.124999 0.833340 0.096667 F F F Ti
0.624988 0.833341 0.096666 F F F Ti
0.121470 0.830271 0.483143 F F F Ti
0.626015 0.832224 0.483397 F F F Ti
0.124997 0.333329 0.096666 F F F Ti
0.624986 0.333330 0.096664 F F F Ti
0.121561 0.336381 0.483103 F F F Ti
0.625784 0.334438 0.483393 F F F Ti
0.375201 0.583615 0.483396 F F F Ti
0.874094 0.583406 0.483377 F F F Ti
0.374998 0.583335 0.096664 F F F Ti
0.874998 0.583336 0.096661 F F F Ti
0.374993 0.083335 0.096672 F F F Ti
0.874990 0.083338 0.096668 F F F Ti
0.869861 0.083319 0.483120 F F F Ti
0.374906 0.416804 0.386651 F F F Ti
0.874309 0.416885 0.386503 F F F Ti
0.374592 0.916363 0.386667 F F F Ti
0.874316 0.916553 0.386565 F F F Ti
0.374988 0.416661 -0.000008 F F F Ti
0.875005 0.416661 -0.000005 F F F Ti
0.374988 0.916673 -0.000006 F F F Ti
0.875007 0.916671 -0.000003 F F F Ti
0.374835 0.083326 0.290033 F F F Ti
0.874738 0.083336 0.289979 F F F Ti
0.124978 0.166659 0.193341 F F F Ti
0.624935 0.166660 0.193335 F F F Ti
0.124924 0.333390 0.289964 F F F Ti
0.624801 0.333323 0.289974 F F F Ti
0.374970 0.416669 0.193325 F F F Ti
0.874947 0.416663 0.193318 F F F Ti
0.375015 0.583354 0.289976 F F F Ti
0.874881 0.583371 0.289934 F F F Ti
0.124988 0.666670 0.193324 F F F Ti
0.624951 0.666671 0.193318 F F F Ti
0.124904 0.833337 0.289989 F F F Ti
0.624856 0.833323 0.289980 F F F Ti
0.374955 0.916673 0.193341 F F F Ti
0.874957 0.916664 0.193330 F F F Ti
0.311530 0.083399 0.508524 T T T Sn

0.000000 0.000000 0.000000
0.000000 0.000000 0.000000
0.000000 0.000000 0.000000
0.000000 0.000000 0.000000
0.000000 0.000000 0.000000
0.000000 0.000000 0.000000
0.000000 0.000000 0.000000
0.000000 0.000000 0.000000
0.000000 0.000000 0.000000
0.000000 0.000000 0.000000
0.000000 0.000000 0.000000
0.000000 0.000000 0.000000
0.000000 0.000000 0.000000
0.000000 0.000000 0.000000
0.000000 0.000000 0.000000
0.000000 0.000000 0.000000
0.000000 0.000000 0.000000
0.000000 0.000000 0.000000
0.000000 0.000000 0.000000
0.000000 0.000000 0.000000
0.000000 0.000000 0.000000
0.000000 0.000000 0.000000
0.000000 0.000000 0.000000
0.000000 0.000000 0.000000
0.000000 0.000000 0.000000
0.000000 0.000000 0.000000
0.000000 0.000000 0.000000
0.000000 0.000000 0.000000
0.000000 0.000000 0.000000
0.000000 0.000000 0.000000
0.000000 0.000000 0.000000
0.000000 0.000000 0.000000
0.000000 0.000000 0.000000
0.000000 0.000000 0.000000
0.000000 0.000000 0.000000
0.000000 0.000000 0.000000
0.000000 0.000000 0.000000
0.000000 0.000000 0.000000
0.000000 0.000000 0.000000
0.000000 0.000000 0.000000
0.000000 0.000000 0.000000
0.000000 0.000000 0.000000
0.000000 0.000000 0.000000
0.000000 0.000000 0.000000
0.000000 0.000000 0.000000
0.000000 0.000000 0.000000
0.000000 0.000000 0.000000
0.000000 0.000000 0.000000
0.000000 0.000000 0.000000
0.000000 0.000000 0.000000
0.000000 0.000000 0.000000
0.000000 0.000000 0.000000
0.000000 0.000000 0.000000
0.000000 0.000000 0.000000
0.000000 0.000000 0.000000
0.000000 0.000000 0.000000
0.000000 0.000000 0.000000
0.000000 0.000000 0.000000
0.000000 0.000000 0.000000
0.000000 0.000000 0.000000
0.000000 0.000000 0.000000
0.000000 0.000000 0.000000
0.000000 0.000000 0.000000
0.000000 0.000000 0.000000
0.000000 0.000000 0.000000
0.000000 0.000000 0.000000
0.000000 0.000000 0.000000
0.000000 0.000000 0.000000
0.000000 0.000000 0.000000
0.000000 0.000000 0.000000
0.000000 0.000000 0.000000
0.000000 0.000000 0.000000
0.000000 0.000000 0.000000
0.000000 0.000000 0.000000
0.000000 0.000000 0.000000
0.000000 0.000000 0.000000
0.000000 0.000000 0.000000
0.000000 0.000000 0.000000
0.000000 0.000000 0.000000
0.000000 0.000000 0.000000
0.000000 0.000000 0.000000
0.000000 0.000000 0.000000
0.000000 0.000000 0.000000
