alpha_Ti
1.0
9.588310 0.000000 0.000000
0.000000 9.588310 0.000000
0.000000 0.000000 18.700006
Ti
48
direct
0.125000 0.833333 -0.000000 Ti
0.125000 0.333333 -0.000000 Ti
0.625000 0.833333 -0.000000 Ti
0.625000 0.333333 -0.000000 Ti
0.375000 0.666667 -0.000000 Ti
0.375000 0.166667 -0.000000 Ti
0.875000 0.666667 -0.000000 Ti
0.875000 0.166667 -0.000000 Ti
0.875000 0.416667 0.080214 Ti
0.375000 0.416667 0.080214 Ti
0.875000 0.916667 0.080214 Ti
0.375000 0.916667 0.080214 Ti
0.625000 0.083333 0.080214 Ti
0.125000 0.083333 0.080214 Ti
0.625000 0.583333 0.080214 Ti
0.125000 0.583333 0.080214 Ti
0.125000 0.333333 0.160428 Ti
0.625000 0.333333 0.160428 Ti
0.625000 0.833333 0.160428 Ti
0.125000 0.833333 0.160428 Ti
0.875000 0.666667 0.160428 Ti
0.375000 0.166667 0.160428 Ti
0.875000 0.166667 0.160428 Ti
0.375000 0.666667 0.160428 Ti
0.875000 0.416667 0.240642 Ti
0.375000 0.416667 0.240642 Ti
0.875000 0.916667 0.240642 Ti
0.375000 0.916667 0.240642 Ti
0.125000 0.583333 0.240642 Ti
0.625000 0.083333 0.240642 Ti
0.125000 0.083333 0.240642 Ti
0.625000 0.583333 0.240642 Ti
0.625000 0.833333 0.320855 Ti
0.625000 0.333333 0.320855 Ti
0.125000 0.833333 0.320855 Ti
0.125000 0.333333 0.320855 Ti
0.375000 0.166667 0.320855 Ti
0.875000 0.166667 0.320855 Ti
0.375000 0.666667 0.320855 Ti
0.875000 0.666667 0.320855 Ti
0.875000 0.416667 0.401070 Ti
0.375000 0.416667 0.401070 Ti
0.375000 0.916667 0.401070 Ti
0.875000 0.916667 0.401070 Ti
0.625000 0.583333 0.401070 Ti
0.625000 0.083333 0.401070 Ti
0.125000 0.583333 0.401070 Ti
0.125000 0.083333 0.401070 Ti
