Ti72
1.0
8.805261 0.000000 0.000000
-4.402630 7.625580 0.000000
0.000000 0.000000 31.288801
Ti
72
direct
0.222214 0.944436 0.491931 Ti
0.222214 0.444436 0.491931 Ti
0.722214 0.944436 0.491931 Ti
0.722214 0.444436 0.491931 Ti
0.388880 0.277769 0.698786 Ti
0.388880 0.777769 0.698786 Ti
0.888880 0.277769 0.698786 Ti
0.888880 0.777769 0.698786 Ti
0.555547 0.111102 0.728337 Ti
0.555547 0.611103 0.728337 Ti
0.055556 0.111102 0.728337 Ti
0.055556 0.611103 0.728337 Ti
0.388880 0.277769 0.521482 Ti
0.388880 0.777769 0.521482 Ti
0.888880 0.277769 0.521482 Ti
0.888880 0.777769 0.521482 Ti
0.555547 0.111102 0.551032 Ti
0.555547 0.611103 0.551032 Ti
0.055556 0.111102 0.551032 Ti
0.055556 0.611103 0.551032 Ti
0.222214 0.944436 0.580583 Ti
0.222214 0.444436 0.580583 Ti
0.722214 0.944436 0.580583 Ti
0.722214 0.444436 0.580583 Ti
0.388880 0.277769 0.610134 Ti
0.388880 0.777769 0.610134 Ti
0.888880 0.277769 0.610134 Ti
0.888880 0.777769 0.610134 Ti
0.555547 0.111102 0.639685 Ti
0.555547 0.611103 0.639685 Ti
0.055556 0.111102 0.639685 Ti
0.055556 0.611103 0.639685 Ti
0.222214 0.944436 0.669235 Ti
0.222214 0.444436 0.669235 Ti
0.722214 0.944436 0.669235 Ti
0.722214 0.444436 0.669235 Ti
0.166666 0.833342 -0.000000 Ti
0.166666 0.833342 0.146846 Ti
0.166666 0.500009 -0.000000 Ti
0.277778 0.722231 0.073423 Ti
0.166666 0.500009 0.146846 Ti
0.500000 0.833342 -0.000000 Ti
0.166666 0.166675 -0.000000 Ti
0.277778 0.722231 0.220268 Ti
0.277778 0.388897 0.073423 Ti
0.500000 0.833342 0.146846 Ti
0.166666 0.166675 0.146846 Ti
0.500000 0.500009 -0.000000 Ti
0.277778 0.388897 0.220268 Ti
0.611111 0.722231 0.073423 Ti
0.277778 0.055564 0.073423 Ti
0.500000 0.500009 0.146846 Ti
0.833333 0.833342 -0.000000 Ti
0.500000 0.166675 0.000000 Ti
0.611111 0.722231 0.220268 Ti
0.277778 0.055564 0.220268 Ti
0.611111 0.388897 0.073423 Ti
0.833333 0.833342 0.146846 Ti
0.500000 0.166675 0.146846 Ti
0.833333 0.500009 -0.000000 Ti
0.611111 0.388897 0.220268 Ti
0.944444 0.722231 0.073423 Ti
0.611111 0.055564 0.073423 Ti
0.833333 0.500009 0.146846 Ti
0.833333 0.166675 -0.000000 Ti
0.944444 0.722231 0.220268 Ti
0.611111 0.055564 0.220268 Ti
0.944444 0.388897 0.073423 Ti
0.833333 0.166675 0.146846 Ti
0.944444 0.388897 0.220268 Ti
0.944444 0.055564 0.073423 Ti
0.944444 0.055564 0.220268 Ti
