beta_Ti
1.0
6.391540 0.000000 0.000000
0.000000 9.587310 0.000000
0.000000 0.000000 20.750000
Ti
36
direct
0.125000 0.083333 0.590361 Ti
0.625000 0.083333 0.590361 Ti
0.125000 0.083333 0.734940 Ti
0.625000 0.083333 0.734940 Ti
0.125000 0.083333 0.879518 Ti
0.625000 0.083333 0.879518 Ti
0.125000 0.416667 0.590361 Ti
0.625000 0.416667 0.590361 Ti
0.125000 0.416667 0.734940 Ti
0.625000 0.416667 0.734940 Ti
0.125000 0.416667 0.879518 Ti
0.625000 0.416667 0.879518 Ti
0.125000 0.750000 0.590361 Ti
0.625000 0.750000 0.590361 Ti
0.125000 0.750000 0.734940 Ti
0.625000 0.750000 0.734940 Ti
0.125000 0.750000 0.879518 Ti
0.625000 0.750000 0.879518 Ti
0.375000 0.250000 0.662651 Ti
0.875000 0.250000 0.662651 Ti
0.375000 0.250000 0.807229 Ti
0.875000 0.250000 0.807229 Ti
0.375000 0.250000 0.951807 Ti
0.875000 0.250000 0.951807 Ti
0.375000 0.583333 0.662651 Ti
0.875000 0.583333 0.662651 Ti
0.375000 0.583333 0.807229 Ti
0.875000 0.583333 0.807229 Ti
0.375000 0.583333 0.951807 Ti
0.875000 0.583333 0.951807 Ti
0.375000 0.916667 0.662651 Ti
0.875000 0.916667 0.662651 Ti
0.375000 0.916667 0.807229 Ti
0.875000 0.916667 0.807229 Ti
0.375000 0.916667 0.951807 Ti
0.875000 0.916667 0.951807 Ti
