Ti66 Cr1
1.0
6.309760 0.000000 0.000000
0.000000 9.464640 0.000000
0.000000 0.000000 18.918326
Ti Cr
66 1
Selective dynamics
direct
0.125884 0.031126 0.501746 F F F Ti
0.627831 0.038877 0.499852 F F F Ti
0.125910 0.038216 0.659134 F F F Ti
0.625212 0.037669 0.659316 F F F Ti
0.125275 0.040267 0.817215 F F F Ti
0.625145 0.040211 0.817267 F F F Ti
0.633620 0.372659 0.500046 F F F Ti
0.125489 0.372056 0.658627 F F F Ti
0.626099 0.373137 0.658982 F F F Ti
0.125363 0.373886 0.817074 F F F Ti
0.625352 0.373989 0.817184 F F F Ti
0.124815 0.699138 0.499171 F F F Ti
0.623070 0.705806 0.499555 F F F Ti
0.125528 0.704685 0.658146 F F F Ti
0.624309 0.705602 0.658535 F F F Ti
0.125191 0.706970 0.817003 F F F Ti
0.625028 0.707062 0.817067 F F F Ti
0.381752 0.203331 0.580669 F F F Ti
0.869300 0.201807 0.581940 F F F Ti
0.375696 0.206523 0.738095 F F F Ti
0.875209 0.206382 0.738309 F F F Ti
0.375221 0.207600 0.896227 F F F Ti
0.875210 0.207583 0.896256 F F F Ti
0.376547 0.537641 0.578947 F F F Ti
0.873673 0.539433 0.579666 F F F Ti
0.375156 0.539753 0.737788 F F F Ti
0.875448 0.539972 0.737913 F F F Ti
0.375120 0.540951 0.896219 F F F Ti
0.875211 0.540977 0.896228 F F F Ti
0.375697 0.871040 0.579324 F F F Ti
0.874892 0.870432 0.579471 F F F Ti
0.374958 0.872689 0.737962 F F F Ti
0.875467 0.872585 0.737954 F F F Ti
0.375088 0.874237 0.896291 F F F Ti
0.875127 0.874232 0.896288 F F F Ti
0.125465 0.625166 0.355665 F F F Ti
0.623624 0.630895 0.355060 F F F Ti
0.125277 0.625864 0.118196 F F F Ti
0.625022 0.625920 0.118113 F F F Ti
0.628698 0.124034 0.355973 F F F Ti
0.125604 0.125271 0.118449 F F F Ti
0.625167 0.125232 0.118368 F F F Ti
0.125398 0.375058 0.038854 F F F Ti
0.625155 0.375063 0.038910 F F F Ti
0.125027 0.875308 0.039308 F F F Ti
0.624914 0.875333 0.039297 F F F Ti
0.125977 0.376232 0.276210 F F F Ti
0.624241 0.376196 0.273246 F F F Ti
0.124832 0.876847 0.277454 F F F Ti
0.624967 0.877230 0.276991 F F F Ti
0.374893 0.876003 0.158221 F F F Ti
0.875343 0.875969 0.158149 F F F Ti
0.374290 0.375597 0.157259 F F F Ti
0.876545 0.375686 0.157117 F F F Ti
0.400127 0.380517 0.391206 F F F Ti
0.843637 0.383810 0.388363 F F F Ti
0.373338 0.876779 0.396457 F F F Ti
0.876874 0.875403 0.396464 F F F Ti
0.374734 0.626723 0.236767 F F F Ti
0.875548 0.626826 0.236705 F F F Ti
0.375040 0.625186 -0.000430 F F F Ti
0.875090 0.625200 -0.000427 F F F Ti
0.374963 0.125833 0.237492 F F F Ti
0.876127 0.125807 0.237108 F F F Ti
0.375092 0.124710 -0.000294 F F F Ti
0.875178 0.124713 -0.000264 F F F Ti
0.104915 0.324885 0.472160 T T T Cr

0.000000 0.000000 0.000000
0.000000 0.000000 0.000000
0.000000 0.000000 0.000000
0.000000 0.000000 0.000000
0.000000 0.000000 0.000000
0.000000 0.000000 0.000000
0.000000 0.000000 0.000000
0.000000 0.000000 0.000000
0.000000 0.000000 0.000000
0.000000 0.000000 0.000000
0.000000 0.000000 0.000000
0.000000 0.000000 0.000000
0.000000 0.000000 0.000000
0.000000 0.000000 0.000000
0.000000 0.000000 0.000000
0.000000 0.000000 0.000000
0.000000 0.000000 0.000000
0.000000 0.000000 0.000000
0.000000 0.000000 0.000000
0.000000 0.000000 0.000000
0.000000 0.000000 0.000000
0.000000 0.000000 0.000000
0.000000 0.000000 0.000000
0.000000 0.000000 0.000000
0.000000 0.000000 0.000000
0.000000 0.000000 0.000000
0.000000 0.000000 0.000000
0.000000 0.000000 0.000000
0.000000 0.000000 0.000000
0.000000 0.000000 0.000000
0.000000 0.000000 0.000000
0.000000 0.000000 0.000000
0.000000 0.000000 0.000000
0.000000 0.000000 0.000000
0.000000 0.000000 0.000000
0.000000 0.000000 0.000000
0.000000 0.000000 0.000000
0.000000 0.000000 0.000000
0.000000 0.000000 0.000000
0.000000 0.000000 0.000000
0.000000 0.000000 0.000000
0.000000 0.000000 0.000000
0.000000 0.000000 0.000000
0.000000 0.000000 0.000000
0.000000 0.000000 0.000000
0.000000 0.000000 0.000000
0.000000 0.000000 0.000000
0.000000 0.000000 0.000000
0.000000 0.000000 0.000000
0.000000 0.000000 0.000000
0.000000 0.000000 0.000000
0.000000 0.000000 0.000000
0.000000 0.000000 0.000000
0.000000 0.000000 0.000000
0.000000 0.000000 0.000000
0.000000 0.000000 0.000000
0.000000 0.000000 0.000000
0.000000 0.000000 0.000000
0.000000 0.000000 0.000000
0.000000 0.000000 0.000000
0.000000 0.000000 0.000000
0.000000 0.000000 0.000000
0.000000 0.000000 0.000000
0.000000 0.000000 0.000000
0.000000 0.000000 0.000000
0.000000 0.000000 0.000000
0.000000 0.000000 0.000000
