alpha_Ti
1.0
8.805261 0.000000 0.000000
-4.402631 7.625580 0.000000
0.000000 0.000000 31.883422
Ti
54
direct
0.138888 0.861108 -0.000000 Ti
0.138888 0.861108 0.288214 Ti
0.138888 0.527774 -0.000000 Ti
0.249999 0.749996 0.072053 Ti
0.138888 0.527774 0.288214 Ti
0.472221 0.861108 -0.000000 Ti
0.138888 0.194441 -0.000000 Ti
0.249999 0.749996 0.360267 Ti
0.250000 0.416663 0.072053 Ti
0.472221 0.861108 0.288214 Ti
0.138888 0.194441 0.288214 Ti
0.472222 0.527774 -0.000000 Ti
0.250000 0.416663 0.360267 Ti
0.583333 0.749996 0.072053 Ti
0.250000 0.083330 0.072053 Ti
0.472222 0.527774 0.288214 Ti
0.805555 0.861108 -0.000000 Ti
0.472222 0.194441 -0.000000 Ti
0.583333 0.749996 0.360267 Ti
0.250000 0.083330 0.360267 Ti
0.583333 0.416663 0.072053 Ti
0.805555 0.861108 0.288214 Ti
0.472222 0.194441 0.288214 Ti
0.805555 0.527774 -0.000000 Ti
0.583333 0.416663 0.360267 Ti
0.916666 0.749996 0.072053 Ti
0.583333 0.083330 0.072053 Ti
0.805555 0.527774 0.288214 Ti
0.805555 0.194441 -0.000000 Ti
0.916666 0.749996 0.360267 Ti
0.583333 0.083330 0.360267 Ti
0.916666 0.416663 0.072053 Ti
0.805555 0.194441 0.288214 Ti
0.916666 0.416663 0.360267 Ti
0.916666 0.083330 0.072053 Ti
0.916666 0.083330 0.360267 Ti
0.138888 0.861108 0.144107 Ti
0.138888 0.527774 0.144107 Ti
0.249999 0.749996 0.216160 Ti
0.472221 0.861108 0.144107 Ti
0.138888 0.194441 0.144107 Ti
0.250000 0.416663 0.216160 Ti
0.472222 0.527774 0.144107 Ti
0.583333 0.749996 0.216160 Ti
0.250000 0.083330 0.216160 Ti
0.805555 0.861108 0.144107 Ti
0.472222 0.194441 0.144107 Ti
0.583333 0.416663 0.216160 Ti
0.805555 0.527774 0.144107 Ti
0.916666 0.749996 0.216160 Ti
0.583333 0.083330 0.216160 Ti
0.805555 0.194441 0.144107 Ti
0.916666 0.416663 0.216160 Ti
0.916666 0.083330 0.216160 Ti
