Ti66 Nb1
1.0
6.309760 0.000000 0.000000
0.000000 9.464640 0.000000
0.000000 0.000000 18.918326
Ti Nb
66 1
Selective dynamics
direct
0.152673 0.022695 0.497403 T T T Ti
0.594982 0.021825 0.497499 T T T Ti
0.115342 0.051962 0.645291 T T T Ti
0.633991 0.051723 0.645569 T T T Ti
0.124785 0.041817 0.817578 F F F Ti
0.625324 0.041805 0.817611 F F F Ti
0.131907 0.386090 0.483654 T T T Ti
0.622593 0.392840 0.485048 T T T Ti
0.139464 0.351934 0.642830 T T T Ti
0.610359 0.352424 0.643309 T T T Ti
0.125870 0.375087 0.817684 F F F Ti
0.624254 0.375027 0.817734 F F F Ti
0.111916 0.693465 0.485764 T T T Ti
0.637791 0.694334 0.485850 T T T Ti
0.108132 0.696150 0.654506 T T T Ti
0.641913 0.696261 0.654579 T T T Ti
0.125468 0.708597 0.817573 F F F Ti
0.624636 0.708612 0.817607 F F F Ti
0.869597 0.203886 0.538785 T T T Ti
0.375070 0.207265 0.738706 F F F Ti
0.875237 0.209731 0.738697 F F F Ti
0.375101 0.208252 0.896798 F F F Ti
0.874941 0.208552 0.896788 F F F Ti
0.374890 0.532045 0.567832 T T T Ti
0.875946 0.519670 0.562907 T T T Ti
0.375293 0.541777 0.738572 F F F Ti
0.874965 0.540784 0.738851 F F F Ti
0.375135 0.541830 0.896792 F F F Ti
0.874985 0.541743 0.896771 F F F Ti
0.375121 0.850966 0.578094 T T T Ti
0.874648 0.863014 0.565199 T T T Ti
0.374988 0.876028 0.737939 F F F Ti
0.874977 0.875201 0.738798 F F F Ti
0.375072 0.875170 0.896669 F F F Ti
0.875012 0.875065 0.896817 F F F Ti
0.113347 0.634667 0.358722 T T T Ti
0.635806 0.635491 0.358547 T T T Ti
0.125651 0.624931 0.118944 F F F Ti
0.624214 0.624949 0.118926 F F F Ti
0.119672 0.142717 0.371041 T T T Ti
0.630111 0.142342 0.370723 T T T Ti
0.125102 0.124811 0.118782 F F F Ti
0.624496 0.124828 0.118686 F F F Ti
0.125112 0.374931 0.039664 F F F Ti
0.624849 0.374983 0.039669 F F F Ti
0.125173 0.874884 0.039667 F F F Ti
0.624715 0.874848 0.039659 F F F Ti
0.141304 0.383566 0.281654 T T T Ti
0.607711 0.383985 0.281356 T T T Ti
0.104957 0.890524 0.279472 T T T Ti
0.643930 0.890337 0.279335 T T T Ti
0.374929 0.874641 0.158524 F F F Ti
0.875030 0.874749 0.158139 F F F Ti
0.374977 0.374830 0.158309 F F F Ti
0.875277 0.374985 0.158222 F F F Ti
0.872103 0.405710 0.394220 T T T Ti
0.373934 0.872757 0.392440 T T T Ti
0.872892 0.889184 0.408691 T T T Ti
0.374478 0.634377 0.245140 T T T Ti
0.874725 0.623020 0.242783 T T T Ti
0.374992 0.624967 0.000283 F F F Ti
0.875136 0.624951 0.000261 F F F Ti
0.374497 0.123010 0.247625 T T T Ti
0.873023 0.141592 0.248775 T T T Ti
0.374928 0.124858 0.000237 F F F Ti
0.874984 0.124927 0.000186 F F F Ti
0.390564 0.237098 0.449440 T T T Nb

0.000000 0.000000 0.000000
0.000000 0.000000 0.000000
0.000000 0.000000 0.000000
0.000000 0.000000 0.000000
0.000000 0.000000 0.000000
0.000000 0.000000 0.000000
0.000000 0.000000 0.000000
0.000000 0.000000 0.000000
0.000000 0.000000 0.000000
0.000000 0.000000 0.000000
0.000000 0.000000 0.000000
0.000000 0.000000 0.000000
0.000000 0.000000 0.000000
0.000000 0.000000 0.000000
0.000000 0.000000 0.000000
0.000000 0.000000 0.000000
0.000000 0.000000 0.000000
0.000000 0.000000 0.000000
0.000000 0.000000 0.000000
0.000000 0.000000 0.000000
0.000000 0.000000 0.000000
0.000000 0.000000 0.000000
0.000000 0.000000 0.000000
0.000000 0.000000 0.000000
0.000000 0.000000 0.000000
0.000000 0.000000 0.000000
0.000000 0.000000 0.000000
0.000000 0.000000 0.000000
0.000000 0.000000 0.000000
0.000000 0.000000 0.000000
0.000000 0.000000 0.000000
0.000000 0.000000 0.000000
0.000000 0.000000 0.000000
0.000000 0.000000 0.000000
0.000000 0.000000 0.000000
0.000000 0.000000 0.000000
0.000000 0.000000 0.000000
0.000000 0.000000 0.000000
0.000000 0.000000 0.000000
0.000000 0.000000 0.000000
0.000000 0.000000 0.000000
0.000000 0.000000 0.000000
0.000000 0.000000 0.000000
0.000000 0.000000 0.000000
0.000000 0.000000 0.000000
0.000000 0.000000 0.000000
0.000000 0.000000 0.000000
0.000000 0.000000 0.000000
0.000000 0.000000 0.000000
0.000000 0.000000 0.000000
0.000000 0.000000 0.000000
0.000000 0.000000 0.000000
0.000000 0.000000 0.000000
0.000000 0.000000 0.000000
0.000000 0.000000 0.000000
0.000000 0.000000 0.000000
0.000000 0.000000 0.000000
0.000000 0.000000 0.000000
0.000000 0.000000 0.000000
0.000000 0.000000 0.000000
0.000000 0.000000 0.000000
0.000000 0.000000 0.000000
0.000000 0.000000 0.000000
0.000000 0.000000 0.000000
0.000000 0.000000 0.000000
0.000000 0.000000 0.000000
0.000000 0.000000 0.000000
