Ti36
1.0
8.805261 0.000000 0.000000
-4.402630 7.625579 0.000000
0.000000 0.000000 19.188801
Ti
36
direct
0.000000 0.000000 0.486843 Ti
1.000000 0.500000 0.486843 Ti
0.500000 0.000000 0.486843 Ti
0.500000 0.500000 0.486843 Ti
0.166667 0.333333 0.824136 Ti
0.166667 0.833333 0.824136 Ti
0.666667 0.333333 0.824136 Ti
0.666667 0.833333 0.824136 Ti
0.333333 0.166667 0.872321 Ti
0.333333 0.666667 0.872321 Ti
0.833333 0.166667 0.872321 Ti
0.833333 0.666667 0.872321 Ti
0.166667 0.333333 0.535028 Ti
0.166667 0.833333 0.535028 Ti
0.666667 0.333333 0.535028 Ti
0.666667 0.833333 0.535028 Ti
0.333333 0.166667 0.583212 Ti
0.333333 0.666667 0.583212 Ti
0.833333 0.166667 0.583212 Ti
0.833333 0.666667 0.583212 Ti
0.000000 0.000000 0.631397 Ti
1.000000 0.500000 0.631397 Ti
0.500000 0.000000 0.631397 Ti
0.500000 0.500000 0.631397 Ti
0.166667 0.333333 0.679582 Ti
0.166667 0.833333 0.679582 Ti
0.666667 0.333333 0.679582 Ti
0.666667 0.833333 0.679582 Ti
0.333333 0.166667 0.727766 Ti
0.333333 0.666667 0.727766 Ti
0.833333 0.166667 0.727766 Ti
0.833333 0.666667 0.727766 Ti
0.000000 0.000000 0.775951 Ti
1.000000 0.500000 0.775951 Ti
0.500000 0.000000 0.775951 Ti
0.500000 0.500000 0.775951 Ti

0.000000 0.000000 0.000000
0.000000 0.000000 0.000000
0.000000 0.000000 0.000000
0.000000 0.000000 0.000000
0.000000 0.000000 0.000000
0.000000 0.000000 0.000000
0.000000 0.000000 0.000000
0.000000 0.000000 0.000000
0.000000 0.000000 0.000000
0.000000 0.000000 0.000000
0.000000 0.000000 0.000000
0.000000 0.000000 0.000000
0.000000 0.000000 0.000000
0.000000 0.000000 0.000000
0.000000 0.000000 0.000000
0.000000 0.000000 0.000000
0.000000 0.000000 0.000000
0.000000 0.000000 0.000000
0.000000 0.000000 0.000000
0.000000 0.000000 0.000000
0.000000 0.000000 0.000000
0.000000 0.000000 0.000000
0.000000 0.000000 0.000000
0.000000 0.000000 0.000000
0.000000 0.000000 0.000000
0.000000 0.000000 0.000000
0.000000 0.000000 0.000000
0.000000 0.000000 0.000000
0.000000 0.000000 0.000000
0.000000 0.000000 0.000000
0.000000 0.000000 0.000000
0.000000 0.000000 0.000000
0.000000 0.000000 0.000000
0.000000 0.000000 0.000000
0.000000 0.000000 0.000000
0.000000 0.000000 0.000000
