Ti66 Mo1
1.0
6.309760 0.000000 0.000000
0.000000 9.464640 0.000000
0.000000 0.000000 18.918326
Ti Mo
66 1
Selective dynamics
direct
0.125127 0.041857 0.500022 F F F Ti
0.625222 0.041462 0.500175 F F F Ti
0.125090 0.041510 0.658733 F F F Ti
0.625061 0.041475 0.658758 F F F Ti
0.125052 0.041560 0.817225 F F F Ti
0.624967 0.041547 0.817216 F F F Ti
0.125430 0.375285 0.500856 F F F Ti
0.625015 0.375005 0.502132 F F F Ti
0.124964 0.375010 0.658917 F F F Ti
0.625040 0.374983 0.659067 F F F Ti
0.124998 0.374979 0.817286 F F F Ti
0.624931 0.374981 0.817288 F F F Ti
0.125144 0.708210 0.500062 F F F Ti
0.624698 0.708754 0.500229 F F F Ti
0.125003 0.708528 0.658749 F F F Ti
0.624949 0.708595 0.658793 F F F Ti
0.125006 0.708259 0.817262 F F F Ti
0.624928 0.708274 0.817257 F F F Ti
0.374905 0.207972 0.579696 F F F Ti
0.875301 0.207976 0.579747 F F F Ti
0.374998 0.208218 0.738024 F F F Ti
0.875027 0.208210 0.738039 F F F Ti
0.374987 0.208243 0.896367 F F F Ti
0.875011 0.208252 0.896341 F F F Ti
0.375001 0.542142 0.579832 F F F Ti
0.875106 0.542219 0.579868 F F F Ti
0.374987 0.541748 0.738064 F F F Ti
0.874993 0.541765 0.738078 F F F Ti
0.374957 0.541578 0.896474 F F F Ti
0.874996 0.541587 0.896459 F F F Ti
0.374889 0.875098 0.579371 F F F Ti
0.875186 0.875047 0.579381 F F F Ti
0.374977 0.874969 0.737971 F F F Ti
0.875012 0.874968 0.737976 F F F Ti
0.375007 0.874785 0.896404 F F F Ti
0.875035 0.874775 0.896384 F F F Ti
0.125377 0.624776 0.357256 F F F Ti
0.625398 0.625622 0.356807 F F F Ti
0.125277 0.623637 0.119084 F F F Ti
0.624774 0.624141 0.118995 F F F Ti
0.628203 0.124451 0.356978 F F F Ti
0.125304 0.123654 0.118585 F F F Ti
0.625086 0.123935 0.117694 F F F Ti
0.125247 0.374442 0.039584 F F F Ti
0.624788 0.374752 0.039295 F F F Ti
0.125089 0.874179 0.039438 F F F Ti
0.624993 0.874105 0.039284 F F F Ti
0.630480 0.373993 0.277703 F F F Ti
0.125367 0.873823 0.277298 F F F Ti
0.625147 0.872568 0.277583 F F F Ti
0.375375 0.873034 0.158233 F F F Ti
0.874906 0.872685 0.158068 F F F Ti
0.376520 0.373618 0.158465 F F F Ti
0.873194 0.374067 0.157642 F F F Ti
0.384988 0.377723 0.399283 F F F Ti
0.864582 0.378904 0.400248 F F F Ti
0.374861 0.875427 0.396414 F F F Ti
0.875660 0.874919 0.396485 F F F Ti
0.374510 0.622826 0.238166 F F F Ti
0.875890 0.623671 0.237977 F F F Ti
0.374837 0.624549 0.000042 F F F Ti
0.875150 0.624560 0.000028 F F F Ti
0.384106 0.119748 0.236414 F F F Ti
0.865053 0.118217 0.235545 F F F Ti
0.374819 0.124543 -0.000258 F F F Ti
0.875312 0.124543 -0.000292 F F F Ti
0.113705 0.309356 0.295171 T T T Mo

0.000000 0.000000 0.000000
0.000000 0.000000 0.000000
0.000000 0.000000 0.000000
0.000000 0.000000 0.000000
0.000000 0.000000 0.000000
0.000000 0.000000 0.000000
0.000000 0.000000 0.000000
0.000000 0.000000 0.000000
0.000000 0.000000 0.000000
0.000000 0.000000 0.000000
0.000000 0.000000 0.000000
0.000000 0.000000 0.000000
0.000000 0.000000 0.000000
0.000000 0.000000 0.000000
0.000000 0.000000 0.000000
0.000000 0.000000 0.000000
0.000000 0.000000 0.000000
0.000000 0.000000 0.000000
0.000000 0.000000 0.000000
0.000000 0.000000 0.000000
0.000000 0.000000 0.000000
0.000000 0.000000 0.000000
0.000000 0.000000 0.000000
0.000000 0.000000 0.000000
0.000000 0.000000 0.000000
0.000000 0.000000 0.000000
0.000000 0.000000 0.000000
0.000000 0.000000 0.000000
0.000000 0.000000 0.000000
0.000000 0.000000 0.000000
0.000000 0.000000 0.000000
0.000000 0.000000 0.000000
0.000000 0.000000 0.000000
0.000000 0.000000 0.000000
0.000000 0.000000 0.000000
0.000000 0.000000 0.000000
0.000000 0.000000 0.000000
0.000000 0.000000 0.000000
0.000000 0.000000 0.000000
0.000000 0.000000 0.000000
0.000000 0.000000 0.000000
0.000000 0.000000 0.000000
0.000000 0.000000 0.000000
0.000000 0.000000 0.000000
0.000000 0.000000 0.000000
0.000000 0.000000 0.000000
0.000000 0.000000 0.000000
0.000000 0.000000 0.000000
0.000000 0.000000 0.000000
0.000000 0.000000 0.000000
0.000000 0.000000 0.000000
0.000000 0.000000 0.000000
0.000000 0.000000 0.000000
0.000000 0.000000 0.000000
0.000000 0.000000 0.000000
0.000000 0.000000 0.000000
0.000000 0.000000 0.000000
0.000000 0.000000 0.000000
0.000000 0.000000 0.000000
0.000000 0.000000 0.000000
0.000000 0.000000 0.000000
0.000000 0.000000 0.000000
0.000000 0.000000 0.000000
0.000000 0.000000 0.000000
0.000000 0.000000 0.000000
0.000000 0.000000 0.000000
0.000000 0.000000 0.000000
