Zr1 Ti82
1.0
6.391540 0.000000 0.000000
0.000000 9.587310 0.000000
0.000000 0.000000 23.271695
Ti Zr
82 1
Selective dynamics
direct
0.123864 0.083470 0.580751 F F F Ti
0.623352 0.083495 0.580833 F F F Ti
0.124918 0.083353 0.709551 F F F Ti
0.624824 0.083354 0.709556 F F F Ti
0.124997 0.083339 0.838422 F F F Ti
0.624978 0.083340 0.838422 F F F Ti
0.124788 0.417624 0.581315 F F F Ti
0.625054 0.416932 0.580709 F F F Ti
0.124972 0.416737 0.709635 F F F Ti
0.624888 0.416710 0.709577 F F F Ti
0.124997 0.416671 0.838437 F F F Ti
0.624975 0.416669 0.838431 F F F Ti
0.124851 0.750103 0.580788 F F F Ti
0.624838 0.750055 0.580721 F F F Ti
0.124974 0.750088 0.709587 F F F Ti
0.624881 0.750094 0.709583 F F F Ti
0.124995 0.750022 0.838434 F F F Ti
0.624973 0.750023 0.838433 F F F Ti
0.374800 0.250100 0.645091 F F F Ti
0.874563 0.250064 0.645211 F F F Ti
0.374979 0.249998 0.773982 F F F Ti
0.874941 0.249998 0.774004 F F F Ti
0.374996 0.249990 0.902852 F F F Ti
0.875006 0.249991 0.902856 F F F Ti
0.375226 0.583576 0.645198 F F F Ti
0.874656 0.583591 0.645257 F F F Ti
0.375004 0.583374 0.774011 F F F Ti
0.874943 0.583373 0.774021 F F F Ti
0.374993 0.583327 0.902858 F F F Ti
0.874996 0.583327 0.902859 F F F Ti
0.374738 0.916735 0.645054 F F F Ti
0.874674 0.916681 0.645152 F F F Ti
0.374956 0.916695 0.773975 F F F Ti
0.874954 0.916687 0.773993 F F F Ti
0.374987 0.916676 0.902848 F F F Ti
0.875003 0.916674 0.902850 F F F Ti
0.633919 0.167365 0.385750 F F F Ti
0.124469 0.665990 0.386611 F F F Ti
0.626492 0.665538 0.386569 F F F Ti
0.125014 0.166667 -0.000017 F F F Ti
0.625003 0.166664 -0.000022 F F F Ti
0.125013 0.666659 -0.000029 F F F Ti
0.625008 0.666654 -0.000032 F F F Ti
0.125026 0.833316 0.096611 F F F Ti
0.625054 0.833312 0.096598 F F F Ti
0.123517 0.831606 0.483543 F F F Ti
0.624762 0.832578 0.483503 F F F Ti
0.125049 0.333307 0.096650 F F F Ti
0.625031 0.333335 0.096630 F F F Ti
0.118189 0.340634 0.484817 F F F Ti
0.626264 0.334685 0.483461 F F F Ti
0.375624 0.584093 0.483531 F F F Ti
0.873678 0.584516 0.483578 F F F Ti
0.375009 0.583292 0.096613 F F F Ti
0.875087 0.583286 0.096605 F F F Ti
0.375017 0.083340 0.096635 F F F Ti
0.875094 0.083344 0.096626 F F F Ti
0.864579 0.082457 0.484632 F F F Ti
0.376572 0.418438 0.386547 F F F Ti
0.875024 0.417378 0.386622 F F F Ti
0.381312 0.909647 0.385083 F F F Ti
0.873532 0.915245 0.386639 F F F Ti
0.374990 0.416654 -0.000020 F F F Ti
0.875012 0.416651 -0.000021 F F F Ti
0.374998 0.916667 -0.000024 F F F Ti
0.875010 0.916667 -0.000024 F F F Ti
0.376329 0.083005 0.289733 F F F Ti
0.876116 0.082973 0.289875 F F F Ti
0.125170 0.166649 0.193340 F F F Ti
0.625283 0.166647 0.193236 F F F Ti
0.125444 0.333119 0.290123 F F F Ti
0.625628 0.333548 0.289767 F F F Ti
0.374995 0.416591 0.193291 F F F Ti
0.875257 0.416573 0.193282 F F F Ti
0.375142 0.583233 0.289815 F F F Ti
0.875549 0.583136 0.289828 F F F Ti
0.125057 0.666533 0.193221 F F F Ti
0.625169 0.666453 0.193168 F F F Ti
0.124779 0.832962 0.289810 F F F Ti
0.626502 0.832661 0.289518 F F F Ti
0.375073 0.916554 0.193214 F F F Ti
0.875153 0.916640 0.193221 F F F Ti
0.243315 0.125110 0.434910 T T T Zr

0.000000 0.000000 0.000000
0.000000 0.000000 0.000000
0.000000 0.000000 0.000000
0.000000 0.000000 0.000000
0.000000 0.000000 0.000000
0.000000 0.000000 0.000000
0.000000 0.000000 0.000000
0.000000 0.000000 0.000000
0.000000 0.000000 0.000000
0.000000 0.000000 0.000000
0.000000 0.000000 0.000000
0.000000 0.000000 0.000000
0.000000 0.000000 0.000000
0.000000 0.000000 0.000000
0.000000 0.000000 0.000000
0.000000 0.000000 0.000000
0.000000 0.000000 0.000000
0.000000 0.000000 0.000000
0.000000 0.000000 0.000000
0.000000 0.000000 0.000000
0.000000 0.000000 0.000000
0.000000 0.000000 0.000000
0.000000 0.000000 0.000000
0.000000 0.000000 0.000000
0.000000 0.000000 0.000000
0.000000 0.000000 0.000000
0.000000 0.000000 0.000000
0.000000 0.000000 0.000000
0.000000 0.000000 0.000000
0.000000 0.000000 0.000000
0.000000 0.000000 0.000000
0.000000 0.000000 0.000000
0.000000 0.000000 0.000000
0.000000 0.000000 0.000000
0.000000 0.000000 0.000000
0.000000 0.000000 0.000000
0.000000 0.000000 0.000000
0.000000 0.000000 0.000000
0.000000 0.000000 0.000000
0.000000 0.000000 0.000000
0.000000 0.000000 0.000000
0.000000 0.000000 0.000000
0.000000 0.000000 0.000000
0.000000 0.000000 0.000000
0.000000 0.000000 0.000000
0.000000 0.000000 0.000000
0.000000 0.000000 0.000000
0.000000 0.000000 0.000000
0.000000 0.000000 0.000000
0.000000 0.000000 0.000000
0.000000 0.000000 0.000000
0.000000 0.000000 0.000000
0.000000 0.000000 0.000000
0.000000 0.000000 0.000000
0.000000 0.000000 0.000000
0.000000 0.000000 0.000000
0.000000 0.000000 0.000000
0.000000 0.000000 0.000000
0.000000 0.000000 0.000000
0.000000 0.000000 0.000000
0.000000 0.000000 0.000000
0.000000 0.000000 0.000000
0.000000 0.000000 0.000000
0.000000 0.000000 0.000000
0.000000 0.000000 0.000000
0.000000 0.000000 0.000000
0.000000 0.000000 0.000000
0.000000 0.000000 0.000000
0.000000 0.000000 0.000000
0.000000 0.000000 0.000000
0.000000 0.000000 0.000000
0.000000 0.000000 0.000000
0.000000 0.000000 0.000000
0.000000 0.000000 0.000000
0.000000 0.000000 0.000000
0.000000 0.000000 0.000000
0.000000 0.000000 0.000000
0.000000 0.000000 0.000000
0.000000 0.000000 0.000000
0.000000 0.000000 0.000000
0.000000 0.000000 0.000000
0.000000 0.000000 0.000000
0.000000 0.000000 0.000000
