Ti82 Sn1
1.0
6.391540 0.000000 0.000000
0.000000 9.587310 0.000000
0.000000 0.000000 23.271695
Ti Sn
82 1
Selective dynamics
direct
0.633362 0.080167 0.579764 F F F Ti
0.121454 0.081407 0.710583 F F F Ti
0.625563 0.082408 0.709776 F F F Ti
0.124781 0.083228 0.838583 F F F Ti
0.624703 0.083264 0.838529 F F F Ti
0.119635 0.421114 0.579825 F F F Ti
0.626533 0.417900 0.580169 F F F Ti
0.123725 0.417009 0.709637 F F F Ti
0.624113 0.416695 0.709545 F F F Ti
0.124915 0.416587 0.838461 F F F Ti
0.624714 0.416611 0.838468 F F F Ti
0.124768 0.750354 0.580534 F F F Ti
0.625174 0.749536 0.580436 F F F Ti
0.124742 0.749558 0.709657 F F F Ti
0.625020 0.749485 0.709687 F F F Ti
0.124934 0.749798 0.838536 F F F Ti
0.624785 0.749764 0.838564 F F F Ti
0.870116 0.250681 0.645297 F F F Ti
0.374508 0.249755 0.773977 F F F Ti
0.874165 0.250099 0.774137 F F F Ti
0.374914 0.249978 0.902905 F F F Ti
0.874862 0.249999 0.902930 F F F Ti
0.374690 0.583489 0.645009 F F F Ti
0.874116 0.583894 0.645221 F F F Ti
0.374784 0.583176 0.774033 F F F Ti
0.874682 0.583196 0.774104 F F F Ti
0.374918 0.583234 0.902926 F F F Ti
0.874944 0.583226 0.902937 F F F Ti
0.376273 0.914199 0.645310 F F F Ti
0.875137 0.915898 0.645233 F F F Ti
0.375032 0.916234 0.774150 F F F Ti
0.874270 0.916009 0.774255 F F F Ti
0.374931 0.916582 0.902944 F F F Ti
0.874867 0.916573 0.902955 F F F Ti
0.125144 0.166688 0.386629 F F F Ti
0.625207 0.166653 0.386585 F F F Ti
0.125058 0.666708 0.386664 F F F Ti
0.624916 0.666674 0.386606 F F F Ti
0.124980 0.166655 0.000031 F F F Ti
0.624955 0.166655 0.000034 F F F Ti
0.124985 0.666633 0.000031 F F F Ti
0.624955 0.666631 0.000035 F F F Ti
0.124995 0.833329 0.096688 F F F Ti
0.624980 0.833330 0.096689 F F F Ti
0.125125 0.833537 0.483379 F F F Ti
0.625193 0.833147 0.483237 F F F Ti
0.124995 0.333328 0.096682 F F F Ti
0.624977 0.333330 0.096682 F F F Ti
0.124737 0.333760 0.483116 F F F Ti
0.625653 0.333475 0.483111 F F F Ti
0.375100 0.583667 0.483212 F F F Ti
0.874664 0.583833 0.483115 F F F Ti
0.375000 0.583319 0.096683 F F F Ti
0.875012 0.583322 0.096684 F F F Ti
0.374989 0.083336 0.096685 F F F Ti
0.875003 0.083337 0.096685 F F F Ti
0.375881 0.083189 0.483130 F F F Ti
0.876061 0.083402 0.483111 F F F Ti
0.375061 0.416706 0.386613 F F F Ti
0.874973 0.416753 0.386569 F F F Ti
0.375008 0.916630 0.386642 F F F Ti
0.875093 0.916631 0.386639 F F F Ti
0.374964 0.416648 0.000028 F F F Ti
0.874968 0.416653 0.000035 F F F Ti
0.374968 0.916645 0.000051 F F F Ti
0.874963 0.916642 0.000056 F F F Ti
0.374996 0.083328 0.289997 F F F Ti
0.875022 0.083323 0.289990 F F F Ti
0.124991 0.166661 0.193345 F F F Ti
0.624990 0.166657 0.193340 F F F Ti
0.124995 0.333339 0.289991 F F F Ti
0.624989 0.333340 0.289973 F F F Ti
0.374977 0.416668 0.193339 F F F Ti
0.874987 0.416668 0.193337 F F F Ti
0.374994 0.583352 0.289986 F F F Ti
0.875024 0.583364 0.289978 F F F Ti
0.124993 0.666663 0.193346 F F F Ti
0.624981 0.666660 0.193342 F F F Ti
0.124987 0.833337 0.290003 F F F Ti
0.624999 0.833338 0.289989 F F F Ti
0.374977 0.916659 0.193346 F F F Ti
0.874989 0.916656 0.193344 F F F Ti
0.309619 0.205812 0.624471 T T T Sn

0.000000 0.000000 0.000000
0.000000 0.000000 0.000000
0.000000 0.000000 0.000000
0.000000 0.000000 0.000000
0.000000 0.000000 0.000000
0.000000 0.000000 0.000000
0.000000 0.000000 0.000000
0.000000 0.000000 0.000000
0.000000 0.000000 0.000000
0.000000 0.000000 0.000000
0.000000 0.000000 0.000000
0.000000 0.000000 0.000000
0.000000 0.000000 0.000000
0.000000 0.000000 0.000000
0.000000 0.000000 0.000000
0.000000 0.000000 0.000000
0.000000 0.000000 0.000000
0.000000 0.000000 0.000000
0.000000 0.000000 0.000000
0.000000 0.000000 0.000000
0.000000 0.000000 0.000000
0.000000 0.000000 0.000000
0.000000 0.000000 0.000000
0.000000 0.000000 0.000000
0.000000 0.000000 0.000000
0.000000 0.000000 0.000000
0.000000 0.000000 0.000000
0.000000 0.000000 0.000000
0.000000 0.000000 0.000000
0.000000 0.000000 0.000000
0.000000 0.000000 0.000000
0.000000 0.000000 0.000000
0.000000 0.000000 0.000000
0.000000 0.000000 0.000000
0.000000 0.000000 0.000000
0.000000 0.000000 0.000000
0.000000 0.000000 0.000000
0.000000 0.000000 0.000000
0.000000 0.000000 0.000000
0.000000 0.000000 0.000000
0.000000 0.000000 0.000000
0.000000 0.000000 0.000000
0.000000 0.000000 0.000000
0.000000 0.000000 0.000000
0.000000 0.000000 0.000000
0.000000 0.000000 0.000000
0.000000 0.000000 0.000000
0.000000 0.000000 0.000000
0.000000 0.000000 0.000000
0.000000 0.000000 0.000000
0.000000 0.000000 0.000000
0.000000 0.000000 0.000000
0.000000 0.000000 0.000000
0.000000 0.000000 0.000000
0.000000 0.000000 0.000000
0.000000 0.000000 0.000000
0.000000 0.000000 0.000000
0.000000 0.000000 0.000000
0.000000 0.000000 0.000000
0.000000 0.000000 0.000000
0.000000 0.000000 0.000000
0.000000 0.000000 0.000000
0.000000 0.000000 0.000000
0.000000 0.000000 0.000000
0.000000 0.000000 0.000000
0.000000 0.000000 0.000000
0.000000 0.000000 0.000000
0.000000 0.000000 0.000000
0.000000 0.000000 0.000000
0.000000 0.000000 0.000000
0.000000 0.000000 0.000000
0.000000 0.000000 0.000000
0.000000 0.000000 0.000000
0.000000 0.000000 0.000000
0.000000 0.000000 0.000000
0.000000 0.000000 0.000000
0.000000 0.000000 0.000000
0.000000 0.000000 0.000000
0.000000 0.000000 0.000000
0.000000 0.000000 0.000000
0.000000 0.000000 0.000000
0.000000 0.000000 0.000000
0.000000 0.000000 0.000000
