Ti96 Al1                                
   1.00000000000000     
     9.5130199999999991    0.0000000000000000    0.0000000000000000
     0.0000000000000000    9.3508600000000008    0.0000000000000000
     0.0000000000000000    0.0000000000000000   18.5472299999999990
   Ti   Al
    96     1
Selective dynamics
Direct
  0.1531182476590307  0.3884280319704070  0.4051958065540793   T   T   T
  0.6562085521410399  0.3390183628471958  0.4215875789962775   T   T   T
  0.1306035419458918  0.8539608665549739  0.4182171120838019   T   T   T
  0.6461842791045633  0.8523949980133614  0.3989637392647229   T   T   T
  0.1392740346461537  0.3586934659958620  0.2432547522237454   T   T   T
  0.6577403888827855  0.3701841692666338  0.2362674381306566   T   T   T
  0.1707945991053361  0.8641300886198655  0.2368444987581585   T   T   T
  0.6840358346753598  0.9145979552920428  0.2327367418273783   T   T   T
  0.1666659999999993  0.3750000000000000  0.0776889999999995   F   F   F
  0.6666659999999993  0.3750000000000000  0.0776889999999995   F   F   F
  0.1666659999999993  0.8750000000000000  0.0776889999999995   F   F   F
  0.6666659999999993  0.8750000000000000  0.0776889999999995   F   F   F
  0.4066536547573525  0.3754876577990790  0.3269337143943003   T   T   T
  0.8931290307616602  0.3757729964253291  0.3306487502277878   T   T   T
  0.3555249948931994  0.9344749535716439  0.3437112350042554   T   T   T
  0.9144575204146685  0.8766344621399540  0.3160293940550529   T   T   T
  0.4166669999999968  0.3750000000000000  0.1553790000000035   F   F   F
  0.9166669999999968  0.3750000000000000  0.1553790000000035   F   F   F
  0.4166669999999968  0.8750000000000000  0.1553790000000035   F   F   F
  0.9166669999999968  0.8750000000000000  0.1553790000000035   F   F   F
  0.4166669999999968  0.3750000000000000  0.0000000000000000   F   F   F
  0.9166669999999968  0.3750000000000000  0.0000000000000000   F   F   F
  0.4166669999999968  0.8750000000000000  0.0000000000000000   F   F   F
  0.9166669999999968  0.8750000000000000  0.0000000000000000   F   F   F
  0.1068709692383396  0.1242270035746709  0.3306477502277833   T   T   T
  0.5933463452426474  0.1245123422009210  0.3269327143942957   T   T   T
  0.0855424795853313  0.6233655378600460  0.3160283940550483   T   T   T
  0.6444750051068007  0.5655250464283561  0.3437102350042508   T   T   T
  0.0833330000000032  0.1250000000000000  0.1553790000000035   F   F   F
  0.5833330000000032  0.1250000000000000  0.1553790000000035   F   F   F
  0.0833330000000032  0.6250000000000000  0.1553790000000035   F   F   F
  0.5833330000000032  0.6250000000000000  0.1553790000000035   F   F   F
  0.0833330000000032  0.1250000000000000  0.0000000000000000   F   F   F
  0.5833330000000032  0.1250000000000000  0.0000000000000000   F   F   F
  0.0833330000000032  0.6250000000000000  0.0000000000000000   F   F   F
  0.5833330000000032  0.6250000000000000  0.0000000000000000   F   F   F
  0.3437904478589630  0.1609816371528042  0.4215875789962775   T   T   T
  0.8468807523409716  0.1115719680295932  0.4051958065540793   T   T   T
  0.3538147208954388  0.6476050019866386  0.3989637392647229   T   T   T
  0.8693954580541108  0.6460391334450261  0.4182171120838019   T   T   T
  0.3422586111172167  0.1298158307333662  0.2362674381306566   T   T   T
  0.8607249653538489  0.1413065340041380  0.2432547522237454   T   T   T
  0.3159631653246428  0.5854020447079572  0.2327367418273783   T   T   T
  0.8292044008946666  0.6358699113801345  0.2368444987581585   T   T   T
  0.3333330000000032  0.1250000000000000  0.0776889999999995   F   F   F
  0.8333330000000032  0.1250000000000000  0.0776889999999995   F   F   F
  0.3333330000000032  0.6250000000000000  0.0776889999999995   F   F   F
  0.8333330000000032  0.6250000000000000  0.0776889999999995   F   F   F
  0.3750000000000000  0.3750000000000000  0.8237379999999987   F   F   F
  0.8750000000000000  0.3750000000000000  0.8237379999999987   F   F   F
  0.3750000000000000  0.8750000000000000  0.8237379999999987   F   F   F
  0.8750000000000000  0.8750000000000000  0.8237379999999987   F   F   F
  0.1250000000000000  0.1250000000000000  0.8237379999999987   F   F   F
  0.6250000000000000  0.1250000000000000  0.8237379999999987   F   F   F
  0.1250000000000000  0.6250000000000000  0.8237379999999987   F   F   F
  0.6250000000000000  0.6250000000000000  0.8237379999999987   F   F   F
  0.1250000000000000  0.3750000000000000  0.9100839999999977   F   F   F
  0.6250000000000000  0.3750000000000000  0.9100839999999977   F   F   F
  0.1250000000000000  0.8750000000000000  0.9100839999999977   F   F   F
  0.6250000000000000  0.8750000000000000  0.9100839999999977   F   F   F
  0.3750000000000000  0.1250000000000000  0.9100839999999977   F   F   F
  0.8750000000000000  0.1250000000000000  0.9100839999999977   F   F   F
  0.3750000000000000  0.6250000000000000  0.9100839999999977   F   F   F
  0.8750000000000000  0.6250000000000000  0.9100839999999977   F   F   F
  0.3951655843168357  0.3850680229926720  0.6566597484730101   T   T   T
  0.8984291076654198  0.3791880879188798  0.6535271552615444   T   T   T
  0.3995098757835123  0.8842429756583984  0.6515134850172194   T   T   T
  0.8950047528358523  0.8845991903418818  0.6553082452667180   T   T   T
  0.1015708923345805  0.1208119120811202  0.6535271552615444   T   T   T
  0.6048344156831637  0.1149319770073283  0.6566597484730101   T   T   T
  0.1049952471641477  0.6154008096581182  0.6553082452667180   T   T   T
  0.6004901242164882  0.6157570243416016  0.6515134850172194   T   T   T
  0.1544894229189377  0.3628434452177745  0.5723042797215925   T   T   T
  0.6446862877739485  0.3602250817046289  0.5758885372650773   T   T   T
  0.1509507542816142  0.8703868794847608  0.5788284167253074   T   T   T
  0.6528097619903869  0.8646935403811632  0.5749191153082746   T   T   T
  0.3553137122260512  0.1397749182953712  0.5758885372650773   T   T   T
  0.8455105770810624  0.1371565547822255  0.5723042797215925   T   T   T
  0.3471902380096126  0.6353064596188368  0.5749191153082746   T   T   T
  0.8490492457183857  0.6296131205152392  0.5788284167253074   T   T   T
  0.4033953960332397  0.4028945417411009  0.4896907651599603   T   T   T
  0.9043302190229847  0.3787318041644790  0.4891083218320060   T   T   T
  0.3931854274054015  0.8847284954574729  0.4936605690095761   T   T   T
  0.9007070975920570  0.8853657169833578  0.5007743698547521   T   T   T
  0.0956697809770152  0.1212681958355212  0.4891083218320060   T   T   T
  0.5966046039667607  0.0971054582588989  0.4896907651599603   T   T   T
  0.0992929024079427  0.6146342830166422  0.5007743698547521   T   T   T
  0.6068145725945983  0.6152715045425271  0.4936605690095761   T   T   T
  0.1250000000000000  0.8750000000000000  0.7373949999999994   F   F   F
  0.6250000000000000  0.8750000000000000  0.7373949999999994   F   F   F
  0.3750000000000000  0.6250000000000000  0.7373949999999994   F   F   F
  0.8750000000000000  0.6250000000000000  0.7373949999999994   F   F   F
  0.1250000000000000  0.3750000000000000  0.7373949999999994   F   F   F
  0.6250000000000000  0.3750000000000000  0.7373949999999994   F   F   F
  0.3750000000000000  0.1250000000000000  0.7373949999999994   F   F   F
  0.8750000000000000  0.1250000000000000  0.7373949999999994   F   F   F
  0.5000000000000000  0.7500000000000000  0.2796358147591800   T   T   T
 
  0.00000000E+00  0.00000000E+00  0.00000000E+00
  0.00000000E+00  0.00000000E+00  0.00000000E+00
  0.00000000E+00  0.00000000E+00  0.00000000E+00
  0.00000000E+00  0.00000000E+00  0.00000000E+00
  0.00000000E+00  0.00000000E+00  0.00000000E+00
  0.00000000E+00  0.00000000E+00  0.00000000E+00
  0.00000000E+00  0.00000000E+00  0.00000000E+00
  0.00000000E+00  0.00000000E+00  0.00000000E+00
  0.00000000E+00  0.00000000E+00  0.00000000E+00
  0.00000000E+00  0.00000000E+00  0.00000000E+00
  0.00000000E+00  0.00000000E+00  0.00000000E+00
  0.00000000E+00  0.00000000E+00  0.00000000E+00
  0.00000000E+00  0.00000000E+00  0.00000000E+00
  0.00000000E+00  0.00000000E+00  0.00000000E+00
  0.00000000E+00  0.00000000E+00  0.00000000E+00
  0.00000000E+00  0.00000000E+00  0.00000000E+00
  0.00000000E+00  0.00000000E+00  0.00000000E+00
  0.00000000E+00  0.00000000E+00  0.00000000E+00
  0.00000000E+00  0.00000000E+00  0.00000000E+00
  0.00000000E+00  0.00000000E+00  0.00000000E+00
  0.00000000E+00  0.00000000E+00  0.00000000E+00
  0.00000000E+00  0.00000000E+00  0.00000000E+00
  0.00000000E+00  0.00000000E+00  0.00000000E+00
  0.00000000E+00  0.00000000E+00  0.00000000E+00
  0.00000000E+00  0.00000000E+00  0.00000000E+00
  0.00000000E+00  0.00000000E+00  0.00000000E+00
  0.00000000E+00  0.00000000E+00  0.00000000E+00
  0.00000000E+00  0.00000000E+00  0.00000000E+00
  0.00000000E+00  0.00000000E+00  0.00000000E+00
  0.00000000E+00  0.00000000E+00  0.00000000E+00
  0.00000000E+00  0.00000000E+00  0.00000000E+00
  0.00000000E+00  0.00000000E+00  0.00000000E+00
  0.00000000E+00  0.00000000E+00  0.00000000E+00
  0.00000000E+00  0.00000000E+00  0.00000000E+00
  0.00000000E+00  0.00000000E+00  0.00000000E+00
  0.00000000E+00  0.00000000E+00  0.00000000E+00
  0.00000000E+00  0.00000000E+00  0.00000000E+00
  0.00000000E+00  0.00000000E+00  0.00000000E+00
  0.00000000E+00  0.00000000E+00  0.00000000E+00
  0.00000000E+00  0.00000000E+00  0.00000000E+00
  0.00000000E+00  0.00000000E+00  0.00000000E+00
  0.00000000E+00  0.00000000E+00  0.00000000E+00
  0.00000000E+00  0.00000000E+00  0.00000000E+00
  0.00000000E+00  0.00000000E+00  0.00000000E+00
  0.00000000E+00  0.00000000E+00  0.00000000E+00
  0.00000000E+00  0.00000000E+00  0.00000000E+00
  0.00000000E+00  0.00000000E+00  0.00000000E+00
  0.00000000E+00  0.00000000E+00  0.00000000E+00
  0.00000000E+00  0.00000000E+00  0.00000000E+00
  0.00000000E+00  0.00000000E+00  0.00000000E+00
  0.00000000E+00  0.00000000E+00  0.00000000E+00
  0.00000000E+00  0.00000000E+00  0.00000000E+00
  0.00000000E+00  0.00000000E+00  0.00000000E+00
  0.00000000E+00  0.00000000E+00  0.00000000E+00
  0.00000000E+00  0.00000000E+00  0.00000000E+00
  0.00000000E+00  0.00000000E+00  0.00000000E+00
  0.00000000E+00  0.00000000E+00  0.00000000E+00
  0.00000000E+00  0.00000000E+00  0.00000000E+00
  0.00000000E+00  0.00000000E+00  0.00000000E+00
  0.00000000E+00  0.00000000E+00  0.00000000E+00
  0.00000000E+00  0.00000000E+00  0.00000000E+00
  0.00000000E+00  0.00000000E+00  0.00000000E+00
  0.00000000E+00  0.00000000E+00  0.00000000E+00
  0.00000000E+00  0.00000000E+00  0.00000000E+00
  0.00000000E+00  0.00000000E+00  0.00000000E+00
  0.00000000E+00  0.00000000E+00  0.00000000E+00
  0.00000000E+00  0.00000000E+00  0.00000000E+00
  0.00000000E+00  0.00000000E+00  0.00000000E+00
  0.00000000E+00  0.00000000E+00  0.00000000E+00
  0.00000000E+00  0.00000000E+00  0.00000000E+00
  0.00000000E+00  0.00000000E+00  0.00000000E+00
  0.00000000E+00  0.00000000E+00  0.00000000E+00
  0.00000000E+00  0.00000000E+00  0.00000000E+00
  0.00000000E+00  0.00000000E+00  0.00000000E+00
  0.00000000E+00  0.00000000E+00  0.00000000E+00
  0.00000000E+00  0.00000000E+00  0.00000000E+00
  0.00000000E+00  0.00000000E+00  0.00000000E+00
  0.00000000E+00  0.00000000E+00  0.00000000E+00
  0.00000000E+00  0.00000000E+00  0.00000000E+00
  0.00000000E+00  0.00000000E+00  0.00000000E+00
  0.00000000E+00  0.00000000E+00  0.00000000E+00
  0.00000000E+00  0.00000000E+00  0.00000000E+00
  0.00000000E+00  0.00000000E+00  0.00000000E+00
  0.00000000E+00  0.00000000E+00  0.00000000E+00
  0.00000000E+00  0.00000000E+00  0.00000000E+00
  0.00000000E+00  0.00000000E+00  0.00000000E+00
  0.00000000E+00  0.00000000E+00  0.00000000E+00
  0.00000000E+00  0.00000000E+00  0.00000000E+00
  0.00000000E+00  0.00000000E+00  0.00000000E+00
  0.00000000E+00  0.00000000E+00  0.00000000E+00
  0.00000000E+00  0.00000000E+00  0.00000000E+00
  0.00000000E+00  0.00000000E+00  0.00000000E+00
  0.00000000E+00  0.00000000E+00  0.00000000E+00
  0.00000000E+00  0.00000000E+00  0.00000000E+00
  0.00000000E+00  0.00000000E+00  0.00000000E+00
  0.00000000E+00  0.00000000E+00  0.00000000E+00
  0.00000000E+00  0.00000000E+00  0.00000000E+00
