Ti66 Al1
1.0
6.309760 0.000000 0.000000
0.000000 9.464640 0.000000
0.000000 0.000000 18.918326
Ti Al
66 1
Selective dynamics
direct
0.626802 0.041536 0.500035 F F F Ti
0.125132 0.041788 0.658561 F F F Ti
0.625094 0.041745 0.658627 F F F Ti
0.125068 0.041710 0.817219 F F F Ti
0.625037 0.041705 0.817240 F F F Ti
0.125472 0.377705 0.500578 F F F Ti
0.625713 0.375213 0.500456 F F F Ti
0.125199 0.375157 0.658804 F F F Ti
0.625067 0.375057 0.658818 F F F Ti
0.125043 0.374970 0.817263 F F F Ti
0.625010 0.374950 0.817276 F F F Ti
0.125228 0.708320 0.500221 F F F Ti
0.624739 0.707759 0.500509 F F F Ti
0.125154 0.708573 0.658774 F F F Ti
0.624960 0.708602 0.658848 F F F Ti
0.125040 0.708420 0.817275 F F F Ti
0.625008 0.708435 0.817295 F F F Ti
0.375290 0.208544 0.579351 F F F Ti
0.875164 0.208781 0.579591 F F F Ti
0.375052 0.208316 0.737947 F F F Ti
0.875094 0.208327 0.737987 F F F Ti
0.374956 0.208289 0.896573 F F F Ti
0.875095 0.208289 0.896576 F F F Ti
0.375515 0.542024 0.579719 F F F Ti
0.874864 0.542112 0.579770 F F F Ti
0.375081 0.541766 0.738067 F F F Ti
0.875029 0.541773 0.738079 F F F Ti
0.374980 0.541577 0.896534 F F F Ti
0.875041 0.541577 0.896534 F F F Ti
0.375113 0.875265 0.579271 F F F Ti
0.875165 0.874940 0.579441 F F F Ti
0.375002 0.875157 0.737953 F F F Ti
0.875093 0.875134 0.737979 F F F Ti
0.374961 0.875081 0.896571 F F F Ti
0.875103 0.875079 0.896572 F F F Ti
0.125754 0.624330 0.356620 F F F Ti
0.624775 0.624139 0.356388 F F F Ti
0.125165 0.624790 0.118820 F F F Ti
0.625053 0.624808 0.118789 F F F Ti
0.629635 0.124742 0.356843 F F F Ti
0.125305 0.124856 0.119033 F F F Ti
0.624881 0.124889 0.118977 F F F Ti
0.125091 0.374868 0.039669 F F F Ti
0.624976 0.374875 0.039653 F F F Ti
0.125109 0.874953 0.039638 F F F Ti
0.625009 0.874968 0.039619 F F F Ti
0.125164 0.375145 0.277574 F F F Ti
0.625467 0.374571 0.277377 F F F Ti
0.125226 0.873303 0.277256 F F F Ti
0.625486 0.874682 0.277057 F F F Ti
0.375102 0.874880 0.158506 F F F Ti
0.875162 0.874734 0.158401 F F F Ti
0.375061 0.374660 0.158611 F F F Ti
0.875146 0.374787 0.158489 F F F Ti
0.377968 0.377650 0.396702 F F F Ti
0.872102 0.379683 0.396756 F F F Ti
0.380108 0.870769 0.396305 F F F Ti
0.868733 0.868125 0.396302 F F F Ti
0.375392 0.624540 0.237603 F F F Ti
0.874971 0.624447 0.237575 F F F Ti
0.375053 0.624954 0.000007 F F F Ti
0.875034 0.624952 0.000005 F F F Ti
0.375107 0.124663 0.238221 F F F Ti
0.875172 0.124690 0.237589 F F F Ti
0.375034 0.124932 0.000078 F F F Ti
0.875064 0.124931 0.000085 F F F Ti
0.112329 0.107717 0.392736 T T T Al
