Ti66 Sn1
1.0
6.309760 0.000000 0.000000
0.000000 9.464640 0.000000
0.000000 0.000000 18.918326
Ti Sn
66 1
Selective dynamics
direct
0.634128 0.040364 0.499808 F F F Ti
0.123944 0.041081 0.659655 F F F Ti
0.625088 0.041412 0.658920 F F F Ti
0.124945 0.041651 0.817390 F F F Ti
0.624831 0.041668 0.817349 F F F Ti
0.122952 0.379780 0.499747 F F F Ti
0.625302 0.375713 0.499862 F F F Ti
0.124839 0.375134 0.658722 F F F Ti
0.624016 0.375357 0.658875 F F F Ti
0.125035 0.374956 0.817297 F F F Ti
0.624819 0.374995 0.817326 F F F Ti
0.125389 0.708828 0.500162 F F F Ti
0.625852 0.707929 0.499935 F F F Ti
0.125035 0.708010 0.658928 F F F Ti
0.625583 0.707753 0.659069 F F F Ti
0.124982 0.708235 0.817376 F F F Ti
0.624945 0.708190 0.817417 F F F Ti
0.869874 0.210595 0.580447 F F F Ti
0.374871 0.208274 0.737948 F F F Ti
0.874581 0.208493 0.738197 F F F Ti
0.375000 0.208347 0.896526 F F F Ti
0.874926 0.208366 0.896560 F F F Ti
0.375302 0.541785 0.579464 F F F Ti
0.874356 0.542294 0.579604 F F F Ti
0.374874 0.541551 0.738093 F F F Ti
0.875051 0.541522 0.738151 F F F Ti
0.374979 0.541587 0.896568 F F F Ti
0.874978 0.541586 0.896577 F F F Ti
0.378876 0.872174 0.580323 F F F Ti
0.875061 0.874170 0.579900 F F F Ti
0.375194 0.874765 0.738208 F F F Ti
0.874650 0.874725 0.738237 F F F Ti
0.375012 0.874974 0.896584 F F F Ti
0.874920 0.874976 0.896594 F F F Ti
0.125102 0.625740 0.356851 F F F Ti
0.625027 0.625416 0.356727 F F F Ti
0.125035 0.625080 0.118952 F F F Ti
0.625015 0.625067 0.118946 F F F Ti
0.125266 0.125563 0.356066 F F F Ti
0.626462 0.125196 0.356531 F F F Ti
0.125070 0.125047 0.118908 F F F Ti
0.625030 0.125041 0.118886 F F F Ti
0.125010 0.375017 0.039688 F F F Ti
0.624953 0.375023 0.039681 F F F Ti
0.125007 0.875030 0.039702 F F F Ti
0.624956 0.875019 0.039695 F F F Ti
0.125034 0.375414 0.277365 F F F Ti
0.625146 0.375247 0.277327 F F F Ti
0.125237 0.875154 0.277444 F F F Ti
0.625457 0.875081 0.277391 F F F Ti
0.375083 0.875042 0.158550 F F F Ti
0.875059 0.875029 0.158541 F F F Ti
0.375050 0.375112 0.158527 F F F Ti
0.875035 0.375129 0.158507 F F F Ti
0.375480 0.376121 0.396151 F F F Ti
0.874378 0.375794 0.396133 F F F Ti
0.376534 0.874629 0.396204 F F F Ti
0.876144 0.875007 0.396365 F F F Ti
0.375025 0.625198 0.237856 F F F Ti
0.875129 0.625192 0.237862 F F F Ti
0.374985 0.625028 0.000062 F F F Ti
0.874995 0.625029 0.000069 F F F Ti
0.375379 0.125119 0.237738 F F F Ti
0.875041 0.125119 0.237676 F F F Ti
0.375012 0.125005 0.000039 F F F Ti
0.874994 0.124997 0.000054 F F F Ti
0.200217 0.091611 0.512716 T T T Sn

0.000000 0.000000 0.000000
0.000000 0.000000 0.000000
0.000000 0.000000 0.000000
0.000000 0.000000 0.000000
0.000000 0.000000 0.000000
0.000000 0.000000 0.000000
0.000000 0.000000 0.000000
0.000000 0.000000 0.000000
0.000000 0.000000 0.000000
0.000000 0.000000 0.000000
0.000000 0.000000 0.000000
0.000000 0.000000 0.000000
0.000000 0.000000 0.000000
0.000000 0.000000 0.000000
0.000000 0.000000 0.000000
0.000000 0.000000 0.000000
0.000000 0.000000 0.000000
0.000000 0.000000 0.000000
0.000000 0.000000 0.000000
0.000000 0.000000 0.000000
0.000000 0.000000 0.000000
0.000000 0.000000 0.000000
0.000000 0.000000 0.000000
0.000000 0.000000 0.000000
0.000000 0.000000 0.000000
0.000000 0.000000 0.000000
0.000000 0.000000 0.000000
0.000000 0.000000 0.000000
0.000000 0.000000 0.000000
0.000000 0.000000 0.000000
0.000000 0.000000 0.000000
0.000000 0.000000 0.000000
0.000000 0.000000 0.000000
0.000000 0.000000 0.000000
0.000000 0.000000 0.000000
0.000000 0.000000 0.000000
0.000000 0.000000 0.000000
0.000000 0.000000 0.000000
0.000000 0.000000 0.000000
0.000000 0.000000 0.000000
0.000000 0.000000 0.000000
0.000000 0.000000 0.000000
0.000000 0.000000 0.000000
0.000000 0.000000 0.000000
0.000000 0.000000 0.000000
0.000000 0.000000 0.000000
0.000000 0.000000 0.000000
0.000000 0.000000 0.000000
0.000000 0.000000 0.000000
0.000000 0.000000 0.000000
0.000000 0.000000 0.000000
0.000000 0.000000 0.000000
0.000000 0.000000 0.000000
0.000000 0.000000 0.000000
0.000000 0.000000 0.000000
0.000000 0.000000 0.000000
0.000000 0.000000 0.000000
0.000000 0.000000 0.000000
0.000000 0.000000 0.000000
0.000000 0.000000 0.000000
0.000000 0.000000 0.000000
0.000000 0.000000 0.000000
0.000000 0.000000 0.000000
0.000000 0.000000 0.000000
0.000000 0.000000 0.000000
0.000000 0.000000 0.000000
0.000000 0.000000 0.000000
