Ti96 Sn1
1.0
9.513020 0.000000 0.000000
0.000000 9.350860 0.000000
0.000000 0.000000 18.547230
Ti Sn
96 1
Selective dynamics
direct
0.133916 0.388631 0.401009 T T T Ti
0.648829 0.364947 0.394133 T T T Ti
0.168548 0.887636 0.399303 T T T Ti
0.643560 0.927515 0.397721 T T T Ti
0.164936 0.378799 0.234245 T T T Ti
0.659321 0.384231 0.235101 T T T Ti
0.156802 0.876058 0.235355 T T T Ti
0.659586 0.875149 0.235120 T T T Ti
0.166664 0.374991 0.077674 F F F Ti
0.666663 0.374982 0.077681 F F F Ti
0.166673 0.875007 0.077672 F F F Ti
0.666675 0.875007 0.077679 F F F Ti
0.400845 0.373775 0.319516 T T T Ti
0.913436 0.363515 0.306737 T T T Ti
0.409121 0.869458 0.315687 T T T Ti
0.901552 0.862217 0.328586 T T T Ti
0.416662 0.374986 0.155321 F F F Ti
0.916661 0.374989 0.155321 F F F Ti
0.416694 0.875022 0.155320 F F F Ti
0.916710 0.875013 0.155338 F F F Ti
0.416685 0.375015 -0.000014 F F F Ti
0.916650 0.375013 -0.000014 F F F Ti
0.416689 0.874998 -0.000025 F F F Ti
0.916650 0.874995 -0.000021 F F F Ti
0.099155 0.126225 0.319515 T T T Ti
0.586564 0.136485 0.306736 T T T Ti
0.090879 0.630542 0.315686 T T T Ti
0.598448 0.637783 0.328585 T T T Ti
0.083338 0.125017 0.155321 F F F Ti
0.583338 0.125015 0.155321 F F F Ti
0.083306 0.624982 0.155320 F F F Ti
0.583290 0.624991 0.155338 F F F Ti
0.083316 0.124991 -0.000014 F F F Ti
0.583350 0.124991 -0.000014 F F F Ti
0.083311 0.625008 -0.000025 F F F Ti
0.583351 0.625011 -0.000021 F F F Ti
0.366083 0.111369 0.401009 T T T Ti
0.851170 0.135053 0.394133 T T T Ti
0.331451 0.612364 0.399303 T T T Ti
0.856439 0.572485 0.397721 T T T Ti
0.335063 0.121202 0.234245 T T T Ti
0.840678 0.115770 0.235101 T T T Ti
0.343197 0.623943 0.235355 T T T Ti
0.840413 0.624851 0.235120 T T T Ti
0.333335 0.125013 0.077674 F F F Ti
0.833336 0.125022 0.077681 F F F Ti
0.333326 0.624998 0.077672 F F F Ti
0.833324 0.624996 0.077679 F F F Ti
0.374992 0.375008 0.823839 F F F Ti
0.875014 0.374961 0.823793 F F F Ti
0.375025 0.875019 0.823828 F F F Ti
0.874946 0.874963 0.823781 F F F Ti
0.125010 0.124991 0.823838 F F F Ti
0.624989 0.125037 0.823793 F F F Ti
0.124977 0.624980 0.823827 F F F Ti
0.625058 0.625036 0.823780 F F F Ti
0.124992 0.374985 0.910132 F F F Ti
0.625023 0.375005 0.910116 F F F Ti
0.124993 0.874996 0.910126 F F F Ti
0.625016 0.874996 0.910107 F F F Ti
0.375012 0.125016 0.910132 F F F Ti
0.874979 0.124995 0.910115 F F F Ti
0.375010 0.625003 0.910126 F F F Ti
0.874987 0.625005 0.910105 F F F Ti
0.390794 0.372859 0.644774 T T T Ti
0.884286 0.358663 0.667208 T T T Ti
0.379129 0.861905 0.667198 T T T Ti
0.892295 0.865365 0.647299 T T T Ti
0.109205 0.127140 0.644774 T T T Ti
0.615713 0.141335 0.667208 T T T Ti
0.120870 0.638093 0.667198 T T T Ti
0.607705 0.634633 0.647299 T T T Ti
0.134017 0.392846 0.576922 T T T Ti
0.653283 0.381813 0.576765 T T T Ti
0.159635 0.877049 0.570509 T T T Ti
0.604686 0.922581 0.582817 T T T Ti
0.365983 0.107154 0.576922 T T T Ti
0.846716 0.118186 0.576766 T T T Ti
0.340365 0.622950 0.570509 T T T Ti
0.895313 0.577418 0.582817 T T T Ti
0.368842 0.359308 0.488500 T T T Ti
0.902928 0.343277 0.491352 T T T Ti
0.411178 0.852871 0.481777 T T T Ti
0.942985 0.930541 0.480788 T T T Ti
0.131158 0.140692 0.488500 T T T Ti
0.597072 0.156723 0.491352 T T T Ti
0.088822 0.647129 0.481777 T T T Ti
0.557015 0.569459 0.480788 T T T Ti
0.125062 0.875028 0.737601 F F F Ti
0.624988 0.875044 0.737585 F F F Ti
0.374933 0.624961 0.737602 F F F Ti
0.875007 0.624946 0.737586 F F F Ti
0.125098 0.374873 0.737591 F F F Ti
0.624926 0.375280 0.737587 F F F Ti
0.374897 0.125118 0.737590 F F F Ti
0.875069 0.124708 0.737589 F F F Ti
0.750000 0.750000 0.501324 T T T Sn

0.000000 0.000000 0.000000
0.000000 0.000000 0.000000
0.000000 0.000000 0.000000
0.000000 0.000000 0.000000
0.000000 0.000000 0.000000
0.000000 0.000000 0.000000
0.000000 0.000000 0.000000
0.000000 0.000000 0.000000
0.000000 0.000000 0.000000
0.000000 0.000000 0.000000
0.000000 0.000000 0.000000
0.000000 0.000000 0.000000
0.000000 0.000000 0.000000
0.000000 0.000000 0.000000
0.000000 0.000000 0.000000
0.000000 0.000000 0.000000
0.000000 0.000000 0.000000
0.000000 0.000000 0.000000
0.000000 0.000000 0.000000
0.000000 0.000000 0.000000
0.000000 0.000000 0.000000
0.000000 0.000000 0.000000
0.000000 0.000000 0.000000
0.000000 0.000000 0.000000
0.000000 0.000000 0.000000
0.000000 0.000000 0.000000
0.000000 0.000000 0.000000
0.000000 0.000000 0.000000
0.000000 0.000000 0.000000
0.000000 0.000000 0.000000
0.000000 0.000000 0.000000
0.000000 0.000000 0.000000
0.000000 0.000000 0.000000
0.000000 0.000000 0.000000
0.000000 0.000000 0.000000
0.000000 0.000000 0.000000
0.000000 0.000000 0.000000
0.000000 0.000000 0.000000
0.000000 0.000000 0.000000
0.000000 0.000000 0.000000
0.000000 0.000000 0.000000
0.000000 0.000000 0.000000
0.000000 0.000000 0.000000
0.000000 0.000000 0.000000
0.000000 0.000000 0.000000
0.000000 0.000000 0.000000
0.000000 0.000000 0.000000
0.000000 0.000000 0.000000
0.000000 0.000000 0.000000
0.000000 0.000000 0.000000
0.000000 0.000000 0.000000
0.000000 0.000000 0.000000
0.000000 0.000000 0.000000
0.000000 0.000000 0.000000
0.000000 0.000000 0.000000
0.000000 0.000000 0.000000
0.000000 0.000000 0.000000
0.000000 0.000000 0.000000
0.000000 0.000000 0.000000
0.000000 0.000000 0.000000
0.000000 0.000000 0.000000
0.000000 0.000000 0.000000
0.000000 0.000000 0.000000
0.000000 0.000000 0.000000
0.000000 0.000000 0.000000
0.000000 0.000000 0.000000
0.000000 0.000000 0.000000
0.000000 0.000000 0.000000
0.000000 0.000000 0.000000
0.000000 0.000000 0.000000
0.000000 0.000000 0.000000
0.000000 0.000000 0.000000
0.000000 0.000000 0.000000
0.000000 0.000000 0.000000
0.000000 0.000000 0.000000
0.000000 0.000000 0.000000
0.000000 0.000000 0.000000
0.000000 0.000000 0.000000
0.000000 0.000000 0.000000
0.000000 0.000000 0.000000
0.000000 0.000000 0.000000
0.000000 0.000000 0.000000
0.000000 0.000000 0.000000
0.000000 0.000000 0.000000
0.000000 0.000000 0.000000
0.000000 0.000000 0.000000
0.000000 0.000000 0.000000
0.000000 0.000000 0.000000
0.000000 0.000000 0.000000
0.000000 0.000000 0.000000
0.000000 0.000000 0.000000
0.000000 0.000000 0.000000
0.000000 0.000000 0.000000
0.000000 0.000000 0.000000
0.000000 0.000000 0.000000
0.000000 0.000000 0.000000
0.000000 0.000000 0.000000
