Ti66 Sn1
1.0
6.309760 0.000000 0.000000
0.000000 9.464640 0.000000
0.000000 0.000000 18.918326
Ti Sn
66 1
Selective dynamics
direct
0.077297 0.027476 0.489567 T T T Ti
0.613373 0.028273 0.485091 T T T Ti
0.126930 0.057322 0.647766 T T T Ti
0.600408 0.066262 0.643362 T T T Ti
0.124797 0.041504 0.817559 F F F Ti
0.624505 0.041564 0.817368 F F F Ti
0.622489 0.375245 0.486691 T T T Ti
0.124373 0.374979 0.653806 T T T Ti
0.639100 0.375023 0.651685 T T T Ti
0.124682 0.375002 0.817661 F F F Ti
0.624603 0.374997 0.817340 F F F Ti
0.077636 0.722510 0.489525 T T T Ti
0.613022 0.721819 0.485050 T T T Ti
0.127073 0.692656 0.647751 T T T Ti
0.600265 0.683717 0.643341 T T T Ti
0.124812 0.708476 0.817559 F F F Ti
0.624486 0.708406 0.817366 F F F Ti
0.332536 0.218680 0.548140 T T T Ti
0.887562 0.223402 0.555851 T T T Ti
0.374003 0.208694 0.738126 F F F Ti
0.874830 0.207612 0.738595 F F F Ti
0.374922 0.208328 0.896463 F F F Ti
0.874636 0.208280 0.896530 F F F Ti
0.332466 0.531290 0.548074 T T T Ti
0.887681 0.526667 0.555845 T T T Ti
0.374003 0.541294 0.738125 F F F Ti
0.874877 0.542358 0.738583 F F F Ti
0.374927 0.541643 0.896469 F F F Ti
0.874634 0.541692 0.896535 F F F Ti
0.368414 0.875160 0.568209 T T T Ti
0.845096 0.874807 0.582146 T T T Ti
0.374339 0.875015 0.738389 F F F Ti
0.874946 0.874896 0.738099 F F F Ti
0.374980 0.874969 0.896580 F F F Ti
0.874676 0.874946 0.896534 F F F Ti
0.162706 0.619683 0.368349 T T T Ti
0.693617 0.603871 0.369755 T T T Ti
0.125027 0.624971 0.118580 F F F Ti
0.624504 0.625037 0.118618 F F F Ti
0.161966 0.130169 0.368268 T T T Ti
0.694023 0.146152 0.369765 T T T Ti
0.124990 0.125052 0.118559 F F F Ti
0.624535 0.124991 0.118600 F F F Ti
0.125102 0.375003 0.039406 F F F Ti
0.624284 0.374995 0.039342 F F F Ti
0.124891 0.875000 0.039386 F F F Ti
0.624854 0.875006 0.039385 F F F Ti
0.090548 0.375073 0.277655 T T T Ti
0.641386 0.375036 0.276469 T T T Ti
0.142203 0.875111 0.277257 T T T Ti
0.599748 0.875287 0.284000 T T T Ti
0.375151 0.875050 0.157902 F F F Ti
0.874678 0.874974 0.158071 F F F Ti
0.374977 0.374989 0.158524 F F F Ti
0.873247 0.375003 0.157437 F F F Ti
0.931002 0.375182 0.416294 T T T Ti
0.352861 0.875700 0.402160 T T T Ti
0.881211 0.874699 0.386853 T T T Ti
0.381439 0.619812 0.247313 T T T Ti
0.878410 0.631139 0.247104 T T T Ti
0.374930 0.624986 -0.000073 F F F Ti
0.874764 0.625084 -0.000069 F F F Ti
0.381378 0.130320 0.247278 T T T Ti
0.878338 0.118955 0.247061 T T T Ti
0.374957 0.124993 -0.000083 F F F Ti
0.874766 0.124892 -0.000079 F F F Ti
0.320189 0.373826 0.413252 T T T Sn

0.000000 0.000000 0.000000
0.000000 0.000000 0.000000
0.000000 0.000000 0.000000
0.000000 0.000000 0.000000
0.000000 0.000000 0.000000
0.000000 0.000000 0.000000
0.000000 0.000000 0.000000
0.000000 0.000000 0.000000
0.000000 0.000000 0.000000
0.000000 0.000000 0.000000
0.000000 0.000000 0.000000
0.000000 0.000000 0.000000
0.000000 0.000000 0.000000
0.000000 0.000000 0.000000
0.000000 0.000000 0.000000
0.000000 0.000000 0.000000
0.000000 0.000000 0.000000
0.000000 0.000000 0.000000
0.000000 0.000000 0.000000
0.000000 0.000000 0.000000
0.000000 0.000000 0.000000
0.000000 0.000000 0.000000
0.000000 0.000000 0.000000
0.000000 0.000000 0.000000
0.000000 0.000000 0.000000
0.000000 0.000000 0.000000
0.000000 0.000000 0.000000
0.000000 0.000000 0.000000
0.000000 0.000000 0.000000
0.000000 0.000000 0.000000
0.000000 0.000000 0.000000
0.000000 0.000000 0.000000
0.000000 0.000000 0.000000
0.000000 0.000000 0.000000
0.000000 0.000000 0.000000
0.000000 0.000000 0.000000
0.000000 0.000000 0.000000
0.000000 0.000000 0.000000
0.000000 0.000000 0.000000
0.000000 0.000000 0.000000
0.000000 0.000000 0.000000
0.000000 0.000000 0.000000
0.000000 0.000000 0.000000
0.000000 0.000000 0.000000
0.000000 0.000000 0.000000
0.000000 0.000000 0.000000
0.000000 0.000000 0.000000
0.000000 0.000000 0.000000
0.000000 0.000000 0.000000
0.000000 0.000000 0.000000
0.000000 0.000000 0.000000
0.000000 0.000000 0.000000
0.000000 0.000000 0.000000
0.000000 0.000000 0.000000
0.000000 0.000000 0.000000
0.000000 0.000000 0.000000
0.000000 0.000000 0.000000
0.000000 0.000000 0.000000
0.000000 0.000000 0.000000
0.000000 0.000000 0.000000
0.000000 0.000000 0.000000
0.000000 0.000000 0.000000
0.000000 0.000000 0.000000
0.000000 0.000000 0.000000
0.000000 0.000000 0.000000
0.000000 0.000000 0.000000
0.000000 0.000000 0.000000
