alpha_Ti
1.0
6.309760 0.000000 0.000000
0.000000 9.464640 0.000000
0.000000 0.000000 18.400004
Ti
32
direct
0.125000 0.625000 0.366848 Ti
0.625000 0.625000 0.366848 Ti
0.125000 0.625000 0.122282 Ti
0.625000 0.625000 0.122282 Ti
0.125000 0.125000 0.366848 Ti
0.625000 0.125000 0.366848 Ti
0.125000 0.125000 0.122283 Ti
0.625000 0.125000 0.122283 Ti
0.125000 0.375000 0.040761 Ti
0.625000 0.375000 0.040761 Ti
0.125000 0.875000 0.040761 Ti
0.625000 0.875000 0.040761 Ti
0.125000 0.375000 0.285326 Ti
0.625000 0.375000 0.285326 Ti
0.125000 0.875000 0.285326 Ti
0.625000 0.875000 0.285326 Ti
0.375000 0.875000 0.163043 Ti
0.875000 0.875000 0.163043 Ti
0.374999 0.375000 0.163043 Ti
0.874999 0.375000 0.163043 Ti
0.375000 0.375000 0.407609 Ti
0.875000 0.375000 0.407609 Ti
0.375000 0.875000 0.407609 Ti
0.875000 0.875000 0.407609 Ti
0.375000 0.625000 0.244565 Ti
0.875000 0.625000 0.244565 Ti
0.375000 0.625000 -0.000000 Ti
0.875000 0.625000 -0.000000 Ti
0.375000 0.125000 0.244565 Ti
0.875000 0.125000 0.244565 Ti
0.375000 0.125000 -0.000000 Ti
0.875000 0.125000 -0.000000 Ti
