Ti36
1.0
8.805261 0.000000 0.000000
-4.402630 7.625579 0.000000
0.000000 0.000000 23.288801
Ti
36
direct
0.000000 0.000000 0.489159 Ti
1.000000 0.500000 0.489159 Ti
0.500000 0.000000 0.489159 Ti
0.500000 0.500000 0.489159 Ti
0.166667 0.333333 0.767072 Ti
0.166667 0.833333 0.767072 Ti
0.666667 0.333333 0.767072 Ti
0.666667 0.833333 0.767072 Ti
0.333333 0.166667 0.806773 Ti
0.333333 0.666667 0.806773 Ti
0.833333 0.166667 0.806773 Ti
0.833333 0.666667 0.806773 Ti
0.166667 0.333333 0.528861 Ti
0.166667 0.833333 0.528861 Ti
0.666667 0.333333 0.528861 Ti
0.666667 0.833333 0.528861 Ti
0.333333 0.166667 0.568563 Ti
0.333333 0.666667 0.568563 Ti
0.833333 0.166667 0.568563 Ti
0.833333 0.666667 0.568563 Ti
0.000000 0.000000 0.608264 Ti
1.000000 0.500000 0.608264 Ti
0.500000 0.000000 0.608264 Ti
0.500000 0.500000 0.608264 Ti
0.166667 0.333333 0.647966 Ti
0.166667 0.833333 0.647966 Ti
0.666667 0.333333 0.647966 Ti
0.666667 0.833333 0.647966 Ti
0.333333 0.166667 0.687668 Ti
0.333333 0.666667 0.687668 Ti
0.833333 0.166667 0.687668 Ti
0.833333 0.666667 0.687668 Ti
0.000000 0.000000 0.727370 Ti
1.000000 0.500000 0.727370 Ti
0.500000 0.000000 0.727370 Ti
0.500000 0.500000 0.727370 Ti

0.000000 0.000000 0.000000
0.000000 0.000000 0.000000
0.000000 0.000000 0.000000
0.000000 0.000000 0.000000
0.000000 0.000000 0.000000
0.000000 0.000000 0.000000
0.000000 0.000000 0.000000
0.000000 0.000000 0.000000
0.000000 0.000000 0.000000
0.000000 0.000000 0.000000
0.000000 0.000000 0.000000
0.000000 0.000000 0.000000
0.000000 0.000000 0.000000
0.000000 0.000000 0.000000
0.000000 0.000000 0.000000
0.000000 0.000000 0.000000
0.000000 0.000000 0.000000
0.000000 0.000000 0.000000
0.000000 0.000000 0.000000
0.000000 0.000000 0.000000
0.000000 0.000000 0.000000
0.000000 0.000000 0.000000
0.000000 0.000000 0.000000
0.000000 0.000000 0.000000
0.000000 0.000000 0.000000
0.000000 0.000000 0.000000
0.000000 0.000000 0.000000
0.000000 0.000000 0.000000
0.000000 0.000000 0.000000
0.000000 0.000000 0.000000
0.000000 0.000000 0.000000
0.000000 0.000000 0.000000
0.000000 0.000000 0.000000
0.000000 0.000000 0.000000
0.000000 0.000000 0.000000
0.000000 0.000000 0.000000
