total_Ti
1.0
4.756510 0.000000 0.000000
0.000000 4.675430 0.000000
0.000000 0.000000 20.811761
Ti
24
direct
0.333333 0.750000 0.346179 Ti
0.333333 0.750000 0.207708 Ti
0.333333 0.750000 0.069236 Ti
0.833334 0.750000 0.276944 Ti
0.833334 0.750000 0.138472 Ti
0.833334 0.750000 -0.000000 Ti
0.166666 0.250000 0.276943 Ti
0.166666 0.250000 0.138472 Ti
0.166666 0.250000 -0.000000 Ti
0.666667 0.250000 0.346179 Ti
0.666667 0.250000 0.207708 Ti
0.666667 0.250000 0.069236 Ti
0.750000 0.750000 0.865464 Ti
0.250000 0.250000 0.865464 Ti
0.250000 0.750000 0.788515 Ti
0.750000 0.250000 0.788515 Ti
0.750000 0.750000 0.711565 Ti
0.250000 0.250000 0.711565 Ti
0.250000 0.750000 0.634616 Ti
0.750000 0.250000 0.634616 Ti
0.750000 0.750000 0.557667 Ti
0.250000 0.250000 0.557667 Ti
0.250000 0.750000 0.480718 Ti
0.750000 0.250000 0.480718 Ti
