beta_Ti
1.0
4.756510 0.000000 0.000000
0.000000 4.675430 0.000000
0.000000 0.000000 20.811761
Ti
12
direct
0.750000 0.750000 0.865464 Ti
0.250000 0.250000 0.865464 Ti
0.250000 0.750000 0.788515 Ti
0.750000 0.250000 0.788515 Ti
0.750000 0.750000 0.711565 Ti
0.250000 0.250000 0.711565 Ti
0.250000 0.750000 0.634616 Ti
0.750000 0.250000 0.634616 Ti
0.750000 0.750000 0.557667 Ti
0.250000 0.250000 0.557667 Ti
0.250000 0.750000 0.480718 Ti
0.750000 0.250000 0.480718 Ti
