Ti82 Al1
1.0
6.391540 0.000000 0.000000
0.000000 9.587310 0.000000
0.000000 0.000000 23.271695
Ti Al
82 1
Selective dynamics
direct
0.634334 0.079738 0.579649 F F F Ti
0.120868 0.081109 0.710710 F F F Ti
0.625691 0.082222 0.709829 F F F Ti
0.124723 0.083201 0.838610 F F F Ti
0.624636 0.083243 0.838553 F F F Ti
0.118912 0.421536 0.579732 F F F Ti
0.626829 0.418115 0.580091 F F F Ti
0.123441 0.417071 0.709666 F F F Ti
0.623954 0.416680 0.709550 F F F Ti
0.124884 0.416561 0.838472 F F F Ti
0.624643 0.416588 0.838480 F F F Ti
0.124718 0.750398 0.580526 F F F Ti
0.625177 0.749473 0.580413 F F F Ti
0.124693 0.749487 0.709682 F F F Ti
0.624980 0.749399 0.709715 F F F Ti
0.124915 0.749755 0.838561 F F F Ti
0.624728 0.749715 0.838596 F F F Ti
0.869525 0.250717 0.645312 F F F Ti
0.374389 0.249695 0.773980 F F F Ti
0.874005 0.250098 0.774165 F F F Ti
0.374885 0.249966 0.902915 F F F Ti
0.874828 0.249993 0.902944 F F F Ti
0.374603 0.583516 0.644999 F F F Ti
0.873971 0.583965 0.645246 F F F Ti
0.374728 0.583138 0.774048 F F F Ti
0.874598 0.583166 0.774133 F F F Ti
0.374893 0.583209 0.902941 F F F Ti
0.874926 0.583199 0.902954 F F F Ti
0.376376 0.913930 0.645331 F F F Ti
0.875144 0.915773 0.645258 F F F Ti
0.375004 0.916160 0.774180 F F F Ti
0.874146 0.915885 0.774309 F F F Ti
0.374906 0.916563 0.902961 F F F Ti
0.874836 0.916550 0.902975 F F F Ti
0.125179 0.166693 0.386609 F F F Ti
0.625239 0.166648 0.386559 F F F Ti
0.125070 0.666722 0.386646 F F F Ti
0.624905 0.666681 0.386579 F F F Ti
0.124973 0.166651 0.000037 F F F Ti
0.624943 0.166650 0.000041 F F F Ti
0.124980 0.666625 0.000039 F F F Ti
0.624944 0.666622 0.000043 F F F Ti
0.124993 0.833328 0.096690 F F F Ti
0.624975 0.833328 0.096690 F F F Ti
0.125148 0.833567 0.483370 F F F Ti
0.625220 0.833122 0.483204 F F F Ti
0.124993 0.333327 0.096682 F F F Ti
0.624972 0.333328 0.096682 F F F Ti
0.124721 0.333801 0.483079 F F F Ti
0.625738 0.333484 0.483060 F F F Ti
0.375097 0.583710 0.483178 F F F Ti
0.874632 0.583907 0.483062 F F F Ti
0.374999 0.583316 0.096684 F F F Ti
0.875013 0.583320 0.096685 F F F Ti
0.374986 0.083336 0.096686 F F F Ti
0.875002 0.083337 0.096686 F F F Ti
0.375996 0.083181 0.483099 F F F Ti
0.876228 0.083409 0.483059 F F F Ti
0.375068 0.416711 0.386591 F F F Ti
0.874977 0.416765 0.386539 F F F Ti
0.375010 0.916630 0.386625 F F F Ti
0.875113 0.916626 0.386618 F F F Ti
0.374954 0.416641 0.000034 F F F Ti
0.874959 0.416648 0.000043 F F F Ti
0.374958 0.916639 0.000061 F F F Ti
0.874954 0.916636 0.000068 F F F Ti
0.374995 0.083327 0.289985 F F F Ti
0.875027 0.083323 0.289978 F F F Ti
0.124989 0.166660 0.193340 F F F Ti
0.624986 0.166654 0.193334 F F F Ti
0.124994 0.333340 0.289979 F F F Ti
0.624986 0.333341 0.289958 F F F Ti
0.374970 0.416667 0.193333 F F F Ti
0.874983 0.416668 0.193330 F F F Ti
0.374993 0.583354 0.289973 F F F Ti
0.875029 0.583370 0.289963 F F F Ti
0.124990 0.666662 0.193341 F F F Ti
0.624976 0.666659 0.193336 F F F Ti
0.124986 0.833339 0.289992 F F F Ti
0.624997 0.833341 0.289975 F F F Ti
0.374971 0.916658 0.193342 F F F Ti
0.874986 0.916655 0.193339 F F F Ti
0.313374 0.207714 0.625962 T T T Al

0.000000 0.000000 0.000000
0.000000 0.000000 0.000000
0.000000 0.000000 0.000000
0.000000 0.000000 0.000000
0.000000 0.000000 0.000000
0.000000 0.000000 0.000000
0.000000 0.000000 0.000000
0.000000 0.000000 0.000000
0.000000 0.000000 0.000000
0.000000 0.000000 0.000000
0.000000 0.000000 0.000000
0.000000 0.000000 0.000000
0.000000 0.000000 0.000000
0.000000 0.000000 0.000000
0.000000 0.000000 0.000000
0.000000 0.000000 0.000000
0.000000 0.000000 0.000000
0.000000 0.000000 0.000000
0.000000 0.000000 0.000000
0.000000 0.000000 0.000000
0.000000 0.000000 0.000000
0.000000 0.000000 0.000000
0.000000 0.000000 0.000000
0.000000 0.000000 0.000000
0.000000 0.000000 0.000000
0.000000 0.000000 0.000000
0.000000 0.000000 0.000000
0.000000 0.000000 0.000000
0.000000 0.000000 0.000000
0.000000 0.000000 0.000000
0.000000 0.000000 0.000000
0.000000 0.000000 0.000000
0.000000 0.000000 0.000000
0.000000 0.000000 0.000000
0.000000 0.000000 0.000000
0.000000 0.000000 0.000000
0.000000 0.000000 0.000000
0.000000 0.000000 0.000000
0.000000 0.000000 0.000000
0.000000 0.000000 0.000000
0.000000 0.000000 0.000000
0.000000 0.000000 0.000000
0.000000 0.000000 0.000000
0.000000 0.000000 0.000000
0.000000 0.000000 0.000000
0.000000 0.000000 0.000000
0.000000 0.000000 0.000000
0.000000 0.000000 0.000000
0.000000 0.000000 0.000000
0.000000 0.000000 0.000000
0.000000 0.000000 0.000000
0.000000 0.000000 0.000000
0.000000 0.000000 0.000000
0.000000 0.000000 0.000000
0.000000 0.000000 0.000000
0.000000 0.000000 0.000000
0.000000 0.000000 0.000000
0.000000 0.000000 0.000000
0.000000 0.000000 0.000000
0.000000 0.000000 0.000000
0.000000 0.000000 0.000000
0.000000 0.000000 0.000000
0.000000 0.000000 0.000000
0.000000 0.000000 0.000000
0.000000 0.000000 0.000000
0.000000 0.000000 0.000000
0.000000 0.000000 0.000000
0.000000 0.000000 0.000000
0.000000 0.000000 0.000000
0.000000 0.000000 0.000000
0.000000 0.000000 0.000000
0.000000 0.000000 0.000000
0.000000 0.000000 0.000000
0.000000 0.000000 0.000000
0.000000 0.000000 0.000000
0.000000 0.000000 0.000000
0.000000 0.000000 0.000000
0.000000 0.000000 0.000000
0.000000 0.000000 0.000000
0.000000 0.000000 0.000000
0.000000 0.000000 0.000000
0.000000 0.000000 0.000000
0.000000 0.000000 0.000000
