Ti66 Nb1
1.0
6.309760 0.000000 0.000000
0.000000 9.464640 0.000000
0.000000 0.000000 18.918326
Ti Nb
66 1
Selective dynamics
direct
0.124281 0.041188 0.500566 F F F Ti
0.625934 0.041008 0.500300 F F F Ti
0.124866 0.041285 0.658843 F F F Ti
0.624767 0.041238 0.658820 F F F Ti
0.124965 0.041536 0.817250 F F F Ti
0.624943 0.041532 0.817246 F F F Ti
0.116340 0.375667 0.502642 F F F Ti
0.627805 0.375124 0.501504 F F F Ti
0.124418 0.374982 0.659119 F F F Ti
0.624586 0.374971 0.659098 F F F Ti
0.124895 0.375031 0.817287 F F F Ti
0.624868 0.375027 0.817303 F F F Ti
0.125722 0.707163 0.499752 F F F Ti
0.623679 0.707708 0.499726 F F F Ti
0.125063 0.708358 0.658668 F F F Ti
0.624377 0.708511 0.658681 F F F Ti
0.124957 0.708407 0.817219 F F F Ti
0.624856 0.708434 0.817221 F F F Ti
0.374666 0.208057 0.579861 F F F Ti
0.873734 0.207429 0.580084 F F F Ti
0.374889 0.208174 0.738089 F F F Ti
0.874735 0.208141 0.738145 F F F Ti
0.374976 0.208302 0.896400 F F F Ti
0.874925 0.208306 0.896409 F F F Ti
0.374603 0.541531 0.579619 F F F Ti
0.873676 0.542679 0.579978 F F F Ti
0.374881 0.541757 0.738048 F F F Ti
0.874718 0.541850 0.738105 F F F Ti
0.374956 0.541763 0.896425 F F F Ti
0.874905 0.541770 0.896427 F F F Ti
0.374879 0.874937 0.579216 F F F Ti
0.875090 0.874469 0.579297 F F F Ti
0.374879 0.874927 0.737946 F F F Ti
0.874914 0.874854 0.737953 F F F Ti
0.375010 0.875012 0.896457 F F F Ti
0.874947 0.875005 0.896457 F F F Ti
0.123493 0.625904 0.356554 F F F Ti
0.623932 0.625229 0.356588 F F F Ti
0.125034 0.625471 0.118679 F F F Ti
0.624783 0.625403 0.118707 F F F Ti
0.636128 0.121377 0.355747 F F F Ti
0.125358 0.125053 0.118590 F F F Ti
0.625208 0.124953 0.118563 F F F Ti
0.125188 0.375123 0.039283 F F F Ti
0.624768 0.375116 0.039257 F F F Ti
0.125064 0.875187 0.039567 F F F Ti
0.624927 0.875122 0.039570 F F F Ti
0.117795 0.376758 0.274849 F F F Ti
0.629503 0.375130 0.275836 F F F Ti
0.125767 0.876550 0.277638 F F F Ti
0.624883 0.875006 0.277404 F F F Ti
0.375056 0.875292 0.158549 F F F Ti
0.875391 0.875243 0.158466 F F F Ti
0.375102 0.375251 0.158061 F F F Ti
0.874267 0.375366 0.157456 F F F Ti
0.870094 0.375865 0.396500 F F F Ti
0.374911 0.877438 0.396410 F F F Ti
0.876849 0.875110 0.396558 F F F Ti
0.374601 0.625294 0.237681 F F F Ti
0.874410 0.626202 0.237513 F F F Ti
0.374931 0.625244 -0.000104 F F F Ti
0.874919 0.625259 -0.000115 F F F Ti
0.376130 0.125125 0.237364 F F F Ti
0.876091 0.124827 0.237114 F F F Ti
0.375049 0.124927 -0.000141 F F F Ti
0.875002 0.124912 -0.000146 F F F Ti
0.333773 0.334850 0.387449 T T T Nb

0.000000 0.000000 0.000000
0.000000 0.000000 0.000000
0.000000 0.000000 0.000000
0.000000 0.000000 0.000000
0.000000 0.000000 0.000000
0.000000 0.000000 0.000000
0.000000 0.000000 0.000000
0.000000 0.000000 0.000000
0.000000 0.000000 0.000000
0.000000 0.000000 0.000000
0.000000 0.000000 0.000000
0.000000 0.000000 0.000000
0.000000 0.000000 0.000000
0.000000 0.000000 0.000000
0.000000 0.000000 0.000000
0.000000 0.000000 0.000000
0.000000 0.000000 0.000000
0.000000 0.000000 0.000000
0.000000 0.000000 0.000000
0.000000 0.000000 0.000000
0.000000 0.000000 0.000000
0.000000 0.000000 0.000000
0.000000 0.000000 0.000000
0.000000 0.000000 0.000000
0.000000 0.000000 0.000000
0.000000 0.000000 0.000000
0.000000 0.000000 0.000000
0.000000 0.000000 0.000000
0.000000 0.000000 0.000000
0.000000 0.000000 0.000000
0.000000 0.000000 0.000000
0.000000 0.000000 0.000000
0.000000 0.000000 0.000000
0.000000 0.000000 0.000000
0.000000 0.000000 0.000000
0.000000 0.000000 0.000000
0.000000 0.000000 0.000000
0.000000 0.000000 0.000000
0.000000 0.000000 0.000000
0.000000 0.000000 0.000000
0.000000 0.000000 0.000000
0.000000 0.000000 0.000000
0.000000 0.000000 0.000000
0.000000 0.000000 0.000000
0.000000 0.000000 0.000000
0.000000 0.000000 0.000000
0.000000 0.000000 0.000000
0.000000 0.000000 0.000000
0.000000 0.000000 0.000000
0.000000 0.000000 0.000000
0.000000 0.000000 0.000000
0.000000 0.000000 0.000000
0.000000 0.000000 0.000000
0.000000 0.000000 0.000000
0.000000 0.000000 0.000000
0.000000 0.000000 0.000000
0.000000 0.000000 0.000000
0.000000 0.000000 0.000000
0.000000 0.000000 0.000000
0.000000 0.000000 0.000000
0.000000 0.000000 0.000000
0.000000 0.000000 0.000000
0.000000 0.000000 0.000000
0.000000 0.000000 0.000000
0.000000 0.000000 0.000000
0.000000 0.000000 0.000000
0.000000 0.000000 0.000000
