Ti82 Nb1
1.0
6.391540 0.000000 0.000000
0.000000 9.587310 0.000000
0.000000 0.000000 23.271695
Ti Nb
82 1
Selective dynamics
direct
0.628165 0.082279 0.580324 F F F Ti
0.124105 0.082818 0.709884 F F F Ti
0.625154 0.083135 0.709567 F F F Ti
0.124971 0.083318 0.838448 F F F Ti
0.624958 0.083323 0.838427 F F F Ti
0.123315 0.418467 0.580337 F F F Ti
0.625238 0.416898 0.580499 F F F Ti
0.124753 0.416799 0.709542 F F F Ti
0.624802 0.416697 0.709508 F F F Ti
0.124992 0.416669 0.838414 F F F Ti
0.624964 0.416673 0.838414 F F F Ti
0.124959 0.750092 0.580563 F F F Ti
0.625086 0.749846 0.580538 F F F Ti
0.124929 0.749885 0.709531 F F F Ti
0.625076 0.749866 0.709542 F F F Ti
0.124990 0.749964 0.838425 F F F Ti
0.624977 0.749961 0.838430 F F F Ti
0.873320 0.250323 0.645171 F F F Ti
0.374951 0.249980 0.773971 F F F Ti
0.874818 0.250051 0.774002 F F F Ti
0.374995 0.250003 0.902865 F F F Ti
0.874977 0.250006 0.902869 F F F Ti
0.374979 0.583375 0.645037 F F F Ti
0.874761 0.583505 0.645082 F F F Ti
0.374981 0.583317 0.773965 F F F Ti
0.874948 0.583322 0.773978 F F F Ti
0.374994 0.583323 0.902865 F F F Ti
0.874993 0.583322 0.902867 F F F Ti
0.375533 0.915677 0.645170 F F F Ti
0.875056 0.916466 0.645093 F F F Ti
0.375051 0.916560 0.774002 F F F Ti
0.874839 0.916527 0.774013 F F F Ti
0.374998 0.916652 0.902870 F F F Ti
0.874978 0.916651 0.902871 F F F Ti
0.125003 0.166667 0.386703 F F F Ti
0.625072 0.166669 0.386692 F F F Ti
0.125016 0.666645 0.386735 F F F Ti
0.624968 0.666640 0.386722 F F F Ti
0.124998 0.166666 0.000006 F F F Ti
0.624995 0.166666 0.000007 F F F Ti
0.124999 0.666660 0.000003 F F F Ti
0.624992 0.666660 0.000004 F F F Ti
0.125000 0.833332 0.096683 F F F Ti
0.624996 0.833332 0.096683 F F F Ti
0.125019 0.833374 0.483412 F F F Ti
0.625070 0.833253 0.483376 F F F Ti
0.125000 0.333333 0.096682 F F F Ti
0.624996 0.333333 0.096682 F F F Ti
0.124820 0.333543 0.483283 F F F Ti
0.625227 0.333401 0.483334 F F F Ti
0.375052 0.583435 0.483370 F F F Ti
0.874874 0.583464 0.483353 F F F Ti
0.374999 0.583331 0.096683 F F F Ti
0.875002 0.583331 0.096683 F F F Ti
0.374998 0.083333 0.096683 F F F Ti
0.875002 0.083333 0.096683 F F F Ti
0.375348 0.083203 0.483238 F F F Ti
0.875236 0.083348 0.483338 F F F Ti
0.375026 0.416681 0.386703 F F F Ti
0.874969 0.416694 0.386693 F F F Ti
0.375004 0.916630 0.386704 F F F Ti
0.875012 0.916650 0.386717 F F F Ti
0.374996 0.416667 0.000005 F F F Ti
0.874995 0.416668 0.000006 F F F Ti
0.374997 0.916663 0.000009 F F F Ti
0.874994 0.916662 0.000010 F F F Ti
0.375000 0.083329 0.290039 F F F Ti
0.875000 0.083326 0.290039 F F F Ti
0.124998 0.166666 0.193363 F F F Ti
0.624999 0.166665 0.193362 F F F Ti
0.124997 0.333336 0.290038 F F F Ti
0.624999 0.333336 0.290034 F F F Ti
0.374997 0.416668 0.193362 F F F Ti
0.874998 0.416669 0.193362 F F F Ti
0.374999 0.583338 0.290040 F F F Ti
0.875002 0.583341 0.290039 F F F Ti
0.125000 0.666664 0.193366 F F F Ti
0.624996 0.666664 0.193365 F F F Ti
0.124995 0.833328 0.290044 F F F Ti
0.625005 0.833326 0.290041 F F F Ti
0.374997 0.916664 0.193364 F F F Ti
0.874998 0.916663 0.193364 F F F Ti
0.291246 0.190893 0.611484 T T T Nb

0.000000 0.000000 0.000000
0.000000 0.000000 0.000000
0.000000 0.000000 0.000000
0.000000 0.000000 0.000000
0.000000 0.000000 0.000000
0.000000 0.000000 0.000000
0.000000 0.000000 0.000000
0.000000 0.000000 0.000000
0.000000 0.000000 0.000000
0.000000 0.000000 0.000000
0.000000 0.000000 0.000000
0.000000 0.000000 0.000000
0.000000 0.000000 0.000000
0.000000 0.000000 0.000000
0.000000 0.000000 0.000000
0.000000 0.000000 0.000000
0.000000 0.000000 0.000000
0.000000 0.000000 0.000000
0.000000 0.000000 0.000000
0.000000 0.000000 0.000000
0.000000 0.000000 0.000000
0.000000 0.000000 0.000000
0.000000 0.000000 0.000000
0.000000 0.000000 0.000000
0.000000 0.000000 0.000000
0.000000 0.000000 0.000000
0.000000 0.000000 0.000000
0.000000 0.000000 0.000000
0.000000 0.000000 0.000000
0.000000 0.000000 0.000000
0.000000 0.000000 0.000000
0.000000 0.000000 0.000000
0.000000 0.000000 0.000000
0.000000 0.000000 0.000000
0.000000 0.000000 0.000000
0.000000 0.000000 0.000000
0.000000 0.000000 0.000000
0.000000 0.000000 0.000000
0.000000 0.000000 0.000000
0.000000 0.000000 0.000000
0.000000 0.000000 0.000000
0.000000 0.000000 0.000000
0.000000 0.000000 0.000000
0.000000 0.000000 0.000000
0.000000 0.000000 0.000000
0.000000 0.000000 0.000000
0.000000 0.000000 0.000000
0.000000 0.000000 0.000000
0.000000 0.000000 0.000000
0.000000 0.000000 0.000000
0.000000 0.000000 0.000000
0.000000 0.000000 0.000000
0.000000 0.000000 0.000000
0.000000 0.000000 0.000000
0.000000 0.000000 0.000000
0.000000 0.000000 0.000000
0.000000 0.000000 0.000000
0.000000 0.000000 0.000000
0.000000 0.000000 0.000000
0.000000 0.000000 0.000000
0.000000 0.000000 0.000000
0.000000 0.000000 0.000000
0.000000 0.000000 0.000000
0.000000 0.000000 0.000000
0.000000 0.000000 0.000000
0.000000 0.000000 0.000000
0.000000 0.000000 0.000000
0.000000 0.000000 0.000000
0.000000 0.000000 0.000000
0.000000 0.000000 0.000000
0.000000 0.000000 0.000000
0.000000 0.000000 0.000000
0.000000 0.000000 0.000000
0.000000 0.000000 0.000000
0.000000 0.000000 0.000000
0.000000 0.000000 0.000000
0.000000 0.000000 0.000000
0.000000 0.000000 0.000000
0.000000 0.000000 0.000000
0.000000 0.000000 0.000000
0.000000 0.000000 0.000000
0.000000 0.000000 0.000000
0.000000 0.000000 0.000000
