Ti83
1.0
6.391540 0.000000 0.000000
0.000000 9.587310 0.000000
0.000000 0.000000 23.271695
Ti
83
Selective dynamics
direct
0.627550 0.082885 0.580493 F F F Ti
0.124555 0.083064 0.709902 F F F Ti
0.625040 0.083242 0.709563 F F F Ti
0.124985 0.083327 0.838456 F F F Ti
0.624964 0.083331 0.838432 F F F Ti
0.124269 0.418185 0.580476 F F F Ti
0.624999 0.416794 0.580531 F F F Ti
0.124946 0.416742 0.709527 F F F Ti
0.624734 0.416777 0.709540 F F F Ti
0.125005 0.416675 0.838421 F F F Ti
0.624964 0.416682 0.838424 F F F Ti
0.125031 0.750050 0.580579 F F F Ti
0.625204 0.749839 0.580540 F F F Ti
0.124945 0.749881 0.709550 F F F Ti
0.625184 0.749819 0.709574 F F F Ti
0.124991 0.749971 0.838432 F F F Ti
0.624993 0.749965 0.838438 F F F Ti
0.872903 0.250784 0.645359 F F F Ti
0.374983 0.250009 0.773979 F F F Ti
0.874854 0.250073 0.774024 F F F Ti
0.374997 0.250006 0.902871 F F F Ti
0.874982 0.250010 0.902876 F F F Ti
0.375040 0.583365 0.645051 F F F Ti
0.874849 0.583485 0.645079 F F F Ti
0.374970 0.583321 0.773978 F F F Ti
0.874998 0.583315 0.773986 F F F Ti
0.374992 0.583325 0.902871 F F F Ti
0.874999 0.583323 0.902872 F F F Ti
0.376248 0.915454 0.645334 F F F Ti
0.874899 0.916434 0.645143 F F F Ti
0.375083 0.916569 0.774023 F F F Ti
0.874870 0.916567 0.774014 F F F Ti
0.375002 0.916654 0.902876 F F F Ti
0.874979 0.916655 0.902875 F F F Ti
0.124991 0.166692 0.386680 F F F Ti
0.625190 0.166718 0.386660 F F F Ti
0.125014 0.666756 0.386742 F F F Ti
0.624980 0.666710 0.386724 F F F Ti
0.124999 0.166668 0.000011 F F F Ti
0.624995 0.166667 0.000011 F F F Ti
0.124998 0.666670 0.000007 F F F Ti
0.624992 0.666668 0.000008 F F F Ti
0.125000 0.833335 0.096691 F F F Ti
0.624995 0.833334 0.096690 F F F Ti
0.125070 0.833381 0.483414 F F F Ti
0.625192 0.833245 0.483388 F F F Ti
0.125001 0.333333 0.096691 F F F Ti
0.624995 0.333333 0.096690 F F F Ti
0.124883 0.333841 0.483209 F F F Ti
0.625302 0.333454 0.483359 F F F Ti
0.375105 0.583468 0.483378 F F F Ti
0.874901 0.583482 0.483373 F F F Ti
0.374998 0.583330 0.096689 F F F Ti
0.875005 0.583331 0.096689 F F F Ti
0.374997 0.083335 0.096691 F F F Ti
0.875005 0.083334 0.096691 F F F Ti
0.376193 0.083173 0.482969 F F F Ti
0.875131 0.083376 0.483332 F F F Ti
0.375073 0.416728 0.386690 F F F Ti
0.874952 0.416738 0.386687 F F F Ti
0.375040 0.916600 0.386673 F F F Ti
0.875010 0.916671 0.386718 F F F Ti
0.374995 0.416670 0.000009 F F F Ti
0.874996 0.416670 0.000011 F F F Ti
0.374997 0.916665 0.000013 F F F Ti
0.874994 0.916665 0.000013 F F F Ti
0.375010 0.083336 0.290029 F F F Ti
0.875000 0.083329 0.290033 F F F Ti
0.124996 0.166668 0.193363 F F F Ti
0.625002 0.166668 0.193361 F F F Ti
0.124997 0.333350 0.290034 F F F Ti
0.625008 0.333352 0.290028 F F F Ti
0.374998 0.416674 0.193362 F F F Ti
0.874997 0.416674 0.193362 F F F Ti
0.375000 0.583348 0.290039 F F F Ti
0.875008 0.583352 0.290039 F F F Ti
0.124999 0.666671 0.193368 F F F Ti
0.624996 0.666669 0.193366 F F F Ti
0.124988 0.833332 0.290040 F F F Ti
0.625020 0.833326 0.290035 F F F Ti
0.374998 0.916664 0.193363 F F F Ti
0.874996 0.916664 0.193364 F F F Ti
0.205446 0.137289 0.592106 T T T Ti

0.000000 0.000000 0.000000
0.000000 0.000000 0.000000
0.000000 0.000000 0.000000
0.000000 0.000000 0.000000
0.000000 0.000000 0.000000
0.000000 0.000000 0.000000
0.000000 0.000000 0.000000
0.000000 0.000000 0.000000
0.000000 0.000000 0.000000
0.000000 0.000000 0.000000
0.000000 0.000000 0.000000
0.000000 0.000000 0.000000
0.000000 0.000000 0.000000
0.000000 0.000000 0.000000
0.000000 0.000000 0.000000
0.000000 0.000000 0.000000
0.000000 0.000000 0.000000
0.000000 0.000000 0.000000
0.000000 0.000000 0.000000
0.000000 0.000000 0.000000
0.000000 0.000000 0.000000
0.000000 0.000000 0.000000
0.000000 0.000000 0.000000
0.000000 0.000000 0.000000
0.000000 0.000000 0.000000
0.000000 0.000000 0.000000
0.000000 0.000000 0.000000
0.000000 0.000000 0.000000
0.000000 0.000000 0.000000
0.000000 0.000000 0.000000
0.000000 0.000000 0.000000
0.000000 0.000000 0.000000
0.000000 0.000000 0.000000
0.000000 0.000000 0.000000
0.000000 0.000000 0.000000
0.000000 0.000000 0.000000
0.000000 0.000000 0.000000
0.000000 0.000000 0.000000
0.000000 0.000000 0.000000
0.000000 0.000000 0.000000
0.000000 0.000000 0.000000
0.000000 0.000000 0.000000
0.000000 0.000000 0.000000
0.000000 0.000000 0.000000
0.000000 0.000000 0.000000
0.000000 0.000000 0.000000
0.000000 0.000000 0.000000
0.000000 0.000000 0.000000
0.000000 0.000000 0.000000
0.000000 0.000000 0.000000
0.000000 0.000000 0.000000
0.000000 0.000000 0.000000
0.000000 0.000000 0.000000
0.000000 0.000000 0.000000
0.000000 0.000000 0.000000
0.000000 0.000000 0.000000
0.000000 0.000000 0.000000
0.000000 0.000000 0.000000
0.000000 0.000000 0.000000
0.000000 0.000000 0.000000
0.000000 0.000000 0.000000
0.000000 0.000000 0.000000
0.000000 0.000000 0.000000
0.000000 0.000000 0.000000
0.000000 0.000000 0.000000
0.000000 0.000000 0.000000
0.000000 0.000000 0.000000
0.000000 0.000000 0.000000
0.000000 0.000000 0.000000
0.000000 0.000000 0.000000
0.000000 0.000000 0.000000
0.000000 0.000000 0.000000
0.000000 0.000000 0.000000
0.000000 0.000000 0.000000
0.000000 0.000000 0.000000
0.000000 0.000000 0.000000
0.000000 0.000000 0.000000
0.000000 0.000000 0.000000
0.000000 0.000000 0.000000
0.000000 0.000000 0.000000
0.000000 0.000000 0.000000
0.000000 0.000000 0.000000
0.000000 0.000000 0.000000
