Ti66 Al1
1.0
6.309760 0.000000 0.000000
0.000000 9.464640 0.000000
0.000000 0.000000 18.918326
Ti Al
66 1
Selective dynamics
direct
0.129145 0.047959 0.459000 T T T Ti
0.629948 0.056045 0.486110 T T T Ti
0.126325 0.045339 0.659520 T T T Ti
0.625669 0.051174 0.646378 T T T Ti
0.125374 0.038874 0.817517 F F F Ti
0.625494 0.038811 0.817710 F F F Ti
0.633092 0.365690 0.474059 T T T Ti
0.126524 0.385492 0.652218 T T T Ti
0.626386 0.362228 0.646841 T T T Ti
0.125773 0.372558 0.817718 F F F Ti
0.625725 0.372865 0.817718 F F F Ti
0.125544 0.715230 0.489239 T T T Ti
0.622123 0.729259 0.500176 T T T Ti
0.126116 0.696377 0.643712 T T T Ti
0.624334 0.706506 0.649280 T T T Ti
0.125389 0.705708 0.817368 F F F Ti
0.625280 0.705655 0.817435 F F F Ti
0.356193 0.211481 0.561366 T T T Ti
0.895564 0.209134 0.563508 T T T Ti
0.376902 0.205443 0.738777 F F F Ti
0.874877 0.205350 0.738954 F F F Ti
0.375617 0.206368 0.896497 F F F Ti
0.875306 0.206384 0.896536 F F F Ti
0.389853 0.524244 0.558415 T T T Ti
0.859650 0.526796 0.559449 T T T Ti
0.375593 0.537679 0.738412 F F F Ti
0.875680 0.537839 0.738454 F F F Ti
0.375401 0.539925 0.896514 F F F Ti
0.875363 0.539943 0.896522 F F F Ti
0.354870 0.898356 0.567149 T T T Ti
0.897353 0.897051 0.567229 T T T Ti
0.375923 0.870952 0.738253 F F F Ti
0.875054 0.870776 0.738196 F F F Ti
0.375308 0.873102 0.896511 F F F Ti
0.875240 0.873062 0.896511 F F F Ti
0.126091 0.588703 0.370722 T T T Ti
0.622725 0.604791 0.374575 T T T Ti
0.125452 0.624053 0.118253 F F F Ti
0.624925 0.624319 0.118059 F F F Ti
0.629142 0.091615 0.355777 T T T Ti
0.125903 0.123510 0.118476 F F F Ti
0.625220 0.123667 0.118237 F F F Ti
0.125423 0.373889 0.038879 F F F Ti
0.625290 0.374007 0.038883 F F F Ti
0.125118 0.874037 0.039455 F F F Ti
0.624905 0.874022 0.039371 F F F Ti
0.127163 0.386662 0.268641 T T T Ti
0.621057 0.374740 0.277756 T T T Ti
0.125401 0.864706 0.285293 T T T Ti
0.625157 0.861687 0.272874 T T T Ti
0.375326 0.873718 0.158299 F F F Ti
0.875239 0.873363 0.158195 F F F Ti
0.374504 0.373299 0.157078 F F F Ti
0.876559 0.373608 0.157147 F F F Ti
0.357635 0.302431 0.377255 T T T Ti
0.883452 0.304807 0.371564 T T T Ti
0.402698 0.861147 0.397205 T T T Ti
0.849087 0.859309 0.397350 T T T Ti
0.379358 0.621500 0.247600 T T T Ti
0.870583 0.621226 0.247622 T T T Ti
0.375029 0.624292 -0.000285 F F F Ti
0.875273 0.624303 -0.000268 F F F Ti
0.370255 0.121283 0.246035 T T T Ti
0.881035 0.121067 0.245069 T T T Ti
0.375213 0.123538 -0.000124 F F F Ti
0.875379 0.123518 -0.000095 F F F Ti
0.091414 0.310548 0.460466 T T T Al

0.000000 0.000000 0.000000
0.000000 0.000000 0.000000
0.000000 0.000000 0.000000
0.000000 0.000000 0.000000
0.000000 0.000000 0.000000
0.000000 0.000000 0.000000
0.000000 0.000000 0.000000
0.000000 0.000000 0.000000
0.000000 0.000000 0.000000
0.000000 0.000000 0.000000
0.000000 0.000000 0.000000
0.000000 0.000000 0.000000
0.000000 0.000000 0.000000
0.000000 0.000000 0.000000
0.000000 0.000000 0.000000
0.000000 0.000000 0.000000
0.000000 0.000000 0.000000
0.000000 0.000000 0.000000
0.000000 0.000000 0.000000
0.000000 0.000000 0.000000
0.000000 0.000000 0.000000
0.000000 0.000000 0.000000
0.000000 0.000000 0.000000
0.000000 0.000000 0.000000
0.000000 0.000000 0.000000
0.000000 0.000000 0.000000
0.000000 0.000000 0.000000
0.000000 0.000000 0.000000
0.000000 0.000000 0.000000
0.000000 0.000000 0.000000
0.000000 0.000000 0.000000
0.000000 0.000000 0.000000
0.000000 0.000000 0.000000
0.000000 0.000000 0.000000
0.000000 0.000000 0.000000
0.000000 0.000000 0.000000
0.000000 0.000000 0.000000
0.000000 0.000000 0.000000
0.000000 0.000000 0.000000
0.000000 0.000000 0.000000
0.000000 0.000000 0.000000
0.000000 0.000000 0.000000
0.000000 0.000000 0.000000
0.000000 0.000000 0.000000
0.000000 0.000000 0.000000
0.000000 0.000000 0.000000
0.000000 0.000000 0.000000
0.000000 0.000000 0.000000
0.000000 0.000000 0.000000
0.000000 0.000000 0.000000
0.000000 0.000000 0.000000
0.000000 0.000000 0.000000
0.000000 0.000000 0.000000
0.000000 0.000000 0.000000
0.000000 0.000000 0.000000
0.000000 0.000000 0.000000
0.000000 0.000000 0.000000
0.000000 0.000000 0.000000
0.000000 0.000000 0.000000
0.000000 0.000000 0.000000
0.000000 0.000000 0.000000
0.000000 0.000000 0.000000
0.000000 0.000000 0.000000
0.000000 0.000000 0.000000
0.000000 0.000000 0.000000
0.000000 0.000000 0.000000
0.000000 0.000000 0.000000
