total_Ti
1.0
8.805261 0.000000 0.000000
-4.402630 7.625580 0.000000
0.000000 0.000000 19.188801
Ti
72
direct
0.967272 0.027818 0.486843 Ti
0.967272 0.527818 0.486843 Ti
0.467272 0.027818 0.486843 Ti
0.467272 0.527818 0.486843 Ti
0.133938 0.361151 0.824136 Ti
0.133938 0.861151 0.824136 Ti
0.633938 0.361151 0.824136 Ti
0.633938 0.861151 0.824136 Ti
0.300605 0.194485 0.872321 Ti
0.300605 0.694485 0.872321 Ti
0.800605 0.194485 0.872321 Ti
0.800605 0.694485 0.872321 Ti
0.133938 0.361151 0.535028 Ti
0.133938 0.861151 0.535028 Ti
0.633938 0.361151 0.535028 Ti
0.633938 0.861151 0.535028 Ti
0.300605 0.194485 0.583212 Ti
0.300605 0.694485 0.583212 Ti
0.800605 0.194485 0.583212 Ti
0.800605 0.694485 0.583212 Ti
0.967272 0.027818 0.631397 Ti
0.967272 0.527818 0.631397 Ti
0.467272 0.027818 0.631397 Ti
0.467272 0.527818 0.631397 Ti
0.133938 0.361151 0.679582 Ti
0.133938 0.861151 0.679582 Ti
0.633938 0.361151 0.679582 Ti
0.633938 0.861151 0.679582 Ti
0.300605 0.194485 0.727766 Ti
0.300605 0.694485 0.727766 Ti
0.800605 0.194485 0.727766 Ti
0.800605 0.694485 0.727766 Ti
0.967272 0.027818 0.775951 Ti
0.967272 0.527818 0.775951 Ti
0.467272 0.027818 0.775951 Ti
0.467272 0.527818 0.775951 Ti
0.111111 0.888889 -0.000000 Ti
0.111111 0.888889 0.239443 Ti
0.111111 0.555556 -0.000000 Ti
0.222222 0.777778 0.119721 Ti
0.111111 0.555556 0.239443 Ti
0.444444 0.888889 -0.000000 Ti
0.111111 0.222222 -0.000000 Ti
0.222222 0.777778 0.359164 Ti
0.222222 0.444444 0.119721 Ti
0.444444 0.888889 0.239443 Ti
0.111111 0.222222 0.239443 Ti
0.444444 0.555556 -0.000000 Ti
0.222222 0.444444 0.359164 Ti
0.555556 0.777778 0.119721 Ti
0.222222 0.111111 0.119721 Ti
0.444444 0.555556 0.239443 Ti
0.777778 0.888889 -0.000000 Ti
0.444444 0.222222 -0.000000 Ti
0.555556 0.777778 0.359164 Ti
0.222222 0.111111 0.359164 Ti
0.555556 0.444444 0.119721 Ti
0.777778 0.888889 0.239443 Ti
0.444444 0.222222 0.239443 Ti
0.777778 0.555556 -0.000000 Ti
0.555556 0.444444 0.359164 Ti
0.888889 0.777778 0.119721 Ti
0.555556 0.111111 0.119721 Ti
0.777778 0.555556 0.239443 Ti
0.777778 0.222222 -0.000000 Ti
0.888889 0.777778 0.359164 Ti
0.555556 0.111111 0.359164 Ti
0.888889 0.444444 0.119721 Ti
0.777778 0.222222 0.239443 Ti
0.888889 0.444444 0.359164 Ti
0.888889 0.111111 0.119721 Ti
0.888889 0.111111 0.359164 Ti
