alpha_Ti
1.0
4.756512 0.000000 0.000000
0.000000 4.675432 0.000000
0.000000 0.000000 16.211800
Ti
12
direct
0.333333 0.750000 0.444405 Ti
0.333333 0.750000 0.266643 Ti
0.333333 0.750000 0.088881 Ti
0.833334 0.750000 0.355524 Ti
0.833334 0.750000 0.177762 Ti
0.833334 0.750000 -0.000000 Ti
0.166666 0.250000 0.355524 Ti
0.166666 0.250000 0.177762 Ti
0.166666 0.250000 -0.000000 Ti
0.666667 0.250000 0.444405 Ti
0.666667 0.250000 0.266643 Ti
0.666667 0.250000 0.088881 Ti
