total_Ti
1.0
9.445957 0.000000 0.000000
0.000000 9.093951 0.000000
0.000000 0.000000 18.671864
Ti
96
direct
0.166666 0.375000 0.385853 Ti
0.666666 0.375000 0.385853 Ti
0.166666 0.875000 0.385853 Ti
0.666666 0.875000 0.385853 Ti
0.166666 0.375000 0.231512 Ti
0.666666 0.375000 0.231512 Ti
0.166666 0.875000 0.231512 Ti
0.666666 0.875000 0.231512 Ti
0.166666 0.375000 0.077171 Ti
0.666666 0.375000 0.077171 Ti
0.166666 0.875000 0.077171 Ti
0.666666 0.875000 0.077171 Ti
0.416667 0.375000 0.308683 Ti
0.916667 0.375000 0.308683 Ti
0.416667 0.875000 0.308683 Ti
0.916667 0.875000 0.308683 Ti
0.416667 0.375000 0.154342 Ti
0.916667 0.375000 0.154342 Ti
0.416667 0.875000 0.154342 Ti
0.916667 0.875000 0.154342 Ti
0.416667 0.375000 -0.000000 Ti
0.916667 0.375000 -0.000000 Ti
0.416667 0.875000 -0.000000 Ti
0.916667 0.875000 -0.000000 Ti
0.083333 0.125000 0.308682 Ti
0.583333 0.125000 0.308682 Ti
0.083333 0.625000 0.308682 Ti
0.583333 0.625000 0.308682 Ti
0.083333 0.125000 0.154342 Ti
0.583333 0.125000 0.154342 Ti
0.083333 0.625000 0.154342 Ti
0.583333 0.625000 0.154342 Ti
0.083333 0.125000 -0.000000 Ti
0.583333 0.125000 -0.000000 Ti
0.083333 0.625000 -0.000000 Ti
0.583333 0.625000 -0.000000 Ti
0.333333 0.125000 0.385853 Ti
0.833333 0.125000 0.385853 Ti
0.333333 0.625000 0.385853 Ti
0.833333 0.625000 0.385853 Ti
0.333333 0.125000 0.231512 Ti
0.833333 0.125000 0.231512 Ti
0.333333 0.625000 0.231512 Ti
0.833333 0.625000 0.231512 Ti
0.333333 0.125000 0.077171 Ti
0.833333 0.125000 0.077171 Ti
0.333333 0.625000 0.077171 Ti
0.833333 0.625000 0.077171 Ti
0.375000 0.375000 0.821578 Ti
0.875000 0.375000 0.821578 Ti
0.375000 0.875000 0.821578 Ti
0.875000 0.875000 0.821578 Ti
0.125000 0.125000 0.821578 Ti
0.625000 0.125000 0.821578 Ti
0.125000 0.625000 0.821578 Ti
0.625000 0.625000 0.821578 Ti
0.125000 0.375000 0.907346 Ti
0.625000 0.375000 0.907346 Ti
0.125000 0.875000 0.907346 Ti
0.625000 0.875000 0.907346 Ti
0.375000 0.125000 0.907346 Ti
0.875000 0.125000 0.907346 Ti
0.375000 0.625000 0.907346 Ti
0.875000 0.625000 0.907346 Ti
0.375000 0.375000 0.650042 Ti
0.875000 0.375000 0.650042 Ti
0.375000 0.875000 0.650042 Ti
0.875000 0.875000 0.650042 Ti
0.125000 0.125000 0.650042 Ti
0.625000 0.125000 0.650042 Ti
0.125000 0.625000 0.650042 Ti
0.625000 0.625000 0.650042 Ti
0.125000 0.375000 0.564274 Ti
0.625000 0.375000 0.564274 Ti
0.125000 0.875000 0.564274 Ti
0.625000 0.875000 0.564274 Ti
0.375000 0.125000 0.564274 Ti
0.875000 0.125000 0.564274 Ti
0.375000 0.625000 0.564274 Ti
0.875000 0.625000 0.564274 Ti
0.375000 0.375000 0.478506 Ti
0.875000 0.375000 0.478506 Ti
0.375000 0.875000 0.478506 Ti
0.875000 0.875000 0.478506 Ti
0.125000 0.125000 0.478506 Ti
0.625000 0.125000 0.478506 Ti
0.125000 0.625000 0.478506 Ti
0.625000 0.625000 0.478506 Ti
0.125000 0.875000 0.735810 Ti
0.625000 0.875000 0.735810 Ti
0.375000 0.625000 0.735810 Ti
0.875000 0.625000 0.735810 Ti
0.125000 0.375000 0.735810 Ti
0.625000 0.375000 0.735810 Ti
0.375000 0.125000 0.735810 Ti
0.875000 0.125000 0.735810 Ti
