beta_Ti
1.0
4.756512 0.000000 0.000000
0.000000 4.675432 0.000000
0.000000 0.000000 20.411800
Ti
12
direct
0.666667 0.750000 0.872625 Ti
0.166667 0.250000 0.872625 Ti
0.166667 0.750000 0.794168 Ti
0.666667 0.250000 0.794168 Ti
0.666667 0.750000 0.715711 Ti
0.166667 0.250000 0.715711 Ti
0.166667 0.750000 0.637254 Ti
0.666667 0.250000 0.637254 Ti
0.666667 0.750000 0.558797 Ti
0.166667 0.250000 0.558797 Ti
0.166667 0.750000 0.480340 Ti
0.666667 0.250000 0.480340 Ti
