Ti66 Sn1
1.0
6.309760 0.000000 0.000000
0.000000 9.464640 0.000000
0.000000 0.000000 18.918326
Ti Sn
66 1
Selective dynamics
direct
0.626676 0.981878 0.488282 T T T Ti
0.125402 0.035022 0.654891 T T T Ti
0.624977 0.044058 0.642919 T T T Ti
0.125030 0.041358 0.817844 F F F Ti
0.624953 0.041216 0.817704 F F F Ti
0.125291 0.381586 0.488375 T T T Ti
0.626422 0.339093 0.500264 T T T Ti
0.124948 0.342278 0.638545 T T T Ti
0.624857 0.346237 0.653573 T T T Ti
0.124926 0.374962 0.817636 F F F Ti
0.624907 0.375036 0.817628 F F F Ti
0.125815 0.673451 0.486145 T T T Ti
0.624515 0.669695 0.485783 T T T Ti
0.124999 0.708209 0.655312 T T T Ti
0.624629 0.719559 0.647516 T T T Ti
0.124886 0.708142 0.817604 F F F Ti
0.624863 0.708283 0.817536 F F F Ti
0.346271 0.160925 0.539372 T T T Ti
0.903915 0.161126 0.540086 T T T Ti
0.375608 0.207757 0.738833 F F F Ti
0.874389 0.207741 0.738856 F F F Ti
0.375079 0.208198 0.896538 F F F Ti
0.874811 0.208191 0.896535 F F F Ti
0.388430 0.526430 0.576996 T T T Ti
0.861837 0.526716 0.577043 T T T Ti
0.375238 0.541613 0.738465 F F F Ti
0.874639 0.541646 0.738470 F F F Ti
0.374985 0.541586 0.896526 F F F Ti
0.874852 0.541591 0.896523 F F F Ti
0.343102 0.857626 0.562411 T T T Ti
0.907378 0.857191 0.562578 T T T Ti
0.374745 0.874688 0.738576 F F F Ti
0.875232 0.874685 0.738573 F F F Ti
0.375036 0.874789 0.896703 F F F Ti
0.874874 0.874794 0.896698 F F F Ti
0.125747 0.630628 0.359995 T T T Ti
0.623732 0.643850 0.358363 T T T Ti
0.125029 0.624741 0.118334 F F F Ti
0.624945 0.624759 0.118376 F F F Ti
0.632014 0.131732 0.368818 T T T Ti
0.125379 0.124158 0.118416 F F F Ti
0.625091 0.123996 0.117910 F F F Ti
0.124914 0.374600 0.039086 F F F Ti
0.624977 0.374626 0.039064 F F F Ti
0.124885 0.874859 0.039510 F F F Ti
0.624919 0.874685 0.039478 F F F Ti
0.124670 0.388231 0.277114 T T T Ti
0.624355 0.399998 0.272937 T T T Ti
0.125887 0.889308 0.278657 T T T Ti
0.625151 0.886514 0.283041 T T T Ti
0.374832 0.874873 0.158080 F F F Ti
0.875377 0.874767 0.158068 F F F Ti
0.374730 0.373724 0.157140 F F F Ti
0.875349 0.373888 0.157089 F F F Ti
0.400927 0.366261 0.389576 T T T Ti
0.848753 0.368838 0.389505 T T T Ti
0.347727 0.885483 0.400608 T T T Ti
0.902392 0.883068 0.400544 T T T Ti
0.363242 0.633258 0.242585 T T T Ti
0.886609 0.633312 0.242650 T T T Ti
0.374962 0.624913 -0.000102 F F F Ti
0.874869 0.624934 -0.000108 F F F Ti
0.383874 0.139191 0.247074 T T T Ti
0.866805 0.139167 0.246467 T T T Ti
0.374885 0.124533 -0.000164 F F F Ti
0.875033 0.124520 -0.000168 F F F Ti
0.114423 0.126092 0.407004 T T T Sn

0.000000 0.000000 0.000000
0.000000 0.000000 0.000000
0.000000 0.000000 0.000000
0.000000 0.000000 0.000000
0.000000 0.000000 0.000000
0.000000 0.000000 0.000000
0.000000 0.000000 0.000000
0.000000 0.000000 0.000000
0.000000 0.000000 0.000000
0.000000 0.000000 0.000000
0.000000 0.000000 0.000000
0.000000 0.000000 0.000000
0.000000 0.000000 0.000000
0.000000 0.000000 0.000000
0.000000 0.000000 0.000000
0.000000 0.000000 0.000000
0.000000 0.000000 0.000000
0.000000 0.000000 0.000000
0.000000 0.000000 0.000000
0.000000 0.000000 0.000000
0.000000 0.000000 0.000000
0.000000 0.000000 0.000000
0.000000 0.000000 0.000000
0.000000 0.000000 0.000000
0.000000 0.000000 0.000000
0.000000 0.000000 0.000000
0.000000 0.000000 0.000000
0.000000 0.000000 0.000000
0.000000 0.000000 0.000000
0.000000 0.000000 0.000000
0.000000 0.000000 0.000000
0.000000 0.000000 0.000000
0.000000 0.000000 0.000000
0.000000 0.000000 0.000000
0.000000 0.000000 0.000000
0.000000 0.000000 0.000000
0.000000 0.000000 0.000000
0.000000 0.000000 0.000000
0.000000 0.000000 0.000000
0.000000 0.000000 0.000000
0.000000 0.000000 0.000000
0.000000 0.000000 0.000000
0.000000 0.000000 0.000000
0.000000 0.000000 0.000000
0.000000 0.000000 0.000000
0.000000 0.000000 0.000000
0.000000 0.000000 0.000000
0.000000 0.000000 0.000000
0.000000 0.000000 0.000000
0.000000 0.000000 0.000000
0.000000 0.000000 0.000000
0.000000 0.000000 0.000000
0.000000 0.000000 0.000000
0.000000 0.000000 0.000000
0.000000 0.000000 0.000000
0.000000 0.000000 0.000000
0.000000 0.000000 0.000000
0.000000 0.000000 0.000000
0.000000 0.000000 0.000000
0.000000 0.000000 0.000000
0.000000 0.000000 0.000000
0.000000 0.000000 0.000000
0.000000 0.000000 0.000000
0.000000 0.000000 0.000000
0.000000 0.000000 0.000000
0.000000 0.000000 0.000000
0.000000 0.000000 0.000000
