total_Ti
1.0
8.805261 0.000000 0.000000
-4.402631 7.625580 0.000000
0.000000 0.000000 37.883422
Ti
90
direct
0.967272 0.027818 0.553977 Ti
0.967272 0.527818 0.553977 Ti
0.467272 0.027818 0.553977 Ti
0.467272 0.527818 0.553977 Ti
0.133938 0.361151 0.724824 Ti
0.133938 0.861151 0.724824 Ti
0.633938 0.361151 0.724824 Ti
0.633938 0.861151 0.724824 Ti
0.300605 0.194485 0.749230 Ti
0.300605 0.694485 0.749230 Ti
0.800605 0.194485 0.749230 Ti
0.800605 0.694485 0.749230 Ti
0.133938 0.361151 0.578384 Ti
0.133938 0.861151 0.578384 Ti
0.633938 0.361151 0.578384 Ti
0.633938 0.861151 0.578384 Ti
0.300605 0.194485 0.602790 Ti
0.300605 0.694485 0.602790 Ti
0.800605 0.194485 0.602790 Ti
0.800605 0.694485 0.602790 Ti
0.967272 0.027818 0.627197 Ti
0.967272 0.527818 0.627197 Ti
0.467272 0.027818 0.627197 Ti
0.467272 0.527818 0.627197 Ti
0.133938 0.361151 0.651604 Ti
0.133938 0.861151 0.651604 Ti
0.633938 0.361151 0.651604 Ti
0.633938 0.861151 0.651604 Ti
0.300605 0.194485 0.676010 Ti
0.300605 0.694485 0.676010 Ti
0.800605 0.194485 0.676010 Ti
0.800605 0.694485 0.676010 Ti
0.967272 0.027818 0.700417 Ti
0.967272 0.527818 0.700417 Ti
0.467272 0.027818 0.700417 Ti
0.467272 0.527818 0.700417 Ti
0.111111 0.888889 -0.000000 Ti
0.111111 0.888889 0.242566 Ti
0.111111 0.555556 -0.000000 Ti
0.222222 0.777778 0.060642 Ti
0.111111 0.555556 0.242566 Ti
0.444444 0.888889 -0.000000 Ti
0.111111 0.222222 -0.000000 Ti
0.222222 0.777778 0.303208 Ti
0.222222 0.444444 0.060642 Ti
0.444444 0.888889 0.242566 Ti
0.111111 0.222222 0.242566 Ti
0.444444 0.555556 -0.000000 Ti
0.222222 0.444444 0.303208 Ti
0.555556 0.777778 0.060642 Ti
0.222222 0.111111 0.060642 Ti
0.444444 0.555556 0.242566 Ti
0.777778 0.888889 -0.000000 Ti
0.444444 0.222222 -0.000000 Ti
0.555556 0.777778 0.303208 Ti
0.222222 0.111111 0.303208 Ti
0.555556 0.444444 0.060642 Ti
0.777778 0.888889 0.242566 Ti
0.444444 0.222222 0.242566 Ti
0.777778 0.555556 -0.000000 Ti
0.555556 0.444444 0.303208 Ti
0.888889 0.777778 0.060642 Ti
0.555556 0.111111 0.060642 Ti
0.777778 0.555556 0.242566 Ti
0.777778 0.222222 -0.000000 Ti
0.888889 0.777778 0.303208 Ti
0.555556 0.111111 0.303208 Ti
0.888889 0.444444 0.060642 Ti
0.777778 0.222222 0.242566 Ti
0.888889 0.444444 0.303208 Ti
0.888889 0.111111 0.060642 Ti
0.888889 0.111111 0.303208 Ti
0.111111 0.888889 0.121283 Ti
0.111111 0.555556 0.121283 Ti
0.222222 0.777778 0.181925 Ti
0.444444 0.888889 0.121283 Ti
0.111111 0.222222 0.121283 Ti
0.222222 0.444444 0.181925 Ti
0.444444 0.555556 0.121283 Ti
0.555556 0.777778 0.181925 Ti
0.222222 0.111111 0.181925 Ti
0.777778 0.888889 0.121283 Ti
0.444444 0.222222 0.121283 Ti
0.555556 0.444444 0.181925 Ti
0.777778 0.555556 0.121283 Ti
0.888889 0.777778 0.181925 Ti
0.555556 0.111111 0.181925 Ti
0.777778 0.222222 0.121283 Ti
0.888889 0.444444 0.181925 Ti
0.888889 0.111111 0.181925 Ti
