Zr1 Ti66
1.0
6.309760 0.000000 0.000000
0.000000 9.464640 0.000000
0.000000 0.000000 18.918326
Ti Zr
66 1
Selective dynamics
direct
0.123829 0.040995 0.499388 F F F Ti
0.625206 0.041499 0.499913 F F F Ti
0.626665 0.041158 0.658828 F F F Ti
0.124981 0.041655 0.817176 F F F Ti
0.625108 0.041615 0.817219 F F F Ti
0.124784 0.375167 0.499932 F F F Ti
0.624873 0.375024 0.499990 F F F Ti
0.124219 0.375993 0.658808 F F F Ti
0.625149 0.375157 0.658645 F F F Ti
0.124936 0.375069 0.817215 F F F Ti
0.625105 0.375085 0.817219 F F F Ti
0.124934 0.708216 0.499965 F F F Ti
0.625072 0.708225 0.499957 F F F Ti
0.124973 0.708340 0.658586 F F F Ti
0.625072 0.708248 0.658603 F F F Ti
0.124998 0.708348 0.817171 F F F Ti
0.625012 0.708339 0.817180 F F F Ti
0.873488 0.208593 0.579171 F F F Ti
0.375521 0.208650 0.738391 F F F Ti
0.874929 0.208406 0.737928 F F F Ti
0.375005 0.208342 0.896488 F F F Ti
0.874992 0.208336 0.896461 F F F Ti
0.375001 0.541678 0.579290 F F F Ti
0.874865 0.541761 0.579269 F F F Ti
0.375049 0.541767 0.737911 F F F Ti
0.874888 0.541774 0.737923 F F F Ti
0.375003 0.541690 0.896461 F F F Ti
0.874991 0.541687 0.896462 F F F Ti
0.375412 0.874096 0.579169 F F F Ti
0.874939 0.874871 0.579262 F F F Ti
0.375064 0.874930 0.737904 F F F Ti
0.875148 0.874949 0.737894 F F F Ti
0.374998 0.874992 0.896456 F F F Ti
0.875012 0.874992 0.896455 F F F Ti
0.125010 0.624940 0.356806 F F F Ti
0.624953 0.624946 0.356802 F F F Ti
0.125003 0.624990 0.118942 F F F Ti
0.624992 0.624991 0.118942 F F F Ti
0.124985 0.125015 0.356734 F F F Ti
0.624979 0.124999 0.356775 F F F Ti
0.125001 0.124999 0.118943 F F F Ti
0.624990 0.124999 0.118942 F F F Ti
0.124996 0.375002 0.039651 F F F Ti
0.625002 0.375003 0.039652 F F F Ti
0.124998 0.874996 0.039648 F F F Ti
0.625002 0.874995 0.039649 F F F Ti
0.124996 0.375003 0.277500 F F F Ti
0.624989 0.374999 0.277501 F F F Ti
0.124996 0.874981 0.277492 F F F Ti
0.624991 0.874986 0.277493 F F F Ti
0.375001 0.874993 0.158573 F F F Ti
0.874996 0.874993 0.158572 F F F Ti
0.375000 0.375000 0.158576 F F F Ti
0.874998 0.375001 0.158574 F F F Ti
0.374991 0.374984 0.396434 F F F Ti
0.874931 0.375013 0.396414 F F F Ti
0.375046 0.874930 0.396394 F F F Ti
0.874889 0.874903 0.396379 F F F Ti
0.374998 0.624983 0.237870 F F F Ti
0.875002 0.624986 0.237868 F F F Ti
0.374998 0.624997 0.000005 F F F Ti
0.875004 0.624998 0.000006 F F F Ti
0.375006 0.124999 0.237857 F F F Ti
0.874985 0.124999 0.237854 F F F Ti
0.374999 0.124993 0.000017 F F F Ti
0.874996 0.124997 0.000010 F F F Ti
0.281073 0.145646 0.608342 T T T Zr

0.000000 0.000000 0.000000
0.000000 0.000000 0.000000
0.000000 0.000000 0.000000
0.000000 0.000000 0.000000
0.000000 0.000000 0.000000
0.000000 0.000000 0.000000
0.000000 0.000000 0.000000
0.000000 0.000000 0.000000
0.000000 0.000000 0.000000
0.000000 0.000000 0.000000
0.000000 0.000000 0.000000
0.000000 0.000000 0.000000
0.000000 0.000000 0.000000
0.000000 0.000000 0.000000
0.000000 0.000000 0.000000
0.000000 0.000000 0.000000
0.000000 0.000000 0.000000
0.000000 0.000000 0.000000
0.000000 0.000000 0.000000
0.000000 0.000000 0.000000
0.000000 0.000000 0.000000
0.000000 0.000000 0.000000
0.000000 0.000000 0.000000
0.000000 0.000000 0.000000
0.000000 0.000000 0.000000
0.000000 0.000000 0.000000
0.000000 0.000000 0.000000
0.000000 0.000000 0.000000
0.000000 0.000000 0.000000
0.000000 0.000000 0.000000
0.000000 0.000000 0.000000
0.000000 0.000000 0.000000
0.000000 0.000000 0.000000
0.000000 0.000000 0.000000
0.000000 0.000000 0.000000
0.000000 0.000000 0.000000
0.000000 0.000000 0.000000
0.000000 0.000000 0.000000
0.000000 0.000000 0.000000
0.000000 0.000000 0.000000
0.000000 0.000000 0.000000
0.000000 0.000000 0.000000
0.000000 0.000000 0.000000
0.000000 0.000000 0.000000
0.000000 0.000000 0.000000
0.000000 0.000000 0.000000
0.000000 0.000000 0.000000
0.000000 0.000000 0.000000
0.000000 0.000000 0.000000
0.000000 0.000000 0.000000
0.000000 0.000000 0.000000
0.000000 0.000000 0.000000
0.000000 0.000000 0.000000
0.000000 0.000000 0.000000
0.000000 0.000000 0.000000
0.000000 0.000000 0.000000
0.000000 0.000000 0.000000
0.000000 0.000000 0.000000
0.000000 0.000000 0.000000
0.000000 0.000000 0.000000
0.000000 0.000000 0.000000
0.000000 0.000000 0.000000
0.000000 0.000000 0.000000
0.000000 0.000000 0.000000
0.000000 0.000000 0.000000
0.000000 0.000000 0.000000
0.000000 0.000000 0.000000
