Ti97
1.0
9.513020 0.000000 0.000000
0.000000 9.350860 0.000000
0.000000 0.000000 18.547230
Ti
97
Selective dynamics
direct
0.147346 0.370716 0.401698 T T T Ti
0.660970 0.359876 0.392451 T T T Ti
0.156283 0.867636 0.399948 T T T Ti
0.661958 0.875955 0.409644 T T T Ti
0.161272 0.373499 0.237056 T T T Ti
0.660193 0.370918 0.233092 T T T Ti
0.160274 0.874307 0.234976 T T T Ti
0.660842 0.869614 0.237932 T T T Ti
0.166677 0.375061 0.077585 F F F Ti
0.666656 0.374997 0.077562 F F F Ti
0.166681 0.875023 0.077594 F F F Ti
0.666650 0.874949 0.077643 F F F Ti
0.407807 0.381801 0.316776 T T T Ti
0.910146 0.378305 0.317323 T T T Ti
0.401821 0.882239 0.315300 T T T Ti
0.907247 0.875885 0.318728 T T T Ti
0.416671 0.375178 0.155191 F F F Ti
0.916673 0.374955 0.155178 F F F Ti
0.416656 0.875045 0.155246 F F F Ti
0.916656 0.874987 0.155191 F F F Ti
0.416684 0.375092 -0.000088 F F F Ti
0.916610 0.375041 -0.000068 F F F Ti
0.416668 0.874958 -0.000113 F F F Ti
0.916606 0.874974 -0.000080 F F F Ti
0.089854 0.121696 0.317322 T T T Ti
0.592193 0.118200 0.316775 T T T Ti
0.092753 0.624116 0.318727 T T T Ti
0.598179 0.617762 0.315299 T T T Ti
0.083327 0.125059 0.155179 F F F Ti
0.583328 0.124835 0.155193 F F F Ti
0.083345 0.625028 0.155190 F F F Ti
0.583345 0.624967 0.155246 F F F Ti
0.083391 0.124968 -0.000066 F F F Ti
0.583318 0.124922 -0.000086 F F F Ti
0.083396 0.625041 -0.000080 F F F Ti
0.583333 0.625059 -0.000114 F F F Ti
0.339029 0.140125 0.392451 T T T Ti
0.852653 0.129285 0.401698 T T T Ti
0.338041 0.624045 0.409644 T T T Ti
0.843716 0.632364 0.399948 T T T Ti
0.339806 0.129085 0.233092 T T T Ti
0.838727 0.126504 0.237057 T T T Ti
0.339157 0.630388 0.237932 T T T Ti
0.839726 0.625696 0.234976 T T T Ti
0.333343 0.125017 0.077563 F F F Ti
0.833323 0.124952 0.077586 F F F Ti
0.333350 0.625063 0.077643 F F F Ti
0.833319 0.624991 0.077594 F F F Ti
0.375096 0.375051 0.823834 F F F Ti
0.874930 0.374936 0.823912 F F F Ti
0.375076 0.874980 0.823721 F F F Ti
0.874908 0.874959 0.823902 F F F Ti
0.125071 0.125042 0.823913 F F F Ti
0.624914 0.124951 0.823837 F F F Ti
0.125095 0.625033 0.823903 F F F Ti
0.624931 0.625011 0.823723 F F F Ti
0.125043 0.375029 0.910145 F F F Ti
0.624990 0.375003 0.910096 F F F Ti
0.125082 0.874978 0.910108 F F F Ti
0.624949 0.874946 0.910074 F F F Ti
0.375016 0.124993 0.910096 F F F Ti
0.874963 0.124967 0.910145 F F F Ti
0.375053 0.625049 0.910072 F F F Ti
0.874924 0.625021 0.910107 F F F Ti
0.384752 0.376594 0.665645 T T T Ti
0.888347 0.389261 0.648970 T T T Ti
0.375915 0.885690 0.664686 T T T Ti
0.902552 0.879984 0.652350 T T T Ti
0.111651 0.110734 0.648969 T T T Ti
0.615246 0.123400 0.665646 T T T Ti
0.097444 0.620009 0.652350 T T T Ti
0.624084 0.614305 0.664687 T T T Ti
0.141391 0.362158 0.571731 T T T Ti
0.639291 0.364519 0.580645 T T T Ti
0.160534 0.855515 0.565918 T T T Ti
0.672621 0.910973 0.569255 T T T Ti
0.360709 0.135479 0.580645 T T T Ti
0.858608 0.137840 0.571731 T T T Ti
0.327378 0.589025 0.569254 T T T Ti
0.839465 0.644483 0.565918 T T T Ti
0.398654 0.361149 0.483356 T T T Ti
0.887205 0.381568 0.489521 T T T Ti
0.383216 0.929310 0.477490 T T T Ti
0.916269 0.884677 0.484818 T T T Ti
0.112795 0.118431 0.489521 T T T Ti
0.601346 0.138850 0.483356 T T T Ti
0.083731 0.615322 0.484818 T T T Ti
0.616784 0.570689 0.477491 T T T Ti
0.125569 0.875123 0.737674 F F F Ti
0.624935 0.874616 0.737546 F F F Ti
0.375058 0.625365 0.737538 F F F Ti
0.874420 0.624854 0.737682 F F F Ti
0.125090 0.374960 0.737770 F F F Ti
0.625202 0.374724 0.737587 F F F Ti
0.374793 0.125257 0.737585 F F F Ti
0.874896 0.125009 0.737771 F F F Ti
0.500000 0.749999 0.531551 T T T Ti

0.000000 0.000000 0.000000
0.000000 0.000000 0.000000
0.000000 0.000000 0.000000
0.000000 0.000000 0.000000
0.000000 0.000000 0.000000
0.000000 0.000000 0.000000
0.000000 0.000000 0.000000
0.000000 0.000000 0.000000
0.000000 0.000000 0.000000
0.000000 0.000000 0.000000
0.000000 0.000000 0.000000
0.000000 0.000000 0.000000
0.000000 0.000000 0.000000
0.000000 0.000000 0.000000
0.000000 0.000000 0.000000
0.000000 0.000000 0.000000
0.000000 0.000000 0.000000
0.000000 0.000000 0.000000
0.000000 0.000000 0.000000
0.000000 0.000000 0.000000
0.000000 0.000000 0.000000
0.000000 0.000000 0.000000
0.000000 0.000000 0.000000
0.000000 0.000000 0.000000
0.000000 0.000000 0.000000
0.000000 0.000000 0.000000
0.000000 0.000000 0.000000
0.000000 0.000000 0.000000
0.000000 0.000000 0.000000
0.000000 0.000000 0.000000
0.000000 0.000000 0.000000
0.000000 0.000000 0.000000
0.000000 0.000000 0.000000
0.000000 0.000000 0.000000
0.000000 0.000000 0.000000
0.000000 0.000000 0.000000
0.000000 0.000000 0.000000
0.000000 0.000000 0.000000
0.000000 0.000000 0.000000
0.000000 0.000000 0.000000
0.000000 0.000000 0.000000
0.000000 0.000000 0.000000
0.000000 0.000000 0.000000
0.000000 0.000000 0.000000
0.000000 0.000000 0.000000
0.000000 0.000000 0.000000
0.000000 0.000000 0.000000
0.000000 0.000000 0.000000
0.000000 0.000000 0.000000
0.000000 0.000000 0.000000
0.000000 0.000000 0.000000
0.000000 0.000000 0.000000
0.000000 0.000000 0.000000
0.000000 0.000000 0.000000
0.000000 0.000000 0.000000
0.000000 0.000000 0.000000
0.000000 0.000000 0.000000
0.000000 0.000000 0.000000
0.000000 0.000000 0.000000
0.000000 0.000000 0.000000
0.000000 0.000000 0.000000
0.000000 0.000000 0.000000
0.000000 0.000000 0.000000
0.000000 0.000000 0.000000
0.000000 0.000000 0.000000
0.000000 0.000000 0.000000
0.000000 0.000000 0.000000
0.000000 0.000000 0.000000
0.000000 0.000000 0.000000
0.000000 0.000000 0.000000
0.000000 0.000000 0.000000
0.000000 0.000000 0.000000
0.000000 0.000000 0.000000
0.000000 0.000000 0.000000
0.000000 0.000000 0.000000
0.000000 0.000000 0.000000
0.000000 0.000000 0.000000
0.000000 0.000000 0.000000
0.000000 0.000000 0.000000
0.000000 0.000000 0.000000
0.000000 0.000000 0.000000
0.000000 0.000000 0.000000
0.000000 0.000000 0.000000
0.000000 0.000000 0.000000
0.000000 0.000000 0.000000
0.000000 0.000000 0.000000
0.000000 0.000000 0.000000
0.000000 0.000000 0.000000
0.000000 0.000000 0.000000
0.000000 0.000000 0.000000
0.000000 0.000000 0.000000
0.000000 0.000000 0.000000
0.000000 0.000000 0.000000
0.000000 0.000000 0.000000
0.000000 0.000000 0.000000
0.000000 0.000000 0.000000
0.000000 0.000000 0.000000
