Ti82 Cr1
1.0
6.391540 0.000000 0.000000
0.000000 9.587310 0.000000
0.000000 0.000000 23.271695
Ti Cr
82 1
Selective dynamics
direct
0.642004 0.083225 0.582496 F F F Ti
0.126004 0.083397 0.709462 F F F Ti
0.626428 0.083377 0.709898 F F F Ti
0.125128 0.083361 0.838450 F F F Ti
0.625216 0.083359 0.838520 F F F Ti
0.124976 0.418879 0.580798 F F F Ti
0.626613 0.417595 0.580747 F F F Ti
0.125612 0.416968 0.709719 F F F Ti
0.625926 0.417081 0.709812 F F F Ti
0.125133 0.416677 0.838515 F F F Ti
0.625160 0.416692 0.838540 F F F Ti
0.124704 0.748130 0.580801 F F F Ti
0.626553 0.749250 0.580754 F F F Ti
0.125481 0.749823 0.709745 F F F Ti
0.625877 0.749765 0.709834 F F F Ti
0.125098 0.750034 0.838522 F F F Ti
0.625151 0.750025 0.838548 F F F Ti
0.378181 0.251428 0.645837 F F F Ti
0.877620 0.251074 0.645382 F F F Ti
0.375301 0.250071 0.774113 F F F Ti
0.875547 0.250058 0.774085 F F F Ti
0.375039 0.249989 0.902903 F F F Ti
0.875106 0.249987 0.902906 F F F Ti
0.375833 0.583688 0.645274 F F F Ti
0.875090 0.583371 0.645405 F F F Ti
0.375225 0.583390 0.774143 F F F Ti
0.875342 0.583332 0.774179 F F F Ti
0.375023 0.583340 0.902924 F F F Ti
0.875070 0.583332 0.902935 F F F Ti
0.377957 0.915498 0.645770 F F F Ti
0.877600 0.915721 0.645413 F F F Ti
0.375264 0.916689 0.774104 F F F Ti
0.875529 0.916682 0.774085 F F F Ti
0.375015 0.916692 0.902891 F F F Ti
0.875089 0.916689 0.902896 F F F Ti
0.123039 0.167209 0.386376 F F F Ti
0.622471 0.166962 0.386549 F F F Ti
0.124738 0.665935 0.386098 F F F Ti
0.624957 0.666602 0.386391 F F F Ti
0.125004 0.166648 -0.000032 F F F Ti
0.624968 0.166651 -0.000026 F F F Ti
0.125003 0.666705 -0.000017 F F F Ti
0.624976 0.666700 -0.000014 F F F Ti
0.124985 0.833361 0.096622 F F F Ti
0.624974 0.833365 0.096620 F F F Ti
0.118490 0.826319 0.482387 F F F Ti
0.626521 0.831557 0.483283 F F F Ti
0.124983 0.333319 0.096621 F F F Ti
0.624963 0.333320 0.096617 F F F Ti
0.117560 0.341452 0.482168 F F F Ti
0.625587 0.335089 0.483324 F F F Ti
0.376045 0.584136 0.483265 F F F Ti
0.872376 0.583696 0.483216 F F F Ti
0.374997 0.583337 0.096613 F F F Ti
0.875001 0.583337 0.096609 F F F Ti
0.374977 0.083345 0.096635 F F F Ti
0.874976 0.083350 0.096630 F F F Ti
0.862224 0.083295 0.481985 F F F Ti
0.374968 0.417002 0.386440 F F F Ti
0.873115 0.417115 0.386107 F F F Ti
0.374052 0.916107 0.386545 F F F Ti
0.873809 0.916388 0.386230 F F F Ti
0.374961 0.416649 -0.000023 F F F Ti
0.875007 0.416645 -0.000018 F F F Ti
0.374963 0.916688 -0.000019 F F F Ti
0.875014 0.916686 -0.000014 F F F Ti
0.374473 0.083296 0.289951 F F F Ti
0.874472 0.083392 0.289876 F F F Ti
0.124922 0.166644 0.193272 F F F Ti
0.624824 0.166630 0.193261 F F F Ti
0.124802 0.333423 0.289816 F F F Ti
0.624432 0.333271 0.289807 F F F Ti
0.374887 0.416659 0.193222 F F F Ti
0.874854 0.416635 0.193215 F F F Ti
0.375089 0.583371 0.289802 F F F Ti
0.874671 0.583395 0.289701 F F F Ti
0.124956 0.666668 0.193217 F F F Ti
0.624857 0.666685 0.193204 F F F Ti
0.124805 0.833329 0.289831 F F F Ti
0.624593 0.833346 0.289830 F F F Ti
0.374866 0.916684 0.193261 F F F Ti
0.874883 0.916674 0.193252 F F F Ti
0.257225 0.089364 0.529797 T T T Cr

0.000000 0.000000 0.000000
0.000000 0.000000 0.000000
0.000000 0.000000 0.000000
0.000000 0.000000 0.000000
0.000000 0.000000 0.000000
0.000000 0.000000 0.000000
0.000000 0.000000 0.000000
0.000000 0.000000 0.000000
0.000000 0.000000 0.000000
0.000000 0.000000 0.000000
0.000000 0.000000 0.000000
0.000000 0.000000 0.000000
0.000000 0.000000 0.000000
0.000000 0.000000 0.000000
0.000000 0.000000 0.000000
0.000000 0.000000 0.000000
0.000000 0.000000 0.000000
0.000000 0.000000 0.000000
0.000000 0.000000 0.000000
0.000000 0.000000 0.000000
0.000000 0.000000 0.000000
0.000000 0.000000 0.000000
0.000000 0.000000 0.000000
0.000000 0.000000 0.000000
0.000000 0.000000 0.000000
0.000000 0.000000 0.000000
0.000000 0.000000 0.000000
0.000000 0.000000 0.000000
0.000000 0.000000 0.000000
0.000000 0.000000 0.000000
0.000000 0.000000 0.000000
0.000000 0.000000 0.000000
0.000000 0.000000 0.000000
0.000000 0.000000 0.000000
0.000000 0.000000 0.000000
0.000000 0.000000 0.000000
0.000000 0.000000 0.000000
0.000000 0.000000 0.000000
0.000000 0.000000 0.000000
0.000000 0.000000 0.000000
0.000000 0.000000 0.000000
0.000000 0.000000 0.000000
0.000000 0.000000 0.000000
0.000000 0.000000 0.000000
0.000000 0.000000 0.000000
0.000000 0.000000 0.000000
0.000000 0.000000 0.000000
0.000000 0.000000 0.000000
0.000000 0.000000 0.000000
0.000000 0.000000 0.000000
0.000000 0.000000 0.000000
0.000000 0.000000 0.000000
0.000000 0.000000 0.000000
0.000000 0.000000 0.000000
0.000000 0.000000 0.000000
0.000000 0.000000 0.000000
0.000000 0.000000 0.000000
0.000000 0.000000 0.000000
0.000000 0.000000 0.000000
0.000000 0.000000 0.000000
0.000000 0.000000 0.000000
0.000000 0.000000 0.000000
0.000000 0.000000 0.000000
0.000000 0.000000 0.000000
0.000000 0.000000 0.000000
0.000000 0.000000 0.000000
0.000000 0.000000 0.000000
0.000000 0.000000 0.000000
0.000000 0.000000 0.000000
0.000000 0.000000 0.000000
0.000000 0.000000 0.000000
0.000000 0.000000 0.000000
0.000000 0.000000 0.000000
0.000000 0.000000 0.000000
0.000000 0.000000 0.000000
0.000000 0.000000 0.000000
0.000000 0.000000 0.000000
0.000000 0.000000 0.000000
0.000000 0.000000 0.000000
0.000000 0.000000 0.000000
0.000000 0.000000 0.000000
0.000000 0.000000 0.000000
0.000000 0.000000 0.000000
