total_Ti
1.0
4.756512 0.000000 0.000000
0.000000 4.675432 0.000000
0.000000 0.000000 34.211800
Ti
24
direct
0.333333 0.750000 0.210588 Ti
0.333333 0.750000 0.126353 Ti
0.333333 0.750000 0.042118 Ti
0.833334 0.750000 0.168471 Ti
0.833334 0.750000 0.084235 Ti
0.833334 0.750000 -0.000000 Ti
0.166666 0.250000 0.168470 Ti
0.166666 0.250000 0.084235 Ti
0.166666 0.250000 -0.000000 Ti
0.666667 0.250000 0.210588 Ti
0.666667 0.250000 0.126353 Ti
0.666667 0.250000 0.042118 Ti
0.666667 0.750000 0.722319 Ti
0.166667 0.250000 0.722319 Ti
0.166667 0.750000 0.675510 Ti
0.666667 0.250000 0.675510 Ti
0.666667 0.750000 0.628700 Ti
0.166667 0.250000 0.628700 Ti
0.166667 0.750000 0.581890 Ti
0.666667 0.250000 0.581890 Ti
0.666667 0.750000 0.535080 Ti
0.166667 0.250000 0.535080 Ti
0.166667 0.750000 0.488270 Ti
0.666667 0.250000 0.488270 Ti
