total_Ti
1.0
8.805261 0.000000 0.000000
-4.402631 7.625580 0.000000
0.000000 0.000000 32.883422
Ti
90
direct
0.083333 0.916670 0.562185 Ti
0.083333 0.416670 0.562185 Ti
0.583333 0.916670 0.562185 Ti
0.583333 0.416670 0.562185 Ti
0.250000 0.250004 0.759009 Ti
0.250000 0.750004 0.759009 Ti
0.750000 0.250004 0.759009 Ti
0.750000 0.750004 0.759009 Ti
0.416667 0.083337 0.787126 Ti
0.416667 0.583337 0.787126 Ti
0.916667 0.083337 0.787126 Ti
0.916667 0.583337 0.787126 Ti
0.250000 0.250004 0.590302 Ti
0.250000 0.750004 0.590302 Ti
0.750000 0.250004 0.590302 Ti
0.750000 0.750004 0.590302 Ti
0.416667 0.083337 0.618420 Ti
0.416667 0.583337 0.618420 Ti
0.916667 0.083337 0.618420 Ti
0.916667 0.583337 0.618420 Ti
0.083333 0.916670 0.646538 Ti
0.083333 0.416670 0.646538 Ti
0.583333 0.916670 0.646538 Ti
0.583333 0.416670 0.646538 Ti
0.250000 0.250004 0.674655 Ti
0.250000 0.750004 0.674655 Ti
0.750000 0.250004 0.674655 Ti
0.750000 0.750004 0.674655 Ti
0.416667 0.083337 0.702773 Ti
0.416667 0.583337 0.702773 Ti
0.916667 0.083337 0.702773 Ti
0.916667 0.583337 0.702773 Ti
0.083333 0.916670 0.730891 Ti
0.083333 0.416670 0.730891 Ti
0.583333 0.916670 0.730891 Ti
0.583333 0.416670 0.730891 Ti
0.138888 0.861108 -0.000000 Ti
0.138888 0.861108 0.279449 Ti
0.138888 0.527774 -0.000000 Ti
0.249999 0.749996 0.069862 Ti
0.138888 0.527774 0.279449 Ti
0.472221 0.861108 -0.000000 Ti
0.138888 0.194441 -0.000000 Ti
0.249999 0.749996 0.349311 Ti
0.250000 0.416663 0.069862 Ti
0.472221 0.861108 0.279449 Ti
0.138888 0.194441 0.279449 Ti
0.472222 0.527774 -0.000000 Ti
0.250000 0.416663 0.349311 Ti
0.583333 0.749996 0.069862 Ti
0.250000 0.083330 0.069862 Ti
0.472222 0.527774 0.279449 Ti
0.805555 0.861108 -0.000000 Ti
0.472222 0.194441 -0.000000 Ti
0.583333 0.749996 0.349311 Ti
0.250000 0.083330 0.349311 Ti
0.583333 0.416663 0.069862 Ti
0.805555 0.861108 0.279449 Ti
0.472222 0.194441 0.279449 Ti
0.805555 0.527774 -0.000000 Ti
0.583333 0.416663 0.349311 Ti
0.916666 0.749996 0.069862 Ti
0.583333 0.083330 0.069862 Ti
0.805555 0.527774 0.279449 Ti
0.805555 0.194441 -0.000000 Ti
0.916666 0.749996 0.349311 Ti
0.583333 0.083330 0.349311 Ti
0.916666 0.416663 0.069862 Ti
0.805555 0.194441 0.279449 Ti
0.916666 0.416663 0.349311 Ti
0.916666 0.083330 0.069862 Ti
0.916666 0.083330 0.349311 Ti
0.138888 0.861108 0.139725 Ti
0.138888 0.527774 0.139725 Ti
0.249999 0.749996 0.209587 Ti
0.472221 0.861108 0.139725 Ti
0.138888 0.194441 0.139725 Ti
0.250000 0.416663 0.209587 Ti
0.472222 0.527774 0.139725 Ti
0.583333 0.749996 0.209587 Ti
0.250000 0.083330 0.209587 Ti
0.805555 0.861108 0.139725 Ti
0.472222 0.194441 0.139725 Ti
0.583333 0.416663 0.209587 Ti
0.805555 0.527774 0.139725 Ti
0.916666 0.749996 0.209587 Ti
0.583333 0.083330 0.209587 Ti
0.805555 0.194441 0.139725 Ti
0.916666 0.416663 0.209587 Ti
0.916666 0.083330 0.209587 Ti
