Ti36
1.0
8.805261 0.000000 0.000000
-4.402630 7.625579 0.000000
0.000000 0.000000 18.688801
Ti
36
direct
0.000000 0.000000 0.486491 Ti
1.000000 0.500000 0.486491 Ti
0.500000 0.000000 0.486491 Ti
0.500000 0.500000 0.486491 Ti
0.166667 0.333333 0.832808 Ti
0.166667 0.833333 0.832808 Ti
0.666667 0.333333 0.832808 Ti
0.666667 0.833333 0.832808 Ti
0.333333 0.166667 0.882282 Ti
0.333333 0.666667 0.882282 Ti
0.833333 0.166667 0.882282 Ti
0.833333 0.666667 0.882282 Ti
0.166667 0.333333 0.535965 Ti
0.166667 0.833333 0.535965 Ti
0.666667 0.333333 0.535965 Ti
0.666667 0.833333 0.535965 Ti
0.333333 0.166667 0.585438 Ti
0.333333 0.666667 0.585438 Ti
0.833333 0.166667 0.585438 Ti
0.833333 0.666667 0.585438 Ti
0.000000 0.000000 0.634912 Ti
1.000000 0.500000 0.634912 Ti
0.500000 0.000000 0.634912 Ti
0.500000 0.500000 0.634912 Ti
0.166667 0.333333 0.684386 Ti
0.166667 0.833333 0.684386 Ti
0.666667 0.333333 0.684386 Ti
0.666667 0.833333 0.684386 Ti
0.333333 0.166667 0.733860 Ti
0.333333 0.666667 0.733860 Ti
0.833333 0.166667 0.733860 Ti
0.833333 0.666667 0.733860 Ti
0.000000 0.000000 0.783334 Ti
1.000000 0.500000 0.783334 Ti
0.500000 0.000000 0.783334 Ti
0.500000 0.500000 0.783334 Ti

0.000000 0.000000 0.000000
0.000000 0.000000 0.000000
0.000000 0.000000 0.000000
0.000000 0.000000 0.000000
0.000000 0.000000 0.000000
0.000000 0.000000 0.000000
0.000000 0.000000 0.000000
0.000000 0.000000 0.000000
0.000000 0.000000 0.000000
0.000000 0.000000 0.000000
0.000000 0.000000 0.000000
0.000000 0.000000 0.000000
0.000000 0.000000 0.000000
0.000000 0.000000 0.000000
0.000000 0.000000 0.000000
0.000000 0.000000 0.000000
0.000000 0.000000 0.000000
0.000000 0.000000 0.000000
0.000000 0.000000 0.000000
0.000000 0.000000 0.000000
0.000000 0.000000 0.000000
0.000000 0.000000 0.000000
0.000000 0.000000 0.000000
0.000000 0.000000 0.000000
0.000000 0.000000 0.000000
0.000000 0.000000 0.000000
0.000000 0.000000 0.000000
0.000000 0.000000 0.000000
0.000000 0.000000 0.000000
0.000000 0.000000 0.000000
0.000000 0.000000 0.000000
0.000000 0.000000 0.000000
0.000000 0.000000 0.000000
0.000000 0.000000 0.000000
0.000000 0.000000 0.000000
0.000000 0.000000 0.000000
