total_Ti
1.0
6.309760 0.000000 0.000000
0.000000 9.464640 0.000000
0.000000 0.000000 30.000004
Ti
68
direct
0.125000 0.958333 0.500000 Ti
0.625000 0.958333 0.500000 Ti
0.125000 0.958333 0.600000 Ti
0.625000 0.958333 0.600000 Ti
0.125000 0.958333 0.700000 Ti
0.625000 0.958333 0.700000 Ti
0.125000 0.291667 0.500000 Ti
0.625000 0.291667 0.500000 Ti
0.125000 0.291667 0.600000 Ti
0.625000 0.291667 0.600000 Ti
0.125000 0.291667 0.700000 Ti
0.625000 0.291667 0.700000 Ti
0.125000 0.625000 0.500000 Ti
0.625000 0.625000 0.500000 Ti
0.125000 0.625000 0.600000 Ti
0.625000 0.625000 0.600000 Ti
0.125000 0.625000 0.700000 Ti
0.625000 0.625000 0.700000 Ti
0.375000 0.125000 0.550000 Ti
0.875000 0.125000 0.550000 Ti
0.375000 0.125000 0.650000 Ti
0.875000 0.125000 0.650000 Ti
0.375000 0.125000 0.750000 Ti
0.875000 0.125000 0.750000 Ti
0.375000 0.458333 0.550000 Ti
0.875000 0.458333 0.550000 Ti
0.375000 0.458333 0.650000 Ti
0.875000 0.458333 0.650000 Ti
0.375000 0.458333 0.750000 Ti
0.875000 0.458333 0.750000 Ti
0.375000 0.791667 0.550000 Ti
0.875000 0.791667 0.550000 Ti
0.375000 0.791667 0.650000 Ti
0.875000 0.791667 0.650000 Ti
0.375000 0.791667 0.750000 Ti
0.875000 0.791667 0.750000 Ti
0.125000 0.625000 0.225000 Ti
0.625000 0.625000 0.225000 Ti
0.125000 0.625000 0.075000 Ti
0.625000 0.625000 0.075000 Ti
0.125000 0.125000 0.225000 Ti
0.625000 0.125000 0.225000 Ti
0.125000 0.125000 0.075000 Ti
0.625000 0.125000 0.075000 Ti
0.125000 0.375000 0.025000 Ti
0.625000 0.375000 0.025000 Ti
0.125000 0.875000 0.025000 Ti
0.625000 0.875000 0.025000 Ti
0.125000 0.375000 0.175000 Ti
0.625000 0.375000 0.175000 Ti
0.125000 0.875000 0.175000 Ti
0.625000 0.875000 0.175000 Ti
0.375000 0.875000 0.100000 Ti
0.875000 0.875000 0.100000 Ti
0.374999 0.375000 0.100000 Ti
0.874999 0.375000 0.100000 Ti
0.375000 0.375000 0.250000 Ti
0.875000 0.375000 0.250000 Ti
0.375000 0.875000 0.250000 Ti
0.875000 0.875000 0.250000 Ti
0.375000 0.625000 0.150000 Ti
0.875000 0.625000 0.150000 Ti
0.375000 0.625000 -0.000000 Ti
0.875000 0.625000 -0.000000 Ti
0.375000 0.125000 0.150000 Ti
0.875000 0.125000 0.150000 Ti
0.375000 0.125000 -0.000000 Ti
0.875000 0.125000 -0.000000 Ti
