beta_Ti
1.0
8.805261 0.000000 0.000000
-4.402631 7.625580 0.000000
0.000000 0.000000 32.883422
Ti
36
direct
0.222214 0.944436 0.562185 Ti
0.222214 0.444436 0.562185 Ti
0.722214 0.944436 0.562185 Ti
0.722214 0.444436 0.562185 Ti
0.388880 0.277769 0.759009 Ti
0.388880 0.777769 0.759009 Ti
0.888880 0.277769 0.759009 Ti
0.888880 0.777769 0.759009 Ti
0.555547 0.111102 0.787126 Ti
0.555547 0.611102 0.787126 Ti
0.055556 0.111102 0.787126 Ti
0.055556 0.611102 0.787126 Ti
0.388880 0.277769 0.590302 Ti
0.388880 0.777769 0.590302 Ti
0.888880 0.277769 0.590302 Ti
0.888880 0.777769 0.590302 Ti
0.555547 0.111102 0.618420 Ti
0.555547 0.611102 0.618420 Ti
0.055556 0.111102 0.618420 Ti
0.055556 0.611102 0.618420 Ti
0.222214 0.944436 0.646538 Ti
0.222214 0.444436 0.646538 Ti
0.722214 0.944436 0.646538 Ti
0.722214 0.444436 0.646538 Ti
0.388880 0.277769 0.674655 Ti
0.388880 0.777769 0.674655 Ti
0.888880 0.277769 0.674655 Ti
0.888880 0.777769 0.674655 Ti
0.555547 0.111102 0.702773 Ti
0.555547 0.611102 0.702773 Ti
0.055556 0.111102 0.702773 Ti
0.055556 0.611102 0.702773 Ti
0.222214 0.944436 0.730891 Ti
0.222214 0.444436 0.730891 Ti
0.722214 0.944436 0.730891 Ti
0.722214 0.444436 0.730891 Ti
