Ti66 Cr1
1.0
6.309760 0.000000 0.000000
0.000000 9.464640 0.000000
0.000000 0.000000 18.918326
Ti Cr
66 1
Selective dynamics
direct
0.632506 0.041621 0.500693 F F F Ti
0.626648 0.041794 0.659688 F F F Ti
0.125110 0.041575 0.817314 F F F Ti
0.625090 0.041585 0.817649 F F F Ti
0.125836 0.377607 0.500308 F F F Ti
0.626254 0.377177 0.499478 F F F Ti
0.126020 0.375606 0.659324 F F F Ti
0.625394 0.377380 0.660273 F F F Ti
0.125298 0.374715 0.817768 F F F Ti
0.625101 0.374871 0.817940 F F F Ti
0.125087 0.706357 0.500637 F F F Ti
0.625171 0.705653 0.499340 F F F Ti
0.125641 0.707347 0.659355 F F F Ti
0.624481 0.705040 0.660588 F F F Ti
0.125157 0.708415 0.817779 F F F Ti
0.625023 0.708279 0.818007 F F F Ti
0.386549 0.214019 0.580895 F F F Ti
0.863124 0.216447 0.581734 F F F Ti
0.375196 0.208183 0.738315 F F F Ti
0.875456 0.208465 0.738565 F F F Ti
0.374966 0.208098 0.896771 F F F Ti
0.875213 0.208134 0.896814 F F F Ti
0.375964 0.541273 0.579829 F F F Ti
0.874990 0.541044 0.579943 F F F Ti
0.374493 0.541410 0.738926 F F F Ti
0.876249 0.541288 0.738995 F F F Ti
0.374966 0.541553 0.896973 F F F Ti
0.875210 0.541531 0.896985 F F F Ti
0.388415 0.868623 0.581277 F F F Ti
0.858348 0.865002 0.582415 F F F Ti
0.375053 0.874946 0.738285 F F F Ti
0.875272 0.874588 0.738571 F F F Ti
0.374909 0.875104 0.896798 F F F Ti
0.875198 0.875085 0.896852 F F F Ti
0.125291 0.625257 0.356902 F F F Ti
0.624975 0.625111 0.356522 F F F Ti
0.124971 0.625125 0.119170 F F F Ti
0.624883 0.625102 0.119140 F F F Ti
0.125397 0.125293 0.357015 F F F Ti
0.626017 0.125016 0.357166 F F F Ti
0.125051 0.124946 0.119272 F F F Ti
0.624897 0.124950 0.119216 F F F Ti
0.124967 0.374850 0.039965 F F F Ti
0.624843 0.374869 0.039944 F F F Ti
0.124938 0.875126 0.040039 F F F Ti
0.624768 0.875101 0.040009 F F F Ti
0.125159 0.375130 0.277522 F F F Ti
0.625191 0.374945 0.277467 F F F Ti
0.125248 0.875193 0.277942 F F F Ti
0.624906 0.875179 0.277787 F F F Ti
0.374943 0.875103 0.158882 F F F Ti
0.875049 0.875089 0.158863 F F F Ti
0.375003 0.374969 0.158717 F F F Ti
0.875033 0.374985 0.158676 F F F Ti
0.375463 0.375462 0.396339 F F F Ti
0.875463 0.375914 0.396221 F F F Ti
0.375274 0.875259 0.397224 F F F Ti
0.874701 0.874044 0.396593 F F F Ti
0.374932 0.625161 0.237952 F F F Ti
0.875189 0.625116 0.237923 F F F Ti
0.374858 0.625140 0.000342 F F F Ti
0.875005 0.625142 0.000351 F F F Ti
0.375158 0.124984 0.238183 F F F Ti
0.875150 0.124988 0.238095 F F F Ti
0.374893 0.124888 0.000248 F F F Ti
0.875040 0.124879 0.000274 F F F Ti
0.108951 0.024595 0.524429 T T T Cr

0.000000 0.000000 0.000000
0.000000 0.000000 0.000000
0.000000 0.000000 0.000000
0.000000 0.000000 0.000000
0.000000 0.000000 0.000000
0.000000 0.000000 0.000000
0.000000 0.000000 0.000000
0.000000 0.000000 0.000000
0.000000 0.000000 0.000000
0.000000 0.000000 0.000000
0.000000 0.000000 0.000000
0.000000 0.000000 0.000000
0.000000 0.000000 0.000000
0.000000 0.000000 0.000000
0.000000 0.000000 0.000000
0.000000 0.000000 0.000000
0.000000 0.000000 0.000000
0.000000 0.000000 0.000000
0.000000 0.000000 0.000000
0.000000 0.000000 0.000000
0.000000 0.000000 0.000000
0.000000 0.000000 0.000000
0.000000 0.000000 0.000000
0.000000 0.000000 0.000000
0.000000 0.000000 0.000000
0.000000 0.000000 0.000000
0.000000 0.000000 0.000000
0.000000 0.000000 0.000000
0.000000 0.000000 0.000000
0.000000 0.000000 0.000000
0.000000 0.000000 0.000000
0.000000 0.000000 0.000000
0.000000 0.000000 0.000000
0.000000 0.000000 0.000000
0.000000 0.000000 0.000000
0.000000 0.000000 0.000000
0.000000 0.000000 0.000000
0.000000 0.000000 0.000000
0.000000 0.000000 0.000000
0.000000 0.000000 0.000000
0.000000 0.000000 0.000000
0.000000 0.000000 0.000000
0.000000 0.000000 0.000000
0.000000 0.000000 0.000000
0.000000 0.000000 0.000000
0.000000 0.000000 0.000000
0.000000 0.000000 0.000000
0.000000 0.000000 0.000000
0.000000 0.000000 0.000000
0.000000 0.000000 0.000000
0.000000 0.000000 0.000000
0.000000 0.000000 0.000000
0.000000 0.000000 0.000000
0.000000 0.000000 0.000000
0.000000 0.000000 0.000000
0.000000 0.000000 0.000000
0.000000 0.000000 0.000000
0.000000 0.000000 0.000000
0.000000 0.000000 0.000000
0.000000 0.000000 0.000000
0.000000 0.000000 0.000000
0.000000 0.000000 0.000000
0.000000 0.000000 0.000000
0.000000 0.000000 0.000000
0.000000 0.000000 0.000000
0.000000 0.000000 0.000000
0.000000 0.000000 0.000000
