alpha_Ti
1.0
6.309760 0.000000 0.000000
0.000000 9.464640 0.000000
0.000000 0.000000 23.000004
Ti
32
direct
0.125000 0.625000 0.293478 Ti
0.625000 0.625000 0.293478 Ti
0.125000 0.625000 0.097826 Ti
0.625000 0.625000 0.097826 Ti
0.125000 0.125000 0.293478 Ti
0.625000 0.125000 0.293478 Ti
0.125000 0.125000 0.097826 Ti
0.625000 0.125000 0.097826 Ti
0.125000 0.375000 0.032609 Ti
0.625000 0.375000 0.032609 Ti
0.125000 0.875000 0.032609 Ti
0.625000 0.875000 0.032609 Ti
0.125000 0.375000 0.228261 Ti
0.625000 0.375000 0.228261 Ti
0.125000 0.875000 0.228261 Ti
0.625000 0.875000 0.228261 Ti
0.375000 0.875000 0.130435 Ti
0.875000 0.875000 0.130435 Ti
0.374999 0.375000 0.130435 Ti
0.874999 0.375000 0.130435 Ti
0.375000 0.375000 0.326087 Ti
0.875000 0.375000 0.326087 Ti
0.375000 0.875000 0.326087 Ti
0.875000 0.875000 0.326087 Ti
0.375000 0.625000 0.195652 Ti
0.875000 0.625000 0.195652 Ti
0.375000 0.625000 -0.000000 Ti
0.875000 0.625000 -0.000000 Ti
0.375000 0.125000 0.195652 Ti
0.875000 0.125000 0.195652 Ti
0.375000 0.125000 -0.000000 Ti
0.875000 0.125000 -0.000000 Ti
