beta_Ti
1.0
6.391540 0.000000 0.000000
0.000000 9.587310 0.000000
0.000000 0.000000 24.150000
Ti
36
direct
0.125000 0.083333 0.577640 Ti
0.625000 0.083333 0.577640 Ti
0.125000 0.083333 0.701863 Ti
0.625000 0.083333 0.701863 Ti
0.125000 0.083333 0.826087 Ti
0.625000 0.083333 0.826087 Ti
0.125000 0.416667 0.577640 Ti
0.625000 0.416667 0.577640 Ti
0.125000 0.416667 0.701863 Ti
0.625000 0.416667 0.701863 Ti
0.125000 0.416667 0.826087 Ti
0.625000 0.416667 0.826087 Ti
0.125000 0.750000 0.577640 Ti
0.625000 0.750000 0.577640 Ti
0.125000 0.750000 0.701863 Ti
0.625000 0.750000 0.701863 Ti
0.125000 0.750000 0.826087 Ti
0.625000 0.750000 0.826087 Ti
0.375000 0.250000 0.639752 Ti
0.875000 0.250000 0.639752 Ti
0.375000 0.250000 0.763975 Ti
0.875000 0.250000 0.763975 Ti
0.375000 0.250000 0.888199 Ti
0.875000 0.250000 0.888199 Ti
0.375000 0.583333 0.639752 Ti
0.875000 0.583333 0.639752 Ti
0.375000 0.583333 0.763975 Ti
0.875000 0.583333 0.763975 Ti
0.375000 0.583333 0.888199 Ti
0.875000 0.583333 0.888199 Ti
0.375000 0.916667 0.639752 Ti
0.875000 0.916667 0.639752 Ti
0.375000 0.916667 0.763975 Ti
0.875000 0.916667 0.763975 Ti
0.375000 0.916667 0.888199 Ti
0.875000 0.916667 0.888199 Ti
