Ti82 Sn1
1.0
6.391540 0.000000 0.000000
0.000000 9.587310 0.000000
0.000000 0.000000 23.271695
Ti Sn
82 1
Selective dynamics
direct
0.123613 0.083480 0.580808 F F F Ti
0.623125 0.083526 0.580853 F F F Ti
0.124893 0.083359 0.709568 F F F Ti
0.624785 0.083361 0.709569 F F F Ti
0.124995 0.083342 0.838428 F F F Ti
0.624972 0.083342 0.838428 F F F Ti
0.124738 0.417745 0.581400 F F F Ti
0.625046 0.416975 0.580729 F F F Ti
0.124960 0.416753 0.709660 F F F Ti
0.624863 0.416720 0.709594 F F F Ti
0.124995 0.416673 0.838445 F F F Ti
0.624969 0.416670 0.838439 F F F Ti
0.124810 0.750112 0.580822 F F F Ti
0.624796 0.750075 0.580740 F F F Ti
0.124963 0.750101 0.709606 F F F Ti
0.624853 0.750111 0.709601 F F F Ti
0.124992 0.750026 0.838442 F F F Ti
0.624966 0.750028 0.838441 F F F Ti
0.374756 0.250123 0.645105 F F F Ti
0.874468 0.250083 0.645241 F F F Ti
0.374972 0.250000 0.773991 F F F Ti
0.874925 0.250000 0.774017 F F F Ti
0.374995 0.249988 0.902852 F F F Ti
0.875007 0.249989 0.902857 F F F Ti
0.375248 0.583614 0.645224 F F F Ti
0.874596 0.583631 0.645293 F F F Ti
0.375002 0.583383 0.774025 F F F Ti
0.874929 0.583381 0.774036 F F F Ti
0.374990 0.583325 0.902859 F F F Ti
0.874994 0.583326 0.902861 F F F Ti
0.374690 0.916746 0.645063 F F F Ti
0.874589 0.916682 0.645175 F F F Ti
0.374945 0.916701 0.773984 F F F Ti
0.874940 0.916691 0.774005 F F F Ti
0.374984 0.916678 0.902847 F F F Ti
0.875002 0.916676 0.902850 F F F Ti
0.635381 0.167479 0.385589 F F F Ti
0.124393 0.665889 0.386593 F F F Ti
0.626739 0.665377 0.386541 F F F Ti
0.125018 0.166666 -0.000021 F F F Ti
0.625004 0.166662 -0.000027 F F F Ti
0.125017 0.666657 -0.000036 F F F Ti
0.625009 0.666651 -0.000039 F F F Ti
0.125037 0.833313 0.096596 F F F Ti
0.625063 0.833308 0.096581 F F F Ti
0.123277 0.831382 0.483556 F F F Ti
0.624713 0.832508 0.483507 F F F Ti
0.125064 0.333299 0.096641 F F F Ti
0.625039 0.333333 0.096618 F F F Ti
0.117307 0.341281 0.484934 F F F Ti
0.626478 0.334881 0.483461 F F F Ti
0.375667 0.584172 0.483546 F F F Ti
0.873504 0.584670 0.483603 F F F Ti
0.375013 0.583283 0.096598 F F F Ti
0.875108 0.583276 0.096588 F F F Ti
0.375025 0.083340 0.096624 F F F Ti
0.875116 0.083346 0.096614 F F F Ti
0.863682 0.082399 0.484722 F F F Ti
0.376785 0.418653 0.386522 F F F Ti
0.875058 0.417503 0.386597 F F F Ti
0.382082 0.908718 0.384862 F F F Ti
0.873453 0.915083 0.386628 F F F Ti
0.374989 0.416650 -0.000025 F F F Ti
0.875015 0.416646 -0.000026 F F F Ti
0.374998 0.916667 -0.000029 F F F Ti
0.875013 0.916667 -0.000029 F F F Ti
0.376561 0.082946 0.289698 F F F Ti
0.876353 0.082904 0.289835 F F F Ti
0.125224 0.166642 0.193333 F F F Ti
0.625334 0.166637 0.193213 F F F Ti
0.125545 0.333074 0.290132 F F F Ti
0.625733 0.333577 0.289718 F F F Ti
0.374998 0.416573 0.193275 F F F Ti
0.875316 0.416551 0.193262 F F F Ti
0.375176 0.583211 0.289777 F F F Ti
0.875661 0.583100 0.289785 F F F Ti
0.125079 0.666509 0.193194 F F F Ti
0.625202 0.666414 0.193131 F F F Ti
0.124769 0.832906 0.289773 F F F Ti
0.626764 0.832557 0.289437 F F F Ti
0.375095 0.916534 0.193190 F F F Ti
0.875194 0.916631 0.193190 F F F Ti
0.248838 0.124520 0.434754 T T T Sn

0.000000 0.000000 0.000000
0.000000 0.000000 0.000000
0.000000 0.000000 0.000000
0.000000 0.000000 0.000000
0.000000 0.000000 0.000000
0.000000 0.000000 0.000000
0.000000 0.000000 0.000000
0.000000 0.000000 0.000000
0.000000 0.000000 0.000000
0.000000 0.000000 0.000000
0.000000 0.000000 0.000000
0.000000 0.000000 0.000000
0.000000 0.000000 0.000000
0.000000 0.000000 0.000000
0.000000 0.000000 0.000000
0.000000 0.000000 0.000000
0.000000 0.000000 0.000000
0.000000 0.000000 0.000000
0.000000 0.000000 0.000000
0.000000 0.000000 0.000000
0.000000 0.000000 0.000000
0.000000 0.000000 0.000000
0.000000 0.000000 0.000000
0.000000 0.000000 0.000000
0.000000 0.000000 0.000000
0.000000 0.000000 0.000000
0.000000 0.000000 0.000000
0.000000 0.000000 0.000000
0.000000 0.000000 0.000000
0.000000 0.000000 0.000000
0.000000 0.000000 0.000000
0.000000 0.000000 0.000000
0.000000 0.000000 0.000000
0.000000 0.000000 0.000000
0.000000 0.000000 0.000000
0.000000 0.000000 0.000000
0.000000 0.000000 0.000000
0.000000 0.000000 0.000000
0.000000 0.000000 0.000000
0.000000 0.000000 0.000000
0.000000 0.000000 0.000000
0.000000 0.000000 0.000000
0.000000 0.000000 0.000000
0.000000 0.000000 0.000000
0.000000 0.000000 0.000000
0.000000 0.000000 0.000000
0.000000 0.000000 0.000000
0.000000 0.000000 0.000000
0.000000 0.000000 0.000000
0.000000 0.000000 0.000000
0.000000 0.000000 0.000000
0.000000 0.000000 0.000000
0.000000 0.000000 0.000000
0.000000 0.000000 0.000000
0.000000 0.000000 0.000000
0.000000 0.000000 0.000000
0.000000 0.000000 0.000000
0.000000 0.000000 0.000000
0.000000 0.000000 0.000000
0.000000 0.000000 0.000000
0.000000 0.000000 0.000000
0.000000 0.000000 0.000000
0.000000 0.000000 0.000000
0.000000 0.000000 0.000000
0.000000 0.000000 0.000000
0.000000 0.000000 0.000000
0.000000 0.000000 0.000000
0.000000 0.000000 0.000000
0.000000 0.000000 0.000000
0.000000 0.000000 0.000000
0.000000 0.000000 0.000000
0.000000 0.000000 0.000000
0.000000 0.000000 0.000000
0.000000 0.000000 0.000000
0.000000 0.000000 0.000000
0.000000 0.000000 0.000000
0.000000 0.000000 0.000000
0.000000 0.000000 0.000000
0.000000 0.000000 0.000000
0.000000 0.000000 0.000000
0.000000 0.000000 0.000000
0.000000 0.000000 0.000000
0.000000 0.000000 0.000000
