beta_Ti
1.0
9.445957 0.000000 0.000000
0.000000 9.093951 0.000000
0.000000 0.000000 17.211864
Ti
48
direct
0.375000 0.375000 0.848855 Ti
0.875000 0.375000 0.848855 Ti
0.375000 0.875000 0.848855 Ti
0.875000 0.875000 0.848855 Ti
0.125000 0.125000 0.848855 Ti
0.625000 0.125000 0.848855 Ti
0.125000 0.625000 0.848855 Ti
0.625000 0.625000 0.848855 Ti
0.125000 0.375000 0.941899 Ti
0.625000 0.375000 0.941899 Ti
0.125000 0.875000 0.941899 Ti
0.625000 0.875000 0.941899 Ti
0.375000 0.125000 0.941899 Ti
0.875000 0.125000 0.941899 Ti
0.375000 0.625000 0.941899 Ti
0.875000 0.625000 0.941899 Ti
0.375000 0.375000 0.662769 Ti
0.875000 0.375000 0.662769 Ti
0.375000 0.875000 0.662769 Ti
0.875000 0.875000 0.662769 Ti
0.125000 0.125000 0.662769 Ti
0.625000 0.125000 0.662769 Ti
0.125000 0.625000 0.662769 Ti
0.625000 0.625000 0.662769 Ti
0.125000 0.375000 0.569726 Ti
0.625000 0.375000 0.569726 Ti
0.125000 0.875000 0.569726 Ti
0.625000 0.875000 0.569726 Ti
0.375000 0.125000 0.569726 Ti
0.875000 0.125000 0.569726 Ti
0.375000 0.625000 0.569726 Ti
0.875000 0.625000 0.569726 Ti
0.375000 0.375000 0.476682 Ti
0.875000 0.375000 0.476682 Ti
0.375000 0.875000 0.476682 Ti
0.875000 0.875000 0.476682 Ti
0.125000 0.125000 0.476682 Ti
0.625000 0.125000 0.476682 Ti
0.125000 0.625000 0.476682 Ti
0.625000 0.625000 0.476682 Ti
0.125000 0.875000 0.755813 Ti
0.625000 0.875000 0.755813 Ti
0.375000 0.625000 0.755813 Ti
0.875000 0.625000 0.755813 Ti
0.125000 0.375000 0.755813 Ti
0.625000 0.375000 0.755813 Ti
0.375000 0.125000 0.755813 Ti
0.875000 0.125000 0.755813 Ti
