beta_Ti
1.0
6.309760 0.000000 0.000000
0.000000 9.464640 0.000000
0.000000 0.000000 35.000004
Ti
36
direct
0.125000 0.041667 0.500000 Ti
0.625000 0.041667 0.500000 Ti
0.125000 0.041667 0.585714 Ti
0.625000 0.041667 0.585714 Ti
0.125000 0.041667 0.671429 Ti
0.625000 0.041667 0.671429 Ti
0.125000 0.375000 0.500000 Ti
0.625000 0.375000 0.500000 Ti
0.125000 0.375000 0.585714 Ti
0.625000 0.375000 0.585714 Ti
0.125000 0.375000 0.671429 Ti
0.625000 0.375000 0.671429 Ti
0.125000 0.708333 0.500000 Ti
0.625000 0.708333 0.500000 Ti
0.125000 0.708333 0.585714 Ti
0.625000 0.708333 0.585714 Ti
0.125000 0.708333 0.671429 Ti
0.625000 0.708333 0.671429 Ti
0.375000 0.208333 0.542857 Ti
0.875000 0.208333 0.542857 Ti
0.375000 0.208333 0.628571 Ti
0.875000 0.208333 0.628571 Ti
0.375000 0.208333 0.714286 Ti
0.875000 0.208333 0.714286 Ti
0.375000 0.541667 0.542857 Ti
0.875000 0.541667 0.542857 Ti
0.375000 0.541667 0.628571 Ti
0.875000 0.541667 0.628571 Ti
0.375000 0.541667 0.714286 Ti
0.875000 0.541667 0.714286 Ti
0.375000 0.875000 0.542857 Ti
0.875000 0.875000 0.542857 Ti
0.375000 0.875000 0.628571 Ti
0.875000 0.875000 0.628571 Ti
0.375000 0.875000 0.714286 Ti
0.875000 0.875000 0.714286 Ti
