Ti36
1.0
8.805261 0.000000 0.000000
-4.402630 7.625579 0.000000
0.000000 0.000000 17.488801
Ti
36
direct
0.000000 0.000000 0.485564 Ti
1.000000 0.500000 0.485564 Ti
0.500000 0.000000 0.485564 Ti
0.500000 0.500000 0.485564 Ti
0.166667 0.333333 0.855643 Ti
0.166667 0.833333 0.855643 Ti
0.666667 0.333333 0.855643 Ti
0.666667 0.833333 0.855643 Ti
0.333333 0.166667 0.908512 Ti
0.333333 0.666667 0.908512 Ti
0.833333 0.166667 0.908512 Ti
0.833333 0.666667 0.908512 Ti
0.166667 0.333333 0.538432 Ti
0.166667 0.833333 0.538432 Ti
0.666667 0.333333 0.538432 Ti
0.666667 0.833333 0.538432 Ti
0.333333 0.166667 0.591301 Ti
0.333333 0.666667 0.591301 Ti
0.833333 0.166667 0.591301 Ti
0.833333 0.666667 0.591301 Ti
0.000000 0.000000 0.644169 Ti
1.000000 0.500000 0.644169 Ti
0.500000 0.000000 0.644169 Ti
0.500000 0.500000 0.644169 Ti
0.166667 0.333333 0.697038 Ti
0.166667 0.833333 0.697038 Ti
0.666667 0.333333 0.697038 Ti
0.666667 0.833333 0.697038 Ti
0.333333 0.166667 0.749906 Ti
0.333333 0.666667 0.749906 Ti
0.833333 0.166667 0.749906 Ti
0.833333 0.666667 0.749906 Ti
0.000000 0.000000 0.802775 Ti
1.000000 0.500000 0.802775 Ti
0.500000 0.000000 0.802775 Ti
0.500000 0.500000 0.802775 Ti

0.000000 0.000000 0.000000
0.000000 0.000000 0.000000
0.000000 0.000000 0.000000
0.000000 0.000000 0.000000
0.000000 0.000000 0.000000
0.000000 0.000000 0.000000
0.000000 0.000000 0.000000
0.000000 0.000000 0.000000
0.000000 0.000000 0.000000
0.000000 0.000000 0.000000
0.000000 0.000000 0.000000
0.000000 0.000000 0.000000
0.000000 0.000000 0.000000
0.000000 0.000000 0.000000
0.000000 0.000000 0.000000
0.000000 0.000000 0.000000
0.000000 0.000000 0.000000
0.000000 0.000000 0.000000
0.000000 0.000000 0.000000
0.000000 0.000000 0.000000
0.000000 0.000000 0.000000
0.000000 0.000000 0.000000
0.000000 0.000000 0.000000
0.000000 0.000000 0.000000
0.000000 0.000000 0.000000
0.000000 0.000000 0.000000
0.000000 0.000000 0.000000
0.000000 0.000000 0.000000
0.000000 0.000000 0.000000
0.000000 0.000000 0.000000
0.000000 0.000000 0.000000
0.000000 0.000000 0.000000
0.000000 0.000000 0.000000
0.000000 0.000000 0.000000
0.000000 0.000000 0.000000
0.000000 0.000000 0.000000
