beta_Ti
1.0
4.756512 0.000000 0.000000
0.000000 4.675432 0.000000
0.000000 0.000000 20.511800
Ti
12
direct
0.666667 0.750000 0.870808 Ti
0.166667 0.250000 0.870808 Ti
0.166667 0.750000 0.792734 Ti
0.666667 0.250000 0.792734 Ti
0.666667 0.750000 0.714659 Ti
0.166667 0.250000 0.714659 Ti
0.166667 0.750000 0.636585 Ti
0.666667 0.250000 0.636585 Ti
0.666667 0.750000 0.558510 Ti
0.166667 0.250000 0.558510 Ti
0.166667 0.750000 0.480436 Ti
0.666667 0.250000 0.480436 Ti
