Ti82 Mo1
1.0
6.391540 0.000000 0.000000
0.000000 9.587310 0.000000
0.000000 0.000000 23.271695
Ti Mo
82 1
Selective dynamics
direct
0.633705 0.083319 0.581277 F F F Ti
0.125542 0.083356 0.709432 F F F Ti
0.625748 0.083347 0.709654 F F F Ti
0.125056 0.083342 0.838405 F F F Ti
0.625101 0.083342 0.838441 F F F Ti
0.125091 0.417815 0.580615 F F F Ti
0.625864 0.417096 0.580606 F F F Ti
0.125274 0.416800 0.709570 F F F Ti
0.625503 0.416896 0.709629 F F F Ti
0.125056 0.416667 0.838437 F F F Ti
0.625074 0.416678 0.838452 F F F Ti
0.124930 0.748911 0.580610 F F F Ti
0.625842 0.749636 0.580603 F F F Ti
0.125212 0.749912 0.709578 F F F Ti
0.625490 0.749854 0.709636 F F F Ti
0.125040 0.750017 0.838439 F F F Ti
0.625073 0.750011 0.838454 F F F Ti
0.376948 0.250844 0.645436 F F F Ti
0.876203 0.250527 0.645177 F F F Ti
0.375145 0.250028 0.774006 F F F Ti
0.875255 0.250019 0.773989 F F F Ti
0.375014 0.249995 0.902868 F F F Ti
0.875046 0.249994 0.902869 F F F Ti
0.375437 0.583492 0.645122 F F F Ti
0.875057 0.583344 0.645172 F F F Ti
0.375092 0.583359 0.774019 F F F Ti
0.875172 0.583332 0.774036 F F F Ti
0.375007 0.583336 0.902877 F F F Ti
0.875034 0.583332 0.902882 F F F Ti
0.376856 0.915917 0.645411 F F F Ti
0.876232 0.916205 0.645176 F F F Ti
0.375131 0.916675 0.774001 F F F Ti
0.875252 0.916677 0.773985 F F F Ti
0.375006 0.916677 0.902862 F F F Ti
0.875040 0.916677 0.902864 F F F Ti
0.124555 0.166827 0.386565 F F F Ti
0.624114 0.166822 0.386582 F F F Ti
0.124984 0.666339 0.386451 F F F Ti
0.625037 0.666637 0.386595 F F F Ti
0.125002 0.166660 -0.000014 F F F Ti
0.624991 0.166662 -0.000011 F F F Ti
0.125002 0.666681 -0.000008 F F F Ti
0.624994 0.666678 -0.000005 F F F Ti
0.124999 0.833341 0.096658 F F F Ti
0.624994 0.833342 0.096658 F F F Ti
0.122798 0.830301 0.482811 F F F Ti
0.625534 0.832731 0.483343 F F F Ti
0.124998 0.333329 0.096657 F F F Ti
0.624991 0.333330 0.096657 F F F Ti
0.122737 0.336519 0.482771 F F F Ti
0.625229 0.333939 0.483358 F F F Ti
0.375587 0.583617 0.483334 F F F Ti
0.874074 0.583440 0.483309 F F F Ti
0.375003 0.583335 0.096656 F F F Ti
0.875003 0.583334 0.096654 F F F Ti
0.374998 0.083337 0.096662 F F F Ti
0.874995 0.083338 0.096660 F F F Ti
0.869320 0.083324 0.482448 F F F Ti
0.375134 0.416801 0.386585 F F F Ti
0.874360 0.416850 0.386473 F F F Ti
0.374733 0.916513 0.386657 F F F Ti
0.874583 0.916471 0.386461 F F F Ti
0.374987 0.416660 -0.000010 F F F Ti
0.875004 0.416659 -0.000008 F F F Ti
0.374988 0.916674 -0.000009 F F F Ti
0.875006 0.916673 -0.000008 F F F Ti
0.374845 0.083314 0.289989 F F F Ti
0.874857 0.083355 0.289956 F F F Ti
0.124985 0.166660 0.193322 F F F Ti
0.624948 0.166656 0.193319 F F F Ti
0.124959 0.333365 0.289948 F F F Ti
0.624834 0.333327 0.289940 F F F Ti
0.374968 0.416666 0.193308 F F F Ti
0.874959 0.416660 0.193305 F F F Ti
0.375072 0.583349 0.289946 F F F Ti
0.874895 0.583352 0.289909 F F F Ti
0.124994 0.666663 0.193307 F F F Ti
0.624955 0.666669 0.193303 F F F Ti
0.124986 0.833323 0.289952 F F F Ti
0.624846 0.833324 0.289955 F F F Ti
0.374960 0.916669 0.193321 F F F Ti
0.874965 0.916662 0.193316 F F F Ti
0.227319 0.085586 0.546319 T T T Mo

0.000000 0.000000 0.000000
0.000000 0.000000 0.000000
0.000000 0.000000 0.000000
0.000000 0.000000 0.000000
0.000000 0.000000 0.000000
0.000000 0.000000 0.000000
0.000000 0.000000 0.000000
0.000000 0.000000 0.000000
0.000000 0.000000 0.000000
0.000000 0.000000 0.000000
0.000000 0.000000 0.000000
0.000000 0.000000 0.000000
0.000000 0.000000 0.000000
0.000000 0.000000 0.000000
0.000000 0.000000 0.000000
0.000000 0.000000 0.000000
0.000000 0.000000 0.000000
0.000000 0.000000 0.000000
0.000000 0.000000 0.000000
0.000000 0.000000 0.000000
0.000000 0.000000 0.000000
0.000000 0.000000 0.000000
0.000000 0.000000 0.000000
0.000000 0.000000 0.000000
0.000000 0.000000 0.000000
0.000000 0.000000 0.000000
0.000000 0.000000 0.000000
0.000000 0.000000 0.000000
0.000000 0.000000 0.000000
0.000000 0.000000 0.000000
0.000000 0.000000 0.000000
0.000000 0.000000 0.000000
0.000000 0.000000 0.000000
0.000000 0.000000 0.000000
0.000000 0.000000 0.000000
0.000000 0.000000 0.000000
0.000000 0.000000 0.000000
0.000000 0.000000 0.000000
0.000000 0.000000 0.000000
0.000000 0.000000 0.000000
0.000000 0.000000 0.000000
0.000000 0.000000 0.000000
0.000000 0.000000 0.000000
0.000000 0.000000 0.000000
0.000000 0.000000 0.000000
0.000000 0.000000 0.000000
0.000000 0.000000 0.000000
0.000000 0.000000 0.000000
0.000000 0.000000 0.000000
0.000000 0.000000 0.000000
0.000000 0.000000 0.000000
0.000000 0.000000 0.000000
0.000000 0.000000 0.000000
0.000000 0.000000 0.000000
0.000000 0.000000 0.000000
0.000000 0.000000 0.000000
0.000000 0.000000 0.000000
0.000000 0.000000 0.000000
0.000000 0.000000 0.000000
0.000000 0.000000 0.000000
0.000000 0.000000 0.000000
0.000000 0.000000 0.000000
0.000000 0.000000 0.000000
0.000000 0.000000 0.000000
0.000000 0.000000 0.000000
0.000000 0.000000 0.000000
0.000000 0.000000 0.000000
0.000000 0.000000 0.000000
0.000000 0.000000 0.000000
0.000000 0.000000 0.000000
0.000000 0.000000 0.000000
0.000000 0.000000 0.000000
0.000000 0.000000 0.000000
0.000000 0.000000 0.000000
0.000000 0.000000 0.000000
0.000000 0.000000 0.000000
0.000000 0.000000 0.000000
0.000000 0.000000 0.000000
0.000000 0.000000 0.000000
0.000000 0.000000 0.000000
0.000000 0.000000 0.000000
0.000000 0.000000 0.000000
0.000000 0.000000 0.000000
