Ti66 Mo1
1.0
6.309760 0.000000 0.000000
0.000000 9.464640 0.000000
0.000000 0.000000 18.918326
Ti Mo
66 1
Selective dynamics
direct
0.070700 0.021598 0.491005 T T T Ti
0.611059 0.025588 0.493955 T T T Ti
0.135086 0.066786 0.646573 T T T Ti
0.603543 0.069014 0.645232 T T T Ti
0.124853 0.041547 0.817347 F F F Ti
0.624982 0.041626 0.817322 F F F Ti
0.611181 0.375212 0.463241 T T T Ti
0.129097 0.375027 0.648621 T T T Ti
0.598531 0.375038 0.639557 T T T Ti
0.124589 0.375001 0.817371 F F F Ti
0.624941 0.375011 0.817334 F F F Ti
0.070890 0.728384 0.490971 T T T Ti
0.610884 0.724470 0.493922 T T T Ti
0.135095 0.683196 0.646567 T T T Ti
0.603531 0.680974 0.645222 T T T Ti
0.124840 0.708435 0.817346 F F F Ti
0.624986 0.708365 0.817320 F F F Ti
0.328584 0.228579 0.538848 T T T Ti
0.874326 0.232137 0.551711 T T T Ti
0.374859 0.208293 0.738602 F F F Ti
0.874512 0.208163 0.737947 F F F Ti
0.374898 0.208330 0.896516 F F F Ti
0.874856 0.208305 0.896427 F F F Ti
0.328526 0.521382 0.538796 T T T Ti
0.874389 0.517924 0.551708 T T T Ti
0.374859 0.541681 0.738601 F F F Ti
0.874515 0.541841 0.737945 F F F Ti
0.374899 0.541653 0.896522 F F F Ti
0.874851 0.541676 0.896434 F F F Ti
0.347370 0.874943 0.572507 T T T Ti
0.853962 0.874968 0.586461 T T T Ti
0.375316 0.874948 0.738412 F F F Ti
0.874520 0.874988 0.737947 F F F Ti
0.375017 0.874951 0.896552 F F F Ti
0.874855 0.874962 0.896460 F F F Ti
0.158888 0.624549 0.367785 T T T Ti
0.651681 0.617760 0.371003 T T T Ti
0.124649 0.624975 0.118743 F F F Ti
0.624394 0.625000 0.118700 F F F Ti
0.158315 0.125296 0.367729 T T T Ti
0.652082 0.132281 0.371015 T T T Ti
0.124630 0.125044 0.118728 F F F Ti
0.624405 0.125019 0.118684 F F F Ti
0.124702 0.375005 0.039486 F F F Ti
0.624434 0.374993 0.039475 F F F Ti
0.124723 0.875007 0.039472 F F F Ti
0.624925 0.874999 0.039485 F F F Ti
0.121541 0.375080 0.277529 T T T Ti
0.655969 0.375058 0.286720 T T T Ti
0.135333 0.875123 0.277417 T T T Ti
0.598074 0.875196 0.281538 T T T Ti
0.374777 0.875014 0.157961 F F F Ti
0.874969 0.875015 0.158320 F F F Ti
0.373987 0.374968 0.158369 F F F Ti
0.873725 0.375013 0.157920 F F F Ti
-0.050323 0.375141 0.417648 T T T Ti
0.359252 0.875549 0.404161 T T T Ti
0.870651 0.874762 0.389157 T T T Ti
0.391998 0.618632 0.248680 T T T Ti
0.875606 0.632078 0.248010 T T T Ti
0.374746 0.625007 -0.000015 F F F Ti
0.874733 0.625040 -0.000073 F F F Ti
0.392004 0.131456 0.248659 T T T Ti
0.875538 0.118014 0.247979 T T T Ti
0.374749 0.124973 -0.000025 F F F Ti
0.874734 0.124949 -0.000083 F F F Ti
0.307864 0.374013 0.401505 T T T Mo

0.000000 0.000000 0.000000
0.000000 0.000000 0.000000
0.000000 0.000000 0.000000
0.000000 0.000000 0.000000
0.000000 0.000000 0.000000
0.000000 0.000000 0.000000
0.000000 0.000000 0.000000
0.000000 0.000000 0.000000
0.000000 0.000000 0.000000
0.000000 0.000000 0.000000
0.000000 0.000000 0.000000
0.000000 0.000000 0.000000
0.000000 0.000000 0.000000
0.000000 0.000000 0.000000
0.000000 0.000000 0.000000
0.000000 0.000000 0.000000
0.000000 0.000000 0.000000
0.000000 0.000000 0.000000
0.000000 0.000000 0.000000
0.000000 0.000000 0.000000
0.000000 0.000000 0.000000
0.000000 0.000000 0.000000
0.000000 0.000000 0.000000
0.000000 0.000000 0.000000
0.000000 0.000000 0.000000
0.000000 0.000000 0.000000
0.000000 0.000000 0.000000
0.000000 0.000000 0.000000
0.000000 0.000000 0.000000
0.000000 0.000000 0.000000
0.000000 0.000000 0.000000
0.000000 0.000000 0.000000
0.000000 0.000000 0.000000
0.000000 0.000000 0.000000
0.000000 0.000000 0.000000
0.000000 0.000000 0.000000
0.000000 0.000000 0.000000
0.000000 0.000000 0.000000
0.000000 0.000000 0.000000
0.000000 0.000000 0.000000
0.000000 0.000000 0.000000
0.000000 0.000000 0.000000
0.000000 0.000000 0.000000
0.000000 0.000000 0.000000
0.000000 0.000000 0.000000
0.000000 0.000000 0.000000
0.000000 0.000000 0.000000
0.000000 0.000000 0.000000
0.000000 0.000000 0.000000
0.000000 0.000000 0.000000
0.000000 0.000000 0.000000
0.000000 0.000000 0.000000
0.000000 0.000000 0.000000
0.000000 0.000000 0.000000
0.000000 0.000000 0.000000
0.000000 0.000000 0.000000
0.000000 0.000000 0.000000
0.000000 0.000000 0.000000
0.000000 0.000000 0.000000
0.000000 0.000000 0.000000
0.000000 0.000000 0.000000
0.000000 0.000000 0.000000
0.000000 0.000000 0.000000
0.000000 0.000000 0.000000
0.000000 0.000000 0.000000
0.000000 0.000000 0.000000
0.000000 0.000000 0.000000
