total_Ti
1.0
5.745590 0.000000 0.000000
0.000000 9.072750 0.000000
0.000000 0.000000 26.625032
Ti
64
direct
0.041667 0.875000 0.350537 Ti
0.041667 0.375000 0.350537 Ti
0.541667 0.875000 0.350537 Ti
0.541667 0.375000 0.350537 Ti
0.291667 0.625000 0.500772 Ti
0.291667 0.125000 0.500772 Ti
0.791667 0.625000 0.500772 Ti
0.791667 0.125000 0.500772 Ti
0.291667 0.875000 0.254936 Ti
0.291667 0.375000 0.254936 Ti
0.791667 0.875000 0.254936 Ti
0.791667 0.375000 0.254936 Ti
0.041667 0.625000 0.286804 Ti
0.041667 0.125000 0.286804 Ti
0.541667 0.625000 0.286804 Ti
0.541667 0.125000 0.286804 Ti
0.041667 0.875000 0.159335 Ti
0.041667 0.375000 0.159335 Ti
0.541667 0.875000 0.159335 Ti
0.541667 0.375000 0.159335 Ti
0.291667 0.625000 0.191202 Ti
0.291667 0.125000 0.191202 Ti
0.791667 0.625000 0.191202 Ti
0.791667 0.125000 0.191202 Ti
0.291667 0.875000 0.063734 Ti
0.291667 0.375000 0.063734 Ti
0.791667 0.875000 0.063734 Ti
0.791667 0.375000 0.063734 Ti
0.041667 0.625000 0.095601 Ti
0.041667 0.125000 0.095601 Ti
0.541667 0.625000 0.095601 Ti
0.541667 0.125000 0.095601 Ti
0.458333 0.625000 0.600484 Ti
0.458333 0.125000 0.600484 Ti
0.958333 0.625000 0.600484 Ti
0.958333 0.125000 0.600484 Ti
0.125000 0.625000 0.700196 Ti
0.125000 0.125000 0.700196 Ti
0.625000 0.625000 0.700196 Ti
0.625000 0.125000 0.700196 Ti
0.291667 0.625000 0.799908 Ti
0.291667 0.125000 0.799908 Ti
0.791667 0.625000 0.799908 Ti
0.791667 0.125000 0.799908 Ti
0.125000 0.875000 0.550627 Ti
0.125000 0.375000 0.550627 Ti
0.625000 0.875000 0.550627 Ti
0.625000 0.375000 0.550627 Ti
0.291667 0.875000 0.650340 Ti
0.291667 0.375000 0.650340 Ti
0.791667 0.875000 0.650340 Ti
0.791667 0.375000 0.650340 Ti
0.458333 0.875000 0.750052 Ti
0.458333 0.375000 0.750052 Ti
0.958333 0.875000 0.750052 Ti
0.958333 0.375000 0.750052 Ti
0.125000 0.875000 0.849764 Ti
0.125000 0.375000 0.849764 Ti
0.625000 0.875000 0.849764 Ti
0.625000 0.375000 0.849764 Ti
0.791667 0.125000 0.000000 Ti
0.291667 0.125000 0.000000 Ti
0.791667 0.625000 -0.000000 Ti
0.291667 0.625000 -0.000000 Ti
