Zr1 Ti96
1.0
9.513020 0.000000 0.000000
0.000000 9.350860 0.000000
0.000000 0.000000 18.547230
Ti Zr
96 1
Selective dynamics
direct
0.149024 0.373329 0.403108 T T T Ti
0.660277 0.395719 0.409723 T T T Ti
0.162398 0.873613 0.400130 T T T Ti
0.581824 0.939588 0.412413 T T T Ti
0.153987 0.372365 0.238248 T T T Ti
0.659203 0.376137 0.230723 T T T Ti
0.165726 0.881621 0.233045 T T T Ti
0.661822 0.881278 0.237360 T T T Ti
0.166665 0.374986 0.077577 F F F Ti
0.666711 0.375010 0.077607 F F F Ti
0.166682 0.874996 0.077573 F F F Ti
0.666672 0.874990 0.077650 F F F Ti
0.398283 0.370262 0.323581 T T T Ti
0.892160 0.351994 0.320072 T T T Ti
0.405551 0.861586 0.310867 T T T Ti
0.927805 0.895194 0.314844 T T T Ti
0.416726 0.375087 0.155216 F F F Ti
0.916747 0.374895 0.155199 F F F Ti
0.416635 0.875016 0.155256 F F F Ti
0.916607 0.874895 0.155180 F F F Ti
0.416660 0.375019 -0.000021 F F F Ti
0.916676 0.374999 -0.000012 F F F Ti
0.416668 0.874991 0.000008 F F F Ti
0.916662 0.874985 -0.000007 F F F Ti
0.101717 0.129738 0.323580 T T T Ti
0.607839 0.148007 0.320071 T T T Ti
0.094448 0.638415 0.310866 T T T Ti
0.572195 0.604807 0.314843 T T T Ti
0.083277 0.124924 0.155217 F F F Ti
0.583250 0.125118 0.155197 F F F Ti
0.083366 0.624993 0.155255 F F F Ti
0.583389 0.625119 0.155179 F F F Ti
0.083344 0.124985 -0.000020 F F F Ti
0.583322 0.125004 -0.000012 F F F Ti
0.083336 0.625009 0.000007 F F F Ti
0.583337 0.625017 -0.000007 F F F Ti
0.350975 0.126671 0.403107 T T T Ti
0.839722 0.104282 0.409723 T T T Ti
0.337600 0.626387 0.400130 T T T Ti
0.918175 0.560412 0.412413 T T T Ti
0.346012 0.127637 0.238248 T T T Ti
0.840795 0.123866 0.230724 T T T Ti
0.334273 0.618381 0.233045 T T T Ti
0.838177 0.618725 0.237360 T T T Ti
0.333335 0.125023 0.077577 F F F Ti
0.833289 0.125001 0.077607 F F F Ti
0.333316 0.625014 0.077573 F F F Ti
0.833328 0.625018 0.077650 F F F Ti
0.374967 0.375024 0.823794 F F F Ti
0.875009 0.375008 0.823845 F F F Ti
0.375015 0.874985 0.823831 F F F Ti
0.875004 0.874992 0.823836 F F F Ti
0.125034 0.124970 0.823795 F F F Ti
0.624991 0.124985 0.823846 F F F Ti
0.124987 0.625007 0.823831 F F F Ti
0.624998 0.625001 0.823836 F F F Ti
0.124954 0.375010 0.910122 F F F Ti
0.625033 0.375042 0.910159 F F F Ti
0.124960 0.874976 0.910136 F F F Ti
0.625033 0.874959 0.910186 F F F Ti
0.375048 0.124982 0.910122 F F F Ti
0.874969 0.124950 0.910161 F F F Ti
0.375042 0.625016 0.910136 F F F Ti
0.874968 0.625033 0.910185 F F F Ti
0.393275 0.363442 0.652680 T T T Ti
0.892630 0.364368 0.660108 T T T Ti
0.394440 0.868055 0.659710 T T T Ti
0.890126 0.860117 0.649919 T T T Ti
0.106725 0.136556 0.652680 T T T Ti
0.607370 0.135630 0.660107 T T T Ti
0.105560 0.631943 0.659710 T T T Ti
0.609873 0.639881 0.649919 T T T Ti
0.143108 0.379375 0.571077 T T T Ti
0.648113 0.384179 0.577546 T T T Ti
0.153028 0.887860 0.581896 T T T Ti
0.638934 0.904166 0.571598 T T T Ti
0.356892 0.120625 0.571077 T T T Ti
0.851887 0.115820 0.577546 T T T Ti
0.346972 0.612140 0.581896 T T T Ti
0.861066 0.595833 0.571598 T T T Ti
0.391978 0.379801 0.484914 T T T Ti
0.903054 0.336328 0.490718 T T T Ti
0.383814 0.856321 0.497211 T T T Ti
0.919399 0.878210 0.494049 T T T Ti
0.108022 0.120199 0.484914 T T T Ti
0.596946 0.163672 0.490717 T T T Ti
0.116186 0.643679 0.497211 T T T Ti
0.580600 0.621790 0.494049 T T T Ti
0.124999 0.875032 0.737513 F F F Ti
0.625075 0.874917 0.737585 F F F Ti
0.375000 0.624960 0.737513 F F F Ti
0.874919 0.625071 0.737585 F F F Ti
0.124976 0.374880 0.737511 F F F Ti
0.624952 0.375144 0.737578 F F F Ti
0.375024 0.125113 0.737509 F F F Ti
0.875044 0.124846 0.737580 F F F Ti
0.750000 0.750000 0.405314 T T T Zr

0.000000 0.000000 0.000000
0.000000 0.000000 0.000000
0.000000 0.000000 0.000000
0.000000 0.000000 0.000000
0.000000 0.000000 0.000000
0.000000 0.000000 0.000000
0.000000 0.000000 0.000000
0.000000 0.000000 0.000000
0.000000 0.000000 0.000000
0.000000 0.000000 0.000000
0.000000 0.000000 0.000000
0.000000 0.000000 0.000000
0.000000 0.000000 0.000000
0.000000 0.000000 0.000000
0.000000 0.000000 0.000000
0.000000 0.000000 0.000000
0.000000 0.000000 0.000000
0.000000 0.000000 0.000000
0.000000 0.000000 0.000000
0.000000 0.000000 0.000000
0.000000 0.000000 0.000000
0.000000 0.000000 0.000000
0.000000 0.000000 0.000000
0.000000 0.000000 0.000000
0.000000 0.000000 0.000000
0.000000 0.000000 0.000000
0.000000 0.000000 0.000000
0.000000 0.000000 0.000000
0.000000 0.000000 0.000000
0.000000 0.000000 0.000000
0.000000 0.000000 0.000000
0.000000 0.000000 0.000000
0.000000 0.000000 0.000000
0.000000 0.000000 0.000000
0.000000 0.000000 0.000000
0.000000 0.000000 0.000000
0.000000 0.000000 0.000000
0.000000 0.000000 0.000000
0.000000 0.000000 0.000000
0.000000 0.000000 0.000000
0.000000 0.000000 0.000000
0.000000 0.000000 0.000000
0.000000 0.000000 0.000000
0.000000 0.000000 0.000000
0.000000 0.000000 0.000000
0.000000 0.000000 0.000000
0.000000 0.000000 0.000000
0.000000 0.000000 0.000000
0.000000 0.000000 0.000000
0.000000 0.000000 0.000000
0.000000 0.000000 0.000000
0.000000 0.000000 0.000000
0.000000 0.000000 0.000000
0.000000 0.000000 0.000000
0.000000 0.000000 0.000000
0.000000 0.000000 0.000000
0.000000 0.000000 0.000000
0.000000 0.000000 0.000000
0.000000 0.000000 0.000000
0.000000 0.000000 0.000000
0.000000 0.000000 0.000000
0.000000 0.000000 0.000000
0.000000 0.000000 0.000000
0.000000 0.000000 0.000000
0.000000 0.000000 0.000000
0.000000 0.000000 0.000000
0.000000 0.000000 0.000000
0.000000 0.000000 0.000000
0.000000 0.000000 0.000000
0.000000 0.000000 0.000000
0.000000 0.000000 0.000000
0.000000 0.000000 0.000000
0.000000 0.000000 0.000000
0.000000 0.000000 0.000000
0.000000 0.000000 0.000000
0.000000 0.000000 0.000000
0.000000 0.000000 0.000000
0.000000 0.000000 0.000000
0.000000 0.000000 0.000000
0.000000 0.000000 0.000000
0.000000 0.000000 0.000000
0.000000 0.000000 0.000000
0.000000 0.000000 0.000000
0.000000 0.000000 0.000000
0.000000 0.000000 0.000000
0.000000 0.000000 0.000000
0.000000 0.000000 0.000000
0.000000 0.000000 0.000000
0.000000 0.000000 0.000000
0.000000 0.000000 0.000000
0.000000 0.000000 0.000000
0.000000 0.000000 0.000000
0.000000 0.000000 0.000000
0.000000 0.000000 0.000000
0.000000 0.000000 0.000000
0.000000 0.000000 0.000000
0.000000 0.000000 0.000000
