Ti66 Al1
1.0
6.309760 0.000000 0.000000
0.000000 9.464640 0.000000
0.000000 0.000000 18.918326
Ti Al
66 1
Selective dynamics
direct
0.635362 0.040295 0.499817 F F F Ti
0.123849 0.041031 0.659838 F F F Ti
0.625136 0.041391 0.659001 F F F Ti
0.124931 0.041647 0.817447 F F F Ti
0.624797 0.041667 0.817402 F F F Ti
0.122802 0.380263 0.499742 F F F Ti
0.625306 0.375820 0.499850 F F F Ti
0.124835 0.375156 0.658761 F F F Ti
0.623815 0.375434 0.658949 F F F Ti
0.125042 0.374941 0.817341 F F F Ti
0.624776 0.374991 0.817376 F F F Ti
0.125569 0.708941 0.500210 F F F Ti
0.626104 0.707880 0.499934 F F F Ti
0.125101 0.707969 0.659006 F F F Ti
0.625728 0.707635 0.659181 F F F Ti
0.124981 0.708216 0.817436 F F F Ti
0.624939 0.708156 0.817486 F F F Ti
0.869081 0.211047 0.580671 F F F Ti
0.374842 0.208259 0.737981 F F F Ti
0.874506 0.208524 0.738272 F F F Ti
0.374996 0.208349 0.896554 F F F Ti
0.874907 0.208373 0.896594 F F F Ti
0.375365 0.541806 0.579502 F F F Ti
0.874313 0.542396 0.579665 F F F Ti
0.374840 0.541528 0.738156 F F F Ti
0.875083 0.541485 0.738223 F F F Ti
0.374969 0.541566 0.896608 F F F Ti
0.874976 0.541564 0.896618 F F F Ti
0.379742 0.871780 0.580524 F F F Ti
0.875091 0.874036 0.580038 F F F Ti
0.375242 0.874725 0.738288 F F F Ti
0.874610 0.874682 0.738322 F F F Ti
0.375013 0.874969 0.896625 F F F Ti
0.874902 0.874972 0.896637 F F F Ti
0.125159 0.625915 0.356864 F F F Ti
0.625110 0.625513 0.356710 F F F Ti
0.125051 0.625110 0.118957 F F F Ti
0.625030 0.625094 0.118950 F F F Ti
0.125422 0.125749 0.355851 F F F Ti
0.626796 0.125277 0.356500 F F F Ti
0.125100 0.125073 0.118902 F F F Ti
0.625046 0.125067 0.118874 F F F Ti
0.125013 0.375030 0.039698 F F F Ti
0.624946 0.375038 0.039690 F F F Ti
0.125011 0.875043 0.039715 F F F Ti
0.624951 0.875028 0.039707 F F F Ti
0.125068 0.375556 0.277335 F F F Ti
0.625184 0.375326 0.277301 F F F Ti
0.125334 0.875212 0.277422 F F F Ti
0.625618 0.875133 0.277365 F F F Ti
0.375124 0.875066 0.158543 F F F Ti
0.875086 0.875053 0.158531 F F F Ti
0.375077 0.375158 0.158517 F F F Ti
0.875050 0.375180 0.158493 F F F Ti
0.375551 0.376304 0.396125 F F F Ti
0.874326 0.376005 0.396092 F F F Ti
0.377008 0.874571 0.396139 F F F Ti
0.876436 0.875062 0.396359 F F F Ti
0.375059 0.625261 0.237852 F F F Ti
0.875173 0.625257 0.237859 F F F Ti
0.374983 0.625042 0.000084 F F F Ti
0.874993 0.625043 0.000091 F F F Ti
0.375530 0.125173 0.237701 F F F Ti
0.875050 0.125177 0.237627 F F F Ti
0.375018 0.125009 0.000053 F F F Ti
0.874995 0.124999 0.000072 F F F Ti
0.193399 0.086361 0.512057 T T T Al

0.000000 0.000000 0.000000
0.000000 0.000000 0.000000
0.000000 0.000000 0.000000
0.000000 0.000000 0.000000
0.000000 0.000000 0.000000
0.000000 0.000000 0.000000
0.000000 0.000000 0.000000
0.000000 0.000000 0.000000
0.000000 0.000000 0.000000
0.000000 0.000000 0.000000
0.000000 0.000000 0.000000
0.000000 0.000000 0.000000
0.000000 0.000000 0.000000
0.000000 0.000000 0.000000
0.000000 0.000000 0.000000
0.000000 0.000000 0.000000
0.000000 0.000000 0.000000
0.000000 0.000000 0.000000
0.000000 0.000000 0.000000
0.000000 0.000000 0.000000
0.000000 0.000000 0.000000
0.000000 0.000000 0.000000
0.000000 0.000000 0.000000
0.000000 0.000000 0.000000
0.000000 0.000000 0.000000
0.000000 0.000000 0.000000
0.000000 0.000000 0.000000
0.000000 0.000000 0.000000
0.000000 0.000000 0.000000
0.000000 0.000000 0.000000
0.000000 0.000000 0.000000
0.000000 0.000000 0.000000
0.000000 0.000000 0.000000
0.000000 0.000000 0.000000
0.000000 0.000000 0.000000
0.000000 0.000000 0.000000
0.000000 0.000000 0.000000
0.000000 0.000000 0.000000
0.000000 0.000000 0.000000
0.000000 0.000000 0.000000
0.000000 0.000000 0.000000
0.000000 0.000000 0.000000
0.000000 0.000000 0.000000
0.000000 0.000000 0.000000
0.000000 0.000000 0.000000
0.000000 0.000000 0.000000
0.000000 0.000000 0.000000
0.000000 0.000000 0.000000
0.000000 0.000000 0.000000
0.000000 0.000000 0.000000
0.000000 0.000000 0.000000
0.000000 0.000000 0.000000
0.000000 0.000000 0.000000
0.000000 0.000000 0.000000
0.000000 0.000000 0.000000
0.000000 0.000000 0.000000
0.000000 0.000000 0.000000
0.000000 0.000000 0.000000
0.000000 0.000000 0.000000
0.000000 0.000000 0.000000
0.000000 0.000000 0.000000
0.000000 0.000000 0.000000
0.000000 0.000000 0.000000
0.000000 0.000000 0.000000
0.000000 0.000000 0.000000
0.000000 0.000000 0.000000
0.000000 0.000000 0.000000
