Ti66 Mo1
1.0
6.309760 0.000000 0.000000
0.000000 9.464640 0.000000
0.000000 0.000000 18.918326
Ti Mo
66 1
Selective dynamics
direct
0.111394 0.024353 0.495473 T T T Ti
0.582665 0.023146 0.489085 T T T Ti
0.107559 0.065606 0.646794 T T T Ti
0.637590 0.068697 0.645294 T T T Ti
0.124789 0.041630 0.817299 F F F Ti
0.624882 0.041553 0.817423 F F F Ti
0.568761 0.375240 0.442985 T T T Ti
0.100761 0.375013 0.642012 T T T Ti
0.627963 0.375030 0.646473 T T T Ti
0.124741 0.375006 0.817307 F F F Ti
0.624794 0.375011 0.817451 F F F Ti
0.111569 0.725542 0.495449 T T T Ti
0.582440 0.726869 0.489071 T T T Ti
0.107632 0.684358 0.646783 T T T Ti
0.637491 0.681255 0.645282 T T T Ti
0.124803 0.708361 0.817298 F F F Ti
0.624862 0.708428 0.817421 F F F Ti
0.369901 0.226334 0.552764 T T T Ti
0.845659 0.232611 0.538740 T T T Ti
0.374408 0.208244 0.738067 F F F Ti
0.874831 0.208274 0.738549 F F F Ti
0.374852 0.208323 0.896487 F F F Ti
0.875009 0.208330 0.896599 F F F Ti
0.369724 0.523554 0.552695 T T T Ti
0.845767 0.517365 0.538725 T T T Ti
0.374401 0.541749 0.738063 F F F Ti
0.874865 0.541701 0.738545 F F F Ti
0.374849 0.541665 0.896492 F F F Ti
0.875012 0.541657 0.896604 F F F Ti
0.363564 0.875054 0.585497 T T T Ti
0.844971 0.874831 0.572367 T T T Ti
0.374318 0.875002 0.738009 F F F Ti
0.875108 0.874931 0.738398 F F F Ti
0.374852 0.874976 0.896509 F F F Ti
0.875053 0.874958 0.896614 F F F Ti
0.171066 0.616540 0.371885 T T T Ti
0.650142 0.623758 0.365971 T T T Ti
0.125411 0.624961 0.118744 F F F Ti
0.625432 0.625090 0.118702 F F F Ti
0.170795 0.133350 0.371812 T T T Ti
0.650374 0.126380 0.365992 T T T Ti
0.125434 0.125072 0.118734 F F F Ti
0.625420 0.124950 0.118692 F F F Ti
0.124984 0.374997 0.039536 F F F Ti
0.625381 0.375000 0.039446 F F F Ti
0.125119 0.875010 0.039522 F F F Ti
0.625060 0.875025 0.039484 F F F Ti
0.167705 0.375068 0.282940 T T T Ti
0.616843 0.375108 0.282384 T T T Ti
0.101229 0.875197 0.278167 T T T Ti
0.630714 0.875150 0.279676 T T T Ti
0.375456 0.874997 0.158287 F F F Ti
0.875189 0.875066 0.158013 F F F Ti
0.375897 0.375012 0.157754 F F F Ti
0.874932 0.374996 0.158533 F F F Ti
-0.099477 0.375108 0.393303 T T T Ti
0.354733 0.875409 0.393468 T T T Ti
0.878919 0.874753 0.400540 T T T Ti
0.380675 0.631855 0.246749 T T T Ti
0.888329 0.618037 0.249441 T T T Ti
0.375099 0.625060 -0.000045 F F F Ti
0.875084 0.625014 0.000028 F F F Ti
0.380743 0.118283 0.246730 T T T Ti
0.888247 0.132095 0.249426 T T T Ti
0.375124 0.124934 -0.000053 F F F Ti
0.875090 0.124976 0.000020 F F F Ti
0.215675 0.374090 0.446823 T T T Mo

0.000000 0.000000 0.000000
0.000000 0.000000 0.000000
0.000000 0.000000 0.000000
0.000000 0.000000 0.000000
0.000000 0.000000 0.000000
0.000000 0.000000 0.000000
0.000000 0.000000 0.000000
0.000000 0.000000 0.000000
0.000000 0.000000 0.000000
0.000000 0.000000 0.000000
0.000000 0.000000 0.000000
0.000000 0.000000 0.000000
0.000000 0.000000 0.000000
0.000000 0.000000 0.000000
0.000000 0.000000 0.000000
0.000000 0.000000 0.000000
0.000000 0.000000 0.000000
0.000000 0.000000 0.000000
0.000000 0.000000 0.000000
0.000000 0.000000 0.000000
0.000000 0.000000 0.000000
0.000000 0.000000 0.000000
0.000000 0.000000 0.000000
0.000000 0.000000 0.000000
0.000000 0.000000 0.000000
0.000000 0.000000 0.000000
0.000000 0.000000 0.000000
0.000000 0.000000 0.000000
0.000000 0.000000 0.000000
0.000000 0.000000 0.000000
0.000000 0.000000 0.000000
0.000000 0.000000 0.000000
0.000000 0.000000 0.000000
0.000000 0.000000 0.000000
0.000000 0.000000 0.000000
0.000000 0.000000 0.000000
0.000000 0.000000 0.000000
0.000000 0.000000 0.000000
0.000000 0.000000 0.000000
0.000000 0.000000 0.000000
0.000000 0.000000 0.000000
0.000000 0.000000 0.000000
0.000000 0.000000 0.000000
0.000000 0.000000 0.000000
0.000000 0.000000 0.000000
0.000000 0.000000 0.000000
0.000000 0.000000 0.000000
0.000000 0.000000 0.000000
0.000000 0.000000 0.000000
0.000000 0.000000 0.000000
0.000000 0.000000 0.000000
0.000000 0.000000 0.000000
0.000000 0.000000 0.000000
0.000000 0.000000 0.000000
0.000000 0.000000 0.000000
0.000000 0.000000 0.000000
0.000000 0.000000 0.000000
0.000000 0.000000 0.000000
0.000000 0.000000 0.000000
0.000000 0.000000 0.000000
0.000000 0.000000 0.000000
0.000000 0.000000 0.000000
0.000000 0.000000 0.000000
0.000000 0.000000 0.000000
0.000000 0.000000 0.000000
0.000000 0.000000 0.000000
0.000000 0.000000 0.000000
