Ti96 Al1                                
   1.00000000000000     
     9.5130199999999991    0.0000000000000000    0.0000000000000000
     0.0000000000000000    9.3508600000000008    0.0000000000000000
     0.0000000000000000    0.0000000000000000   18.5472299999999990
   Ti   Al
    96     1
Selective dynamics
Direct
  0.1441959776692849  0.3733116706087111  0.4025896190930231   T   T   T
  0.6512322578074680  0.3801889670373796  0.3995662194966624   T   T   T
  0.1621269577399226  0.8914706289078962  0.3875410733243667   T   T   T
  0.6485276308058894  0.9007553106008512  0.4191076669667160   T   T   T
  0.1621977751047314  0.3790762765765982  0.2381474363435583   T   T   T
  0.6607729134773247  0.3754646269884868  0.2354022623872209   T   T   T
  0.1576934679433954  0.8756201279674725  0.2355344942374723   T   T   T
  0.6633637756703952  0.8784323691231810  0.2326383127155842   T   T   T
  0.1666659999999993  0.3750000000000000  0.0776889999999995   F   F   F
  0.6666659999999993  0.3750000000000000  0.0776889999999995   F   F   F
  0.1666659999999993  0.8750000000000000  0.0776889999999995   F   F   F
  0.6666659999999993  0.8750000000000000  0.0776889999999995   F   F   F
  0.4126111118532479  0.3690040292658127  0.3153612155561113   T   T   T
  0.9051256541957384  0.3784295207254806  0.3171238478564034   T   T   T
  0.4168850880560289  0.8720440741736908  0.3187400715599031   T   T   T
  0.8945034611907221  0.8709956359685427  0.3177482973036079   T   T   T
  0.4166669999999968  0.3750000000000000  0.1553790000000035   F   F   F
  0.9166669999999968  0.3750000000000000  0.1553790000000035   F   F   F
  0.4166669999999968  0.8750000000000000  0.1553790000000035   F   F   F
  0.9166669999999968  0.8750000000000000  0.1553790000000035   F   F   F
  0.4166669999999968  0.3750000000000000  0.0000000000000000   F   F   F
  0.9166669999999968  0.3750000000000000  0.0000000000000000   F   F   F
  0.4166669999999968  0.8750000000000000  0.0000000000000000   F   F   F
  0.9166669999999968  0.8750000000000000  0.0000000000000000   F   F   F
  0.0873888881467520  0.1309959707341873  0.3153602155561067   T   T   T
  0.5948743458042616  0.1215704792745190  0.3171228478563988   T   T   T
  0.0831149119439712  0.6279559258263092  0.3187390715598986   T   T   T
  0.6054965388092779  0.6290043640314573  0.3177472973036033   T   T   T
  0.0833330000000032  0.1250000000000000  0.1553790000000035   F   F   F
  0.5833330000000032  0.1250000000000000  0.1553790000000035   F   F   F
  0.0833330000000032  0.6250000000000000  0.1553790000000035   F   F   F
  0.5833330000000032  0.6250000000000000  0.1553790000000035   F   F   F
  0.0833330000000032  0.1250000000000000  0.0000000000000000   F   F   F
  0.5833330000000032  0.1250000000000000  0.0000000000000000   F   F   F
  0.0833330000000032  0.6250000000000000  0.0000000000000000   F   F   F
  0.5833330000000032  0.6250000000000000  0.0000000000000000   F   F   F
  0.3558030223307175  0.1266883293912889  0.4025896190930231   T   T   T
  0.8487667421925346  0.1198110329626202  0.3995662194966624   T   T   T
  0.3378720422600798  0.6085293710921038  0.3875410733243667   T   T   T
  0.8514713691941131  0.5992446893991488  0.4191076669667160   T   T   T
  0.3378012248952711  0.1209237234234017  0.2381474363435583   T   T   T
  0.8392260865226778  0.1245353730115134  0.2354022623872209   T   T   T
  0.3423055320566071  0.6243798720325275  0.2355344942374723   T   T   T
  0.8366352243296074  0.6215676308768190  0.2326383127155842   T   T   T
  0.3333330000000032  0.1250000000000000  0.0776889999999995   F   F   F
  0.8333330000000032  0.1250000000000000  0.0776889999999995   F   F   F
  0.3333330000000032  0.6250000000000000  0.0776889999999995   F   F   F
  0.8333330000000032  0.6250000000000000  0.0776889999999995   F   F   F
  0.3750000000000000  0.3750000000000000  0.8237379999999987   F   F   F
  0.8750000000000000  0.3750000000000000  0.8237379999999987   F   F   F
  0.3750000000000000  0.8750000000000000  0.8237379999999987   F   F   F
  0.8750000000000000  0.8750000000000000  0.8237379999999987   F   F   F
  0.1250000000000000  0.1250000000000000  0.8237379999999987   F   F   F
  0.6250000000000000  0.1250000000000000  0.8237379999999987   F   F   F
  0.1250000000000000  0.6250000000000000  0.8237379999999987   F   F   F
  0.6250000000000000  0.6250000000000000  0.8237379999999987   F   F   F
  0.1250000000000000  0.3750000000000000  0.9100839999999977   F   F   F
  0.6250000000000000  0.3750000000000000  0.9100839999999977   F   F   F
  0.1250000000000000  0.8750000000000000  0.9100839999999977   F   F   F
  0.6250000000000000  0.8750000000000000  0.9100839999999977   F   F   F
  0.3750000000000000  0.1250000000000000  0.9100839999999977   F   F   F
  0.8750000000000000  0.1250000000000000  0.9100839999999977   F   F   F
  0.3750000000000000  0.6250000000000000  0.9100839999999977   F   F   F
  0.8750000000000000  0.6250000000000000  0.9100839999999977   F   F   F
  0.4041322723618362  0.3816236511779107  0.6463146712050949   T   T   T
  0.8830601899314242  0.3368649769898415  0.6487166673204264   T   T   T
  0.3677726329774112  0.8734848701962883  0.6732630590994010   T   T   T
  0.8848302920507131  0.8694644965622562  0.6653871084320712   T   T   T
  0.0958677276381639  0.1183763488220894  0.6463146712050949   T   T   T
  0.6169398100685758  0.1631350230101585  0.6487166673204264   T   T   T
  0.1322273670225892  0.6265151298037117  0.6732630590994010   T   T   T
  0.6151697079492869  0.6305355034377438  0.6653871084320712   T   T   T
  0.1546600197856010  0.3740452839357190  0.5722630035899346   T   T   T
  0.6632669769048055  0.4290807631597522  0.5629022074135144   T   T   T
  0.1379392992400175  0.8669571737181173  0.5783374168661054   T   T   T
  0.5600319333305130  0.9296238741513724  0.5785857459283935   T   T   T
  0.3453399802143990  0.1259547160642808  0.5722630035899346   T   T   T
  0.8367330230951945  0.0709192368402478  0.5629022074135144   T   T   T
  0.3620607007599825  0.6330428262818827  0.5783374168661054   T   T   T
  0.9399680666694870  0.5703761258486276  0.5785857459283935   T   T   T
  0.3961853726274506  0.3798556829907998  0.4894469171760870   T   T   T
  0.8981201452066213  0.3358824140229197  0.4919232799587315   T   T   T
  0.3673805941472806  0.8600301185852626  0.4783369565282843   T   T   T
  0.9286132809334645  0.8668420509880503  0.4687881898672420   T   T   T
  0.1038146273725493  0.1201443170092003  0.4894469171760870   T   T   T
  0.6018798547933787  0.1641175859770805  0.4919232799587315   T   T   T
  0.1326194058527195  0.6399698814147374  0.4783369565282843   T   T   T
  0.5713867190665355  0.6331579490119497  0.4687881898672420   T   T   T
  0.1250000000000000  0.8750000000000000  0.7373949999999994   F   F   F
  0.6250000000000000  0.8750000000000000  0.7373949999999994   F   F   F
  0.3750000000000000  0.6250000000000000  0.7373949999999994   F   F   F
  0.8750000000000000  0.6250000000000000  0.7373949999999994   F   F   F
  0.1250000000000000  0.3750000000000000  0.7373949999999994   F   F   F
  0.6250000000000000  0.3750000000000000  0.7373949999999994   F   F   F
  0.3750000000000000  0.1250000000000000  0.7373949999999994   F   F   F
  0.8750000000000000  0.1250000000000000  0.7373949999999994   F   F   F
  0.7500000000000000  0.7500000000000000  0.5539579930023776   T   T   T
 
  0.00000000E+00  0.00000000E+00  0.00000000E+00
  0.00000000E+00  0.00000000E+00  0.00000000E+00
  0.00000000E+00  0.00000000E+00  0.00000000E+00
  0.00000000E+00  0.00000000E+00  0.00000000E+00
  0.00000000E+00  0.00000000E+00  0.00000000E+00
  0.00000000E+00  0.00000000E+00  0.00000000E+00
  0.00000000E+00  0.00000000E+00  0.00000000E+00
  0.00000000E+00  0.00000000E+00  0.00000000E+00
  0.00000000E+00  0.00000000E+00  0.00000000E+00
  0.00000000E+00  0.00000000E+00  0.00000000E+00
  0.00000000E+00  0.00000000E+00  0.00000000E+00
  0.00000000E+00  0.00000000E+00  0.00000000E+00
  0.00000000E+00  0.00000000E+00  0.00000000E+00
  0.00000000E+00  0.00000000E+00  0.00000000E+00
  0.00000000E+00  0.00000000E+00  0.00000000E+00
  0.00000000E+00  0.00000000E+00  0.00000000E+00
  0.00000000E+00  0.00000000E+00  0.00000000E+00
  0.00000000E+00  0.00000000E+00  0.00000000E+00
  0.00000000E+00  0.00000000E+00  0.00000000E+00
  0.00000000E+00  0.00000000E+00  0.00000000E+00
  0.00000000E+00  0.00000000E+00  0.00000000E+00
  0.00000000E+00  0.00000000E+00  0.00000000E+00
  0.00000000E+00  0.00000000E+00  0.00000000E+00
  0.00000000E+00  0.00000000E+00  0.00000000E+00
  0.00000000E+00  0.00000000E+00  0.00000000E+00
  0.00000000E+00  0.00000000E+00  0.00000000E+00
  0.00000000E+00  0.00000000E+00  0.00000000E+00
  0.00000000E+00  0.00000000E+00  0.00000000E+00
  0.00000000E+00  0.00000000E+00  0.00000000E+00
  0.00000000E+00  0.00000000E+00  0.00000000E+00
  0.00000000E+00  0.00000000E+00  0.00000000E+00
  0.00000000E+00  0.00000000E+00  0.00000000E+00
  0.00000000E+00  0.00000000E+00  0.00000000E+00
  0.00000000E+00  0.00000000E+00  0.00000000E+00
  0.00000000E+00  0.00000000E+00  0.00000000E+00
  0.00000000E+00  0.00000000E+00  0.00000000E+00
  0.00000000E+00  0.00000000E+00  0.00000000E+00
  0.00000000E+00  0.00000000E+00  0.00000000E+00
  0.00000000E+00  0.00000000E+00  0.00000000E+00
  0.00000000E+00  0.00000000E+00  0.00000000E+00
  0.00000000E+00  0.00000000E+00  0.00000000E+00
  0.00000000E+00  0.00000000E+00  0.00000000E+00
  0.00000000E+00  0.00000000E+00  0.00000000E+00
  0.00000000E+00  0.00000000E+00  0.00000000E+00
  0.00000000E+00  0.00000000E+00  0.00000000E+00
  0.00000000E+00  0.00000000E+00  0.00000000E+00
  0.00000000E+00  0.00000000E+00  0.00000000E+00
  0.00000000E+00  0.00000000E+00  0.00000000E+00
  0.00000000E+00  0.00000000E+00  0.00000000E+00
  0.00000000E+00  0.00000000E+00  0.00000000E+00
  0.00000000E+00  0.00000000E+00  0.00000000E+00
  0.00000000E+00  0.00000000E+00  0.00000000E+00
  0.00000000E+00  0.00000000E+00  0.00000000E+00
  0.00000000E+00  0.00000000E+00  0.00000000E+00
  0.00000000E+00  0.00000000E+00  0.00000000E+00
  0.00000000E+00  0.00000000E+00  0.00000000E+00
  0.00000000E+00  0.00000000E+00  0.00000000E+00
  0.00000000E+00  0.00000000E+00  0.00000000E+00
  0.00000000E+00  0.00000000E+00  0.00000000E+00
  0.00000000E+00  0.00000000E+00  0.00000000E+00
  0.00000000E+00  0.00000000E+00  0.00000000E+00
  0.00000000E+00  0.00000000E+00  0.00000000E+00
  0.00000000E+00  0.00000000E+00  0.00000000E+00
  0.00000000E+00  0.00000000E+00  0.00000000E+00
  0.00000000E+00  0.00000000E+00  0.00000000E+00
  0.00000000E+00  0.00000000E+00  0.00000000E+00
  0.00000000E+00  0.00000000E+00  0.00000000E+00
  0.00000000E+00  0.00000000E+00  0.00000000E+00
  0.00000000E+00  0.00000000E+00  0.00000000E+00
  0.00000000E+00  0.00000000E+00  0.00000000E+00
  0.00000000E+00  0.00000000E+00  0.00000000E+00
  0.00000000E+00  0.00000000E+00  0.00000000E+00
  0.00000000E+00  0.00000000E+00  0.00000000E+00
  0.00000000E+00  0.00000000E+00  0.00000000E+00
  0.00000000E+00  0.00000000E+00  0.00000000E+00
  0.00000000E+00  0.00000000E+00  0.00000000E+00
  0.00000000E+00  0.00000000E+00  0.00000000E+00
  0.00000000E+00  0.00000000E+00  0.00000000E+00
  0.00000000E+00  0.00000000E+00  0.00000000E+00
  0.00000000E+00  0.00000000E+00  0.00000000E+00
  0.00000000E+00  0.00000000E+00  0.00000000E+00
  0.00000000E+00  0.00000000E+00  0.00000000E+00
  0.00000000E+00  0.00000000E+00  0.00000000E+00
  0.00000000E+00  0.00000000E+00  0.00000000E+00
  0.00000000E+00  0.00000000E+00  0.00000000E+00
  0.00000000E+00  0.00000000E+00  0.00000000E+00
  0.00000000E+00  0.00000000E+00  0.00000000E+00
  0.00000000E+00  0.00000000E+00  0.00000000E+00
  0.00000000E+00  0.00000000E+00  0.00000000E+00
  0.00000000E+00  0.00000000E+00  0.00000000E+00
  0.00000000E+00  0.00000000E+00  0.00000000E+00
  0.00000000E+00  0.00000000E+00  0.00000000E+00
  0.00000000E+00  0.00000000E+00  0.00000000E+00
  0.00000000E+00  0.00000000E+00  0.00000000E+00
  0.00000000E+00  0.00000000E+00  0.00000000E+00
  0.00000000E+00  0.00000000E+00  0.00000000E+00
  0.00000000E+00  0.00000000E+00  0.00000000E+00
