Ti66 Nb1
1.0
6.309760 0.000000 0.000000
0.000000 9.464640 0.000000
0.000000 0.000000 18.918326
Ti Nb
66 1
Selective dynamics
direct
0.162155 0.024871 0.498290 T T T Ti
0.587048 0.024092 0.498419 T T T Ti
0.132545 0.049081 0.645396 T T T Ti
0.617318 0.048781 0.645584 T T T Ti
0.125189 0.042335 0.817713 F F F Ti
0.624820 0.042292 0.817725 F F F Ti
0.134553 0.356315 0.495394 T T T Ti
0.619180 0.357276 0.498559 T T T Ti
0.141100 0.349640 0.643795 T T T Ti
0.608309 0.349925 0.644478 T T T Ti
0.125406 0.376067 0.818197 F F F Ti
0.624617 0.376071 0.818238 F F F Ti
0.109052 0.682658 0.483790 T T T Ti
0.641340 0.683911 0.484004 T T T Ti
0.108595 0.703090 0.656989 T T T Ti
0.641711 0.703239 0.657082 T T T Ti
0.125249 0.709457 0.817714 F F F Ti
0.624877 0.709457 0.817715 F F F Ti
0.873389 0.189278 0.541360 T T T Ti
0.374803 0.210262 0.739226 F F F Ti
0.875016 0.210505 0.739195 F F F Ti
0.375029 0.208554 0.897066 F F F Ti
0.874891 0.208629 0.897012 F F F Ti
0.374628 0.538289 0.570934 T T T Ti
0.874999 0.519984 0.567597 T T T Ti
0.374960 0.543416 0.738895 F F F Ti
0.875358 0.542836 0.739236 F F F Ti
0.375079 0.542311 0.897049 F F F Ti
0.875011 0.542257 0.897052 F F F Ti
0.375561 0.841036 0.573614 T T T Ti
0.876208 0.861545 0.564471 T T T Ti
0.375070 0.876053 0.738081 F F F Ti
0.875295 0.876211 0.738317 F F F Ti
0.375004 0.875126 0.896816 F F F Ti
0.875039 0.875131 0.896844 F F F Ti
0.109156 0.634304 0.357017 T T T Ti
0.640240 0.636134 0.356822 T T T Ti
0.125042 0.622818 0.119433 F F F Ti
0.624493 0.622785 0.119388 F F F Ti
0.121501 0.138317 0.372932 T T T Ti
0.628094 0.136544 0.372862 T T T Ti
0.124549 0.122486 0.118716 F F F Ti
0.624737 0.122539 0.118593 F F F Ti
0.124780 0.373936 0.039811 F F F Ti
0.624981 0.373986 0.039823 F F F Ti
0.124934 0.873527 0.039840 F F F Ti
0.624639 0.873493 0.039798 F F F Ti
0.132818 0.380213 0.279743 T T T Ti
0.615687 0.380518 0.278978 T T T Ti
0.106301 0.888822 0.279995 T T T Ti
0.642676 0.888684 0.279893 T T T Ti
0.374681 0.871730 0.158581 F F F Ti
0.874392 0.871360 0.158345 F F F Ti
0.374638 0.372153 0.158188 F F F Ti
0.875400 0.372559 0.158439 F F F Ti
0.867465 0.406014 0.398116 T T T Ti
0.374057 0.867143 0.394834 T T T Ti
0.874874 0.889442 0.410072 T T T Ti
0.374497 0.629095 0.245176 T T T Ti
0.874525 0.621520 0.241524 T T T Ti
0.374879 0.624275 0.000613 F F F Ti
0.874877 0.624333 0.000589 F F F Ti
0.374451 0.120420 0.247717 T T T Ti
0.872809 0.136315 0.248994 T T T Ti
0.374886 0.123990 0.000286 F F F Ti
0.874825 0.123972 0.000211 F F F Ti
0.390709 0.344934 0.415041 T T T Nb

0.000000 0.000000 0.000000
0.000000 0.000000 0.000000
0.000000 0.000000 0.000000
0.000000 0.000000 0.000000
0.000000 0.000000 0.000000
0.000000 0.000000 0.000000
0.000000 0.000000 0.000000
0.000000 0.000000 0.000000
0.000000 0.000000 0.000000
0.000000 0.000000 0.000000
0.000000 0.000000 0.000000
0.000000 0.000000 0.000000
0.000000 0.000000 0.000000
0.000000 0.000000 0.000000
0.000000 0.000000 0.000000
0.000000 0.000000 0.000000
0.000000 0.000000 0.000000
0.000000 0.000000 0.000000
0.000000 0.000000 0.000000
0.000000 0.000000 0.000000
0.000000 0.000000 0.000000
0.000000 0.000000 0.000000
0.000000 0.000000 0.000000
0.000000 0.000000 0.000000
0.000000 0.000000 0.000000
0.000000 0.000000 0.000000
0.000000 0.000000 0.000000
0.000000 0.000000 0.000000
0.000000 0.000000 0.000000
0.000000 0.000000 0.000000
0.000000 0.000000 0.000000
0.000000 0.000000 0.000000
0.000000 0.000000 0.000000
0.000000 0.000000 0.000000
0.000000 0.000000 0.000000
0.000000 0.000000 0.000000
0.000000 0.000000 0.000000
0.000000 0.000000 0.000000
0.000000 0.000000 0.000000
0.000000 0.000000 0.000000
0.000000 0.000000 0.000000
0.000000 0.000000 0.000000
0.000000 0.000000 0.000000
0.000000 0.000000 0.000000
0.000000 0.000000 0.000000
0.000000 0.000000 0.000000
0.000000 0.000000 0.000000
0.000000 0.000000 0.000000
0.000000 0.000000 0.000000
0.000000 0.000000 0.000000
0.000000 0.000000 0.000000
0.000000 0.000000 0.000000
0.000000 0.000000 0.000000
0.000000 0.000000 0.000000
0.000000 0.000000 0.000000
0.000000 0.000000 0.000000
0.000000 0.000000 0.000000
0.000000 0.000000 0.000000
0.000000 0.000000 0.000000
0.000000 0.000000 0.000000
0.000000 0.000000 0.000000
0.000000 0.000000 0.000000
0.000000 0.000000 0.000000
0.000000 0.000000 0.000000
0.000000 0.000000 0.000000
0.000000 0.000000 0.000000
0.000000 0.000000 0.000000
