Ti96 Sn1
1.0
9.513020 0.000000 0.000000
0.000000 9.350860 0.000000
0.000000 0.000000 18.547230
Ti Sn
96 1
Selective dynamics
direct
0.136828 0.381847 0.406792 T T T Ti
0.652134 0.362490 0.401984 T T T Ti
0.167476 0.882258 0.400284 T T T Ti
0.611670 0.951045 0.409251 T T T Ti
0.161404 0.376621 0.233131 T T T Ti
0.658920 0.376693 0.231880 T T T Ti
0.162801 0.876712 0.235557 T T T Ti
0.660964 0.879824 0.234573 T T T Ti
0.166636 0.374981 0.077525 F F F Ti
0.666693 0.375019 0.077522 F F F Ti
0.166699 0.874989 0.077539 F F F Ti
0.666659 0.874948 0.077663 F F F Ti
0.387530 0.365131 0.322836 T T T Ti
0.909036 0.359475 0.310656 T T T Ti
0.412125 0.866310 0.315740 T T T Ti
0.921628 0.898183 0.321181 T T T Ti
0.416510 0.375047 0.155099 F F F Ti
0.916822 0.374860 0.155109 F F F Ti
0.416659 0.875028 0.155232 F F F Ti
0.916646 0.874804 0.155162 F F F Ti
0.416654 0.375015 -0.000048 F F F Ti
0.916648 0.375006 -0.000031 F F F Ti
0.416711 0.874989 -0.000008 F F F Ti
0.916624 0.874968 -0.000013 F F F Ti
0.112470 0.134870 0.322835 T T T Ti
0.590964 0.140526 0.310654 T T T Ti
0.087875 0.633691 0.315739 T T T Ti
0.578372 0.601818 0.321180 T T T Ti
0.083495 0.124973 0.155098 F F F Ti
0.583174 0.125159 0.155107 F F F Ti
0.083343 0.624987 0.155232 F F F Ti
0.583351 0.625216 0.155160 F F F Ti
0.083351 0.124994 -0.000048 F F F Ti
0.583349 0.125000 -0.000029 F F F Ti
0.083294 0.625017 -0.000008 F F F Ti
0.583375 0.625040 -0.000012 F F F Ti
0.363171 0.118153 0.406792 T T T Ti
0.847865 0.137510 0.401984 T T T Ti
0.332523 0.617742 0.400284 T T T Ti
0.888329 0.548955 0.409251 T T T Ti
0.338595 0.123383 0.233131 T T T Ti
0.841079 0.123312 0.231880 T T T Ti
0.337198 0.623292 0.235557 T T T Ti
0.839034 0.620180 0.234573 T T T Ti
0.333363 0.125035 0.077525 F F F Ti
0.833307 0.124997 0.077522 F F F Ti
0.333300 0.625028 0.077539 F F F Ti
0.833341 0.625065 0.077662 F F F Ti
0.374965 0.375009 0.823969 F F F Ti
0.875003 0.374976 0.823905 F F F Ti
0.375065 0.874995 0.823914 F F F Ti
0.874956 0.874943 0.823840 F F F Ti
0.125040 0.124979 0.823969 F F F Ti
0.625004 0.125015 0.823906 F F F Ti
0.124940 0.624994 0.823915 F F F Ti
0.625050 0.625050 0.823841 F F F Ti
0.124935 0.375038 0.910147 F F F Ti
0.625055 0.375060 0.910122 F F F Ti
0.124932 0.874943 0.910123 F F F Ti
0.625057 0.874945 0.910088 F F F Ti
0.375072 0.124957 0.910148 F F F Ti
0.874949 0.124933 0.910122 F F F Ti
0.375072 0.625048 0.910124 F F F Ti
0.874947 0.625053 0.910088 F F F Ti
0.391139 0.365127 0.647793 T T T Ti
0.888434 0.362940 0.665083 T T T Ti
0.383046 0.864324 0.664739 T T T Ti
0.888091 0.865406 0.655302 T T T Ti
0.108859 0.134869 0.647793 T T T Ti
0.611564 0.137055 0.665083 T T T Ti
0.116952 0.635669 0.664739 T T T Ti
0.611908 0.634588 0.655303 T T T Ti
0.141153 0.391615 0.574280 T T T Ti
0.651812 0.387036 0.580105 T T T Ti
0.147922 0.881076 0.577248 T T T Ti
0.627995 0.899845 0.581379 T T T Ti
0.358846 0.108383 0.574280 T T T Ti
0.848187 0.112962 0.580105 T T T Ti
0.352077 0.618922 0.577248 T T T Ti
0.872004 0.600153 0.581379 T T T Ti
0.381555 0.371186 0.489353 T T T Ti
0.904969 0.339505 0.499516 T T T Ti
0.398216 0.851778 0.491393 T T T Ti
0.922699 0.907204 0.486028 T T T Ti
0.118445 0.128814 0.489353 T T T Ti
0.595031 0.160495 0.499516 T T T Ti
0.101784 0.648221 0.491393 T T T Ti
0.577301 0.592796 0.486028 T T T Ti
0.125205 0.874936 0.737750 F F F Ti
0.624999 0.875136 0.737578 F F F Ti
0.374785 0.625037 0.737752 F F F Ti
0.874996 0.624849 0.737580 F F F Ti
0.125038 0.374933 0.737744 F F F Ti
0.625035 0.374962 0.737765 F F F Ti
0.374953 0.125044 0.737743 F F F Ti
0.874955 0.125010 0.737765 F F F Ti
0.750000 0.750000 0.421617 T T T Sn

0.000000 0.000000 0.000000
0.000000 0.000000 0.000000
0.000000 0.000000 0.000000
0.000000 0.000000 0.000000
0.000000 0.000000 0.000000
0.000000 0.000000 0.000000
0.000000 0.000000 0.000000
0.000000 0.000000 0.000000
0.000000 0.000000 0.000000
0.000000 0.000000 0.000000
0.000000 0.000000 0.000000
0.000000 0.000000 0.000000
0.000000 0.000000 0.000000
0.000000 0.000000 0.000000
0.000000 0.000000 0.000000
0.000000 0.000000 0.000000
0.000000 0.000000 0.000000
0.000000 0.000000 0.000000
0.000000 0.000000 0.000000
0.000000 0.000000 0.000000
0.000000 0.000000 0.000000
0.000000 0.000000 0.000000
0.000000 0.000000 0.000000
0.000000 0.000000 0.000000
0.000000 0.000000 0.000000
0.000000 0.000000 0.000000
0.000000 0.000000 0.000000
0.000000 0.000000 0.000000
0.000000 0.000000 0.000000
0.000000 0.000000 0.000000
0.000000 0.000000 0.000000
0.000000 0.000000 0.000000
0.000000 0.000000 0.000000
0.000000 0.000000 0.000000
0.000000 0.000000 0.000000
0.000000 0.000000 0.000000
0.000000 0.000000 0.000000
0.000000 0.000000 0.000000
0.000000 0.000000 0.000000
0.000000 0.000000 0.000000
0.000000 0.000000 0.000000
0.000000 0.000000 0.000000
0.000000 0.000000 0.000000
0.000000 0.000000 0.000000
0.000000 0.000000 0.000000
0.000000 0.000000 0.000000
0.000000 0.000000 0.000000
0.000000 0.000000 0.000000
0.000000 0.000000 0.000000
0.000000 0.000000 0.000000
0.000000 0.000000 0.000000
0.000000 0.000000 0.000000
0.000000 0.000000 0.000000
0.000000 0.000000 0.000000
0.000000 0.000000 0.000000
0.000000 0.000000 0.000000
0.000000 0.000000 0.000000
0.000000 0.000000 0.000000
0.000000 0.000000 0.000000
0.000000 0.000000 0.000000
0.000000 0.000000 0.000000
0.000000 0.000000 0.000000
0.000000 0.000000 0.000000
0.000000 0.000000 0.000000
0.000000 0.000000 0.000000
0.000000 0.000000 0.000000
0.000000 0.000000 0.000000
0.000000 0.000000 0.000000
0.000000 0.000000 0.000000
0.000000 0.000000 0.000000
0.000000 0.000000 0.000000
0.000000 0.000000 0.000000
0.000000 0.000000 0.000000
0.000000 0.000000 0.000000
0.000000 0.000000 0.000000
0.000000 0.000000 0.000000
0.000000 0.000000 0.000000
0.000000 0.000000 0.000000
0.000000 0.000000 0.000000
0.000000 0.000000 0.000000
0.000000 0.000000 0.000000
0.000000 0.000000 0.000000
0.000000 0.000000 0.000000
0.000000 0.000000 0.000000
0.000000 0.000000 0.000000
0.000000 0.000000 0.000000
0.000000 0.000000 0.000000
0.000000 0.000000 0.000000
0.000000 0.000000 0.000000
0.000000 0.000000 0.000000
0.000000 0.000000 0.000000
0.000000 0.000000 0.000000
0.000000 0.000000 0.000000
0.000000 0.000000 0.000000
0.000000 0.000000 0.000000
0.000000 0.000000 0.000000
0.000000 0.000000 0.000000
