Ti66 Nb1
1.0
6.309760 0.000000 0.000000
0.000000 9.464640 0.000000
0.000000 0.000000 18.918326
Ti Nb
66 1
Selective dynamics
direct
0.075150 0.020398 0.492512 T T T Ti
0.601449 0.032072 0.484541 T T T Ti
0.129126 0.058724 0.647493 T T T Ti
0.603753 0.073482 0.641306 T T T Ti
0.124891 0.041644 0.817324 F F F Ti
0.624811 0.041674 0.817292 F F F Ti
0.618024 0.375206 0.483453 T T T Ti
0.127730 0.375024 0.652436 T T T Ti
0.617923 0.374992 0.647106 T T T Ti
0.124778 0.375008 0.817304 F F F Ti
0.624705 0.374996 0.817243 F F F Ti
0.075348 0.729555 0.492486 T T T Ti
0.601248 0.717950 0.484505 T T T Ti
0.129155 0.691221 0.647506 T T T Ti
0.603718 0.676438 0.641315 T T T Ti
0.124890 0.708344 0.817331 F F F Ti
0.624813 0.708310 0.817298 F F F Ti
0.326989 0.225125 0.545940 T T T Ti
0.886616 0.228042 0.552725 T T T Ti
0.374453 0.208372 0.738404 F F F Ti
0.874599 0.208357 0.737950 F F F Ti
0.374840 0.208350 0.896500 F F F Ti
0.874823 0.208338 0.896419 F F F Ti
0.326949 0.524844 0.545922 T T T Ti
0.886680 0.521979 0.552732 T T T Ti
0.374462 0.541586 0.738414 F F F Ti
0.874600 0.541623 0.737958 F F F Ti
0.374847 0.541631 0.896506 F F F Ti
0.874817 0.541644 0.896425 F F F Ti
0.373899 0.874877 0.572674 T T T Ti
0.839979 0.874809 0.582744 T T T Ti
0.374855 0.874954 0.738392 F F F Ti
0.874865 0.874971 0.738030 F F F Ti
0.374916 0.874975 0.896547 F F F Ti
0.874840 0.874980 0.896458 F F F Ti
0.163592 0.623321 0.369426 T T T Ti
0.684554 0.603937 0.368150 T T T Ti
0.124471 0.624986 0.118708 F F F Ti
0.624346 0.625075 0.118712 F F F Ti
0.163162 0.126680 0.369408 T T T Ti
0.684814 0.146075 0.368172 T T T Ti
0.124442 0.125036 0.118700 F F F Ti
0.624377 0.124943 0.118706 F F F Ti
0.124709 0.375004 0.039465 F F F Ti
0.624558 0.374985 0.039414 F F F Ti
0.124616 0.875014 0.039455 F F F Ti
0.624837 0.875016 0.039466 F F F Ti
0.113554 0.375063 0.281364 T T T Ti
0.647923 0.375065 0.278984 T T T Ti
0.136623 0.875141 0.276997 T T T Ti
0.601558 0.875203 0.283957 T T T Ti
0.374615 0.875049 0.157969 F F F Ti
0.874383 0.874974 0.158333 F F F Ti
0.374593 0.374980 0.158387 F F F Ti
0.873332 0.375006 0.157866 F F F Ti
-0.044980 0.375125 0.420775 T T T Ti
0.346049 0.875483 0.400598 T T T Ti
0.879876 0.874655 0.390398 T T T Ti
0.386865 0.620789 0.248383 T T T Ti
0.879030 0.630093 0.246772 T T T Ti
0.374779 0.625000 -0.000031 F F F Ti
0.874677 0.625041 -0.000083 F F F Ti
0.386869 0.129332 0.248377 T T T Ti
0.878983 0.119989 0.246760 T T T Ti
0.374781 0.124991 -0.000037 F F F Ti
0.874680 0.124951 -0.000089 F F F Ti
0.332201 0.374508 0.405617 T T T Nb

0.000000 0.000000 0.000000
0.000000 0.000000 0.000000
0.000000 0.000000 0.000000
0.000000 0.000000 0.000000
0.000000 0.000000 0.000000
0.000000 0.000000 0.000000
0.000000 0.000000 0.000000
0.000000 0.000000 0.000000
0.000000 0.000000 0.000000
0.000000 0.000000 0.000000
0.000000 0.000000 0.000000
0.000000 0.000000 0.000000
0.000000 0.000000 0.000000
0.000000 0.000000 0.000000
0.000000 0.000000 0.000000
0.000000 0.000000 0.000000
0.000000 0.000000 0.000000
0.000000 0.000000 0.000000
0.000000 0.000000 0.000000
0.000000 0.000000 0.000000
0.000000 0.000000 0.000000
0.000000 0.000000 0.000000
0.000000 0.000000 0.000000
0.000000 0.000000 0.000000
0.000000 0.000000 0.000000
0.000000 0.000000 0.000000
0.000000 0.000000 0.000000
0.000000 0.000000 0.000000
0.000000 0.000000 0.000000
0.000000 0.000000 0.000000
0.000000 0.000000 0.000000
0.000000 0.000000 0.000000
0.000000 0.000000 0.000000
0.000000 0.000000 0.000000
0.000000 0.000000 0.000000
0.000000 0.000000 0.000000
0.000000 0.000000 0.000000
0.000000 0.000000 0.000000
0.000000 0.000000 0.000000
0.000000 0.000000 0.000000
0.000000 0.000000 0.000000
0.000000 0.000000 0.000000
0.000000 0.000000 0.000000
0.000000 0.000000 0.000000
0.000000 0.000000 0.000000
0.000000 0.000000 0.000000
0.000000 0.000000 0.000000
0.000000 0.000000 0.000000
0.000000 0.000000 0.000000
0.000000 0.000000 0.000000
0.000000 0.000000 0.000000
0.000000 0.000000 0.000000
0.000000 0.000000 0.000000
0.000000 0.000000 0.000000
0.000000 0.000000 0.000000
0.000000 0.000000 0.000000
0.000000 0.000000 0.000000
0.000000 0.000000 0.000000
0.000000 0.000000 0.000000
0.000000 0.000000 0.000000
0.000000 0.000000 0.000000
0.000000 0.000000 0.000000
0.000000 0.000000 0.000000
0.000000 0.000000 0.000000
0.000000 0.000000 0.000000
0.000000 0.000000 0.000000
0.000000 0.000000 0.000000
