Ti72
1.0
8.805261 0.000000 0.000000
-4.402630 7.625579 0.000000
0.000000 0.000000 22.288801
Ti
72
direct
0.000000 0.000000 0.488673 Ti
1.000000 0.500000 0.488673 Ti
0.500000 0.000000 0.488673 Ti
0.500000 0.500000 0.488673 Ti
0.166667 0.333333 0.779054 Ti
0.166667 0.833333 0.779054 Ti
0.666667 0.333333 0.779054 Ti
0.666667 0.833333 0.779054 Ti
0.333333 0.166667 0.820537 Ti
0.333333 0.666667 0.820537 Ti
0.833333 0.166667 0.820537 Ti
0.833333 0.666667 0.820537 Ti
0.166667 0.333333 0.530156 Ti
0.166667 0.833333 0.530156 Ti
0.666667 0.333333 0.530156 Ti
0.666667 0.833333 0.530156 Ti
0.333333 0.166667 0.571639 Ti
0.333333 0.666667 0.571639 Ti
0.833333 0.166667 0.571639 Ti
0.833333 0.666667 0.571639 Ti
0.000000 0.000000 0.613122 Ti
1.000000 0.500000 0.613122 Ti
0.500000 0.000000 0.613122 Ti
0.500000 0.500000 0.613122 Ti
0.166667 0.333333 0.654605 Ti
0.166667 0.833333 0.654605 Ti
0.666667 0.333333 0.654605 Ti
0.666667 0.833333 0.654605 Ti
0.333333 0.166667 0.696088 Ti
0.333333 0.666667 0.696088 Ti
0.833333 0.166667 0.696088 Ti
0.833333 0.666667 0.696088 Ti
0.000000 0.000000 0.737571 Ti
1.000000 0.500000 0.737571 Ti
0.500000 0.000000 0.737571 Ti
0.500000 0.500000 0.737571 Ti
0.111111 0.888889 -0.000000 Ti
0.111111 0.888889 0.206140 Ti
0.111111 0.555556 -0.000000 Ti
0.222222 0.777778 0.103070 Ti
0.111111 0.555556 0.206140 Ti
0.444444 0.888889 -0.000000 Ti
0.111111 0.222222 -0.000000 Ti
0.222222 0.777778 0.309210 Ti
0.222222 0.444444 0.103070 Ti
0.444444 0.888889 0.206140 Ti
0.111111 0.222222 0.206140 Ti
0.444444 0.555556 -0.000000 Ti
0.222222 0.444444 0.309210 Ti
0.555556 0.777778 0.103070 Ti
0.222222 0.111111 0.103070 Ti
0.444444 0.555556 0.206140 Ti
0.777778 0.888889 -0.000000 Ti
0.444444 0.222222 -0.000000 Ti
0.555556 0.777778 0.309210 Ti
0.222222 0.111111 0.309210 Ti
0.555556 0.444444 0.103070 Ti
0.777778 0.888889 0.206140 Ti
0.444444 0.222222 0.206140 Ti
0.777778 0.555556 -0.000000 Ti
0.555556 0.444444 0.309210 Ti
0.888889 0.777778 0.103070 Ti
0.555556 0.111111 0.103070 Ti
0.777778 0.555556 0.206140 Ti
0.777778 0.222222 -0.000000 Ti
0.888889 0.777778 0.309210 Ti
0.555556 0.111111 0.309210 Ti
0.888889 0.444444 0.103070 Ti
0.777778 0.222222 0.206140 Ti
0.888889 0.444444 0.309210 Ti
0.888889 0.111111 0.103070 Ti
0.888889 0.111111 0.309210 Ti

0.000000 0.000000 0.000000
0.000000 0.000000 0.000000
0.000000 0.000000 0.000000
0.000000 0.000000 0.000000
0.000000 0.000000 0.000000
0.000000 0.000000 0.000000
0.000000 0.000000 0.000000
0.000000 0.000000 0.000000
0.000000 0.000000 0.000000
0.000000 0.000000 0.000000
0.000000 0.000000 0.000000
0.000000 0.000000 0.000000
0.000000 0.000000 0.000000
0.000000 0.000000 0.000000
0.000000 0.000000 0.000000
0.000000 0.000000 0.000000
0.000000 0.000000 0.000000
0.000000 0.000000 0.000000
0.000000 0.000000 0.000000
0.000000 0.000000 0.000000
0.000000 0.000000 0.000000
0.000000 0.000000 0.000000
0.000000 0.000000 0.000000
0.000000 0.000000 0.000000
0.000000 0.000000 0.000000
0.000000 0.000000 0.000000
0.000000 0.000000 0.000000
0.000000 0.000000 0.000000
0.000000 0.000000 0.000000
0.000000 0.000000 0.000000
0.000000 0.000000 0.000000
0.000000 0.000000 0.000000
0.000000 0.000000 0.000000
0.000000 0.000000 0.000000
0.000000 0.000000 0.000000
0.000000 0.000000 0.000000
0.000000 0.000000 0.000000
0.000000 0.000000 0.000000
0.000000 0.000000 0.000000
0.000000 0.000000 0.000000
0.000000 0.000000 0.000000
0.000000 0.000000 0.000000
0.000000 0.000000 0.000000
0.000000 0.000000 0.000000
0.000000 0.000000 0.000000
0.000000 0.000000 0.000000
0.000000 0.000000 0.000000
0.000000 0.000000 0.000000
0.000000 0.000000 0.000000
0.000000 0.000000 0.000000
0.000000 0.000000 0.000000
0.000000 0.000000 0.000000
0.000000 0.000000 0.000000
0.000000 0.000000 0.000000
0.000000 0.000000 0.000000
0.000000 0.000000 0.000000
0.000000 0.000000 0.000000
0.000000 0.000000 0.000000
0.000000 0.000000 0.000000
0.000000 0.000000 0.000000
0.000000 0.000000 0.000000
0.000000 0.000000 0.000000
0.000000 0.000000 0.000000
0.000000 0.000000 0.000000
0.000000 0.000000 0.000000
0.000000 0.000000 0.000000
0.000000 0.000000 0.000000
0.000000 0.000000 0.000000
0.000000 0.000000 0.000000
0.000000 0.000000 0.000000
0.000000 0.000000 0.000000
0.000000 0.000000 0.000000
