total_Ti
1.0
8.805261 0.000000 0.000000
-4.402631 7.625580 0.000000
0.000000 0.000000 22.483422
Ti
90
direct
0.083333 0.916670 0.590949 Ti
0.083333 0.416670 0.590949 Ti
0.583333 0.916670 0.590949 Ti
0.583333 0.416670 0.590949 Ti
0.250000 0.250004 0.878816 Ti
0.250000 0.750004 0.878816 Ti
0.750000 0.250004 0.878816 Ti
0.750000 0.750004 0.878816 Ti
0.416667 0.083337 0.919940 Ti
0.416667 0.583337 0.919940 Ti
0.916667 0.083337 0.919940 Ti
0.916667 0.583337 0.919940 Ti
0.250000 0.250004 0.632073 Ti
0.250000 0.750004 0.632073 Ti
0.750000 0.250004 0.632073 Ti
0.750000 0.750004 0.632073 Ti
0.416667 0.083337 0.673197 Ti
0.416667 0.583337 0.673197 Ti
0.916667 0.083337 0.673197 Ti
0.916667 0.583337 0.673197 Ti
0.083333 0.916670 0.714321 Ti
0.083333 0.416670 0.714321 Ti
0.583333 0.916670 0.714321 Ti
0.583333 0.416670 0.714321 Ti
0.250000 0.250004 0.755444 Ti
0.250000 0.750004 0.755444 Ti
0.750000 0.250004 0.755444 Ti
0.750000 0.750004 0.755444 Ti
0.416667 0.083337 0.796568 Ti
0.416667 0.583337 0.796568 Ti
0.916667 0.083337 0.796568 Ti
0.916667 0.583337 0.796568 Ti
0.083333 0.916670 0.837692 Ti
0.083333 0.416670 0.837692 Ti
0.583333 0.916670 0.837692 Ti
0.583333 0.416670 0.837692 Ti
0.138888 0.861108 -0.000000 Ti
0.138888 0.861108 0.408712 Ti
0.138888 0.527774 -0.000000 Ti
0.249999 0.749996 0.102178 Ti
0.138888 0.527774 0.408712 Ti
0.472221 0.861108 -0.000000 Ti
0.138888 0.194441 -0.000000 Ti
0.249999 0.749996 0.510890 Ti
0.250000 0.416663 0.102178 Ti
0.472221 0.861108 0.408712 Ti
0.138888 0.194441 0.408712 Ti
0.472222 0.527774 -0.000000 Ti
0.250000 0.416663 0.510890 Ti
0.583333 0.749996 0.102178 Ti
0.250000 0.083330 0.102178 Ti
0.472222 0.527774 0.408712 Ti
0.805555 0.861108 -0.000000 Ti
0.472222 0.194441 -0.000000 Ti
0.583333 0.749996 0.510890 Ti
0.250000 0.083330 0.510890 Ti
0.583333 0.416663 0.102178 Ti
0.805555 0.861108 0.408712 Ti
0.472222 0.194441 0.408712 Ti
0.805555 0.527774 -0.000000 Ti
0.583333 0.416663 0.510890 Ti
0.916666 0.749996 0.102178 Ti
0.583333 0.083330 0.102178 Ti
0.805555 0.527774 0.408712 Ti
0.805555 0.194441 -0.000000 Ti
0.916666 0.749996 0.510890 Ti
0.583333 0.083330 0.510890 Ti
0.916666 0.416663 0.102178 Ti
0.805555 0.194441 0.408712 Ti
0.916666 0.416663 0.510890 Ti
0.916666 0.083330 0.102178 Ti
0.916666 0.083330 0.510890 Ti
0.138888 0.861108 0.204356 Ti
0.138888 0.527774 0.204356 Ti
0.249999 0.749996 0.306534 Ti
0.472221 0.861108 0.204356 Ti
0.138888 0.194441 0.204356 Ti
0.250000 0.416663 0.306534 Ti
0.472222 0.527774 0.204356 Ti
0.583333 0.749996 0.306534 Ti
0.250000 0.083330 0.306534 Ti
0.805555 0.861108 0.204356 Ti
0.472222 0.194441 0.204356 Ti
0.583333 0.416663 0.306534 Ti
0.805555 0.527774 0.204356 Ti
0.916666 0.749996 0.306534 Ti
0.583333 0.083330 0.306534 Ti
0.805555 0.194441 0.204356 Ti
0.916666 0.416663 0.306534 Ti
0.916666 0.083330 0.306534 Ti
