Zr1 Ti96
1.0
9.513020 0.000000 0.000000
0.000000 9.350860 0.000000
0.000000 0.000000 18.547230
Ti Zr
96 1
Selective dynamics
direct
0.145961 0.375576 0.399917 T T T Ti
0.654358 0.374147 0.398825 T T T Ti
0.166223 0.879520 0.400038 T T T Ti
0.621676 0.928817 0.397877 T T T Ti
0.161644 0.375204 0.236069 T T T Ti
0.660328 0.380871 0.233392 T T T Ti
0.159982 0.877275 0.234495 T T T Ti
0.660010 0.876079 0.235956 T T T Ti
0.166640 0.374993 0.077624 F F F Ti
0.666694 0.375003 0.077609 F F F Ti
0.166708 0.874995 0.077588 F F F Ti
0.666676 0.875012 0.077634 F F F Ti
0.404200 0.376711 0.319806 T T T Ti
0.907298 0.358524 0.311110 T T T Ti
0.405753 0.869881 0.313615 T T T Ti
0.912565 0.869962 0.323680 T T T Ti
0.416652 0.374998 0.155249 F F F Ti
0.916688 0.374968 0.155264 F F F Ti
0.416762 0.875013 0.155274 F F F Ti
0.916680 0.874922 0.155203 F F F Ti
0.416665 0.375008 -0.000016 F F F Ti
0.916665 0.375005 -0.000011 F F F Ti
0.416688 0.875003 -0.000007 F F F Ti
0.916667 0.874996 -0.000023 F F F Ti
0.095800 0.123289 0.319805 T T T Ti
0.592702 0.141476 0.311109 T T T Ti
0.094247 0.630119 0.313614 T T T Ti
0.587435 0.630039 0.323679 T T T Ti
0.083350 0.125011 0.155249 F F F Ti
0.583311 0.125040 0.155263 F F F Ti
0.083239 0.624995 0.155275 F F F Ti
0.583317 0.625089 0.155202 F F F Ti
0.083337 0.124994 -0.000015 F F F Ti
0.583334 0.124997 -0.000011 F F F Ti
0.083315 0.624999 -0.000007 F F F Ti
0.583333 0.625009 -0.000023 F F F Ti
0.354038 0.124424 0.399917 T T T Ti
0.845641 0.125853 0.398825 T T T Ti
0.333776 0.620480 0.400038 T T T Ti
0.878323 0.571183 0.397877 T T T Ti
0.338355 0.124797 0.236069 T T T Ti
0.839670 0.119131 0.233393 T T T Ti
0.340017 0.622727 0.234495 T T T Ti
0.839988 0.623923 0.235956 T T T Ti
0.333359 0.125012 0.077624 F F F Ti
0.833305 0.125004 0.077608 F F F Ti
0.333291 0.625012 0.077588 F F F Ti
0.833323 0.624995 0.077634 F F F Ti
0.374942 0.375021 0.823827 F F F Ti
0.875001 0.374984 0.823813 F F F Ti
0.375027 0.874985 0.823784 F F F Ti
0.875015 0.875015 0.823809 F F F Ti
0.125062 0.124976 0.823828 F F F Ti
0.625002 0.125014 0.823813 F F F Ti
0.124975 0.625011 0.823785 F F F Ti
0.624986 0.624980 0.823811 F F F Ti
0.124961 0.375000 0.910114 F F F Ti
0.625016 0.375012 0.910112 F F F Ti
0.124990 0.874988 0.910094 F F F Ti
0.625013 0.874997 0.910093 F F F Ti
0.375042 0.124996 0.910114 F F F Ti
0.874988 0.124985 0.910112 F F F Ti
0.375013 0.625009 0.910094 F F F Ti
0.874989 0.625003 0.910093 F F F Ti
0.394150 0.370994 0.646813 T T T Ti
0.890502 0.361656 0.665418 T T T Ti
0.385083 0.864215 0.664620 T T T Ti
0.890585 0.860481 0.647471 T T T Ti
0.105850 0.129005 0.646813 T T T Ti
0.609497 0.138342 0.665417 T T T Ti
0.114916 0.635782 0.664620 T T T Ti
0.609414 0.639516 0.647471 T T T Ti
0.139261 0.387219 0.574160 T T T Ti
0.654239 0.377834 0.579456 T T T Ti
0.158142 0.878138 0.573273 T T T Ti
0.618440 0.913679 0.580787 T T T Ti
0.360738 0.112781 0.574160 T T T Ti
0.845760 0.122165 0.579456 T T T Ti
0.341858 0.621862 0.573273 T T T Ti
0.881559 0.586320 0.580787 T T T Ti
0.379962 0.364824 0.486811 T T T Ti
0.903322 0.345527 0.491055 T T T Ti
0.404725 0.855742 0.484385 T T T Ti
0.937065 0.917983 0.487050 T T T Ti
0.120038 0.135176 0.486811 T T T Ti
0.596677 0.154472 0.491055 T T T Ti
0.095275 0.644257 0.484385 T T T Ti
0.562934 0.582017 0.487050 T T T Ti
0.125227 0.875012 0.737543 F F F Ti
0.625134 0.875032 0.737578 F F F Ti
0.374770 0.624979 0.737546 F F F Ti
0.874860 0.624956 0.737580 F F F Ti
0.124921 0.374925 0.737561 F F F Ti
0.625023 0.374908 0.737601 F F F Ti
0.375075 0.125065 0.737558 F F F Ti
0.874972 0.125077 0.737600 F F F Ti
0.750000 0.750000 0.468178 T T T Zr

0.000000 0.000000 0.000000
0.000000 0.000000 0.000000
0.000000 0.000000 0.000000
0.000000 0.000000 0.000000
0.000000 0.000000 0.000000
0.000000 0.000000 0.000000
0.000000 0.000000 0.000000
0.000000 0.000000 0.000000
0.000000 0.000000 0.000000
0.000000 0.000000 0.000000
0.000000 0.000000 0.000000
0.000000 0.000000 0.000000
0.000000 0.000000 0.000000
0.000000 0.000000 0.000000
0.000000 0.000000 0.000000
0.000000 0.000000 0.000000
0.000000 0.000000 0.000000
0.000000 0.000000 0.000000
0.000000 0.000000 0.000000
0.000000 0.000000 0.000000
0.000000 0.000000 0.000000
0.000000 0.000000 0.000000
0.000000 0.000000 0.000000
0.000000 0.000000 0.000000
0.000000 0.000000 0.000000
0.000000 0.000000 0.000000
0.000000 0.000000 0.000000
0.000000 0.000000 0.000000
0.000000 0.000000 0.000000
0.000000 0.000000 0.000000
0.000000 0.000000 0.000000
0.000000 0.000000 0.000000
0.000000 0.000000 0.000000
0.000000 0.000000 0.000000
0.000000 0.000000 0.000000
0.000000 0.000000 0.000000
0.000000 0.000000 0.000000
0.000000 0.000000 0.000000
0.000000 0.000000 0.000000
0.000000 0.000000 0.000000
0.000000 0.000000 0.000000
0.000000 0.000000 0.000000
0.000000 0.000000 0.000000
0.000000 0.000000 0.000000
0.000000 0.000000 0.000000
0.000000 0.000000 0.000000
0.000000 0.000000 0.000000
0.000000 0.000000 0.000000
0.000000 0.000000 0.000000
0.000000 0.000000 0.000000
0.000000 0.000000 0.000000
0.000000 0.000000 0.000000
0.000000 0.000000 0.000000
0.000000 0.000000 0.000000
0.000000 0.000000 0.000000
0.000000 0.000000 0.000000
0.000000 0.000000 0.000000
0.000000 0.000000 0.000000
0.000000 0.000000 0.000000
0.000000 0.000000 0.000000
0.000000 0.000000 0.000000
0.000000 0.000000 0.000000
0.000000 0.000000 0.000000
0.000000 0.000000 0.000000
0.000000 0.000000 0.000000
0.000000 0.000000 0.000000
0.000000 0.000000 0.000000
0.000000 0.000000 0.000000
0.000000 0.000000 0.000000
0.000000 0.000000 0.000000
0.000000 0.000000 0.000000
0.000000 0.000000 0.000000
0.000000 0.000000 0.000000
0.000000 0.000000 0.000000
0.000000 0.000000 0.000000
0.000000 0.000000 0.000000
0.000000 0.000000 0.000000
0.000000 0.000000 0.000000
0.000000 0.000000 0.000000
0.000000 0.000000 0.000000
0.000000 0.000000 0.000000
0.000000 0.000000 0.000000
0.000000 0.000000 0.000000
0.000000 0.000000 0.000000
0.000000 0.000000 0.000000
0.000000 0.000000 0.000000
0.000000 0.000000 0.000000
0.000000 0.000000 0.000000
0.000000 0.000000 0.000000
0.000000 0.000000 0.000000
0.000000 0.000000 0.000000
0.000000 0.000000 0.000000
0.000000 0.000000 0.000000
0.000000 0.000000 0.000000
0.000000 0.000000 0.000000
0.000000 0.000000 0.000000
0.000000 0.000000 0.000000
