substance_top
1.0
   3.5061499999999999    0.0000000000000000    0.0000000000000002
   0.0000000000000019   12.0001999999999995    0.0000000000000007
   0.0000000000000000    0.0000000000000000   26.6816049620000051
Fe
36
Selective dynamics
direct
   0.9933200000000000    0.7184400000000000    0.6252067697860700 F F F Fe
   0.4933200000000000    0.5543100000000000    0.6121959854088030 F F F Fe
   0.4933200000000000    0.7391600000000000    0.5723674649913286 F F F Fe
   0.9933200000000000    0.5750200000000000    0.5593566806140617 F F F Fe
   0.9933200000000001    0.3901700000000000    0.5991751229646287 F F F Fe
   0.4933200000000000    0.2260400000000000    0.5861643385873616 F F F Fe
   0.4933200000000000    0.4108899999999999    0.5463358181698874 F F F Fe
   0.9933200000000001    0.2467500000000000    0.5333250337926204 F F F Fe
   0.9933200000000000    0.0619000000000000    0.5731434761431874 F F F Fe
   0.4933200000000000    0.8977699999999998    0.5601326917659204 F F F Fe
   0.4933200000000000    0.0826200000000000    0.5203041713484461 F F F Fe
   0.9933200000000000    0.9184800000000000    0.5072933869711790 F F F Fe
   0.9933200000000000    0.7598700000000000    0.5195382382634947 F F F Fe
   0.4933200000000000    0.5957300000000000    0.5065173758193204 F F F Fe
   0.4933200000000000    0.7805800000000001    0.4666989334687534 F F F Fe
   0.9933200000000001    0.6164500000000001    0.4536780710245790 F F F Fe
   0.9933200000000001    0.4315999999999999    0.4935065914420533 F F F Fe
   0.4933200000000000    0.2674600000000000    0.4804857289978791 F F F Fe
   0.4933200000000000    0.4523100000000000    0.4406672866473121 F F F Fe
   0.9933200000000001    0.2881800000000000    0.4276464242031378 F F F Fe
   0.9933199999999999    0.1033300000000000    0.4674749446206121 F F F Fe
   0.4933200000000000    0.9391999999999999    0.4544540821764377 F F F Fe
   0.4933200000000000    0.1240400000000000    0.4146356398258708 F F F Fe
   0.9933200000000000    0.9599100000000000    0.4016147773816964 F F F Fe
   0.9933200000000000    0.8013000000000000    0.4138596286740120 F F F Fe
   0.4933200000000000    0.6371599999999998    0.4008488442967451 F F F Fe
   0.4933200000000000    0.8220099999999999    0.3610203238792707 F F F Fe
   0.9933200000000001    0.6578799999999999    0.3480095395020038 F F F Fe
   0.9933200000000001    0.4730300000000000    0.3878279818525707 F F F Fe
   0.4933200000000000    0.3088900000000000    0.3748171974753037 F F F Fe
   0.4933200000000000    0.4937400000000000    0.3349886770578294 F F F Fe
   0.9933200000000000    0.3296100000000000    0.3219778926805625 F F F Fe
   0.9933200000000001    0.1447600000000000    0.3617963350311295 F F F Fe
   0.4933200000000000    0.9806200000000000    0.3487855506538624 F F F Fe
   0.4933200000000000    0.1654700000000000    0.3089570302363882 F F F Fe
   0.9933200000000000    0.0013400000000000    0.2959462458591212 F F F Fe
