Ti96 Al1
1.0
9.513020 0.000000 0.000000
0.000000 9.350860 0.000000
0.000000 0.000000 18.547230
Ti Al
96 1
Selective dynamics
direct
0.140680 0.380752 0.407606 T T T Ti
0.653102 0.368015 0.404746 T T T Ti
0.165845 0.882438 0.398364 T T T Ti
0.612129 0.938395 0.419149 T T T Ti
0.159910 0.374760 0.234445 T T T Ti
0.658388 0.371222 0.231279 T T T Ti
0.165426 0.876751 0.236482 T T T Ti
0.663988 0.879331 0.235065 T T T Ti
0.166666 0.374991 0.077522 F F F Ti
0.666705 0.375021 0.077567 F F F Ti
0.166664 0.874997 0.077533 F F F Ti
0.666670 0.875031 0.077654 F F F Ti
0.390350 0.361726 0.322752 T T T Ti
0.905318 0.366786 0.314853 T T T Ti
0.418779 0.866203 0.317281 T T T Ti
0.927263 0.907110 0.316239 T T T Ti
0.416681 0.375061 0.155104 F F F Ti
0.916752 0.374929 0.155131 F F F Ti
0.416649 0.875126 0.155180 F F F Ti
0.916525 0.874940 0.155191 F F F Ti
0.416681 0.375018 -0.000074 F F F Ti
0.916635 0.375001 -0.000057 F F F Ti
0.416704 0.875012 -0.000036 F F F Ti
0.916613 0.874988 -0.000030 F F F Ti
0.109650 0.138275 0.322751 T T T Ti
0.594682 0.133215 0.314852 T T T Ti
0.081221 0.633798 0.317280 T T T Ti
0.572737 0.592892 0.316239 T T T Ti
0.083323 0.124959 0.155105 F F F Ti
0.583245 0.125090 0.155130 F F F Ti
0.083354 0.624890 0.155181 F F F Ti
0.583472 0.625077 0.155191 F F F Ti
0.083323 0.124990 -0.000074 F F F Ti
0.583362 0.125006 -0.000057 F F F Ti
0.083299 0.624993 -0.000038 F F F Ti
0.583385 0.625018 -0.000030 F F F Ti
0.359319 0.119248 0.407606 T T T Ti
0.846897 0.131985 0.404746 T T T Ti
0.334154 0.617562 0.398364 T T T Ti
0.887870 0.561605 0.419149 T T T Ti
0.340090 0.125244 0.234445 T T T Ti
0.841611 0.128782 0.231279 T T T Ti
0.334573 0.623253 0.236483 T T T Ti
0.836011 0.620673 0.235065 T T T Ti
0.333333 0.125025 0.077522 F F F Ti
0.833294 0.124993 0.077567 F F F Ti
0.333334 0.625019 0.077533 F F F Ti
0.833330 0.624980 0.077654 F F F Ti
0.374960 0.375032 0.823871 F F F Ti
0.874963 0.375022 0.823868 F F F Ti
0.375060 0.874973 0.823876 F F F Ti
0.875016 0.874932 0.823744 F F F Ti
0.125042 0.124959 0.823871 F F F Ti
0.625039 0.124968 0.823868 F F F Ti
0.124944 0.625013 0.823875 F F F Ti
0.624990 0.625059 0.823744 F F F Ti
0.124950 0.375035 0.910132 F F F Ti
0.625040 0.375086 0.910127 F F F Ti
0.124943 0.874957 0.910141 F F F Ti
0.625079 0.874936 0.910151 F F F Ti
0.375055 0.124957 0.910133 F F F Ti
0.874963 0.124905 0.910128 F F F Ti
0.375061 0.625032 0.910140 F F F Ti
0.874924 0.625054 0.910148 F F F Ti
0.395858 0.361269 0.647938 T T T Ti
0.889746 0.361282 0.658198 T T T Ti
0.382295 0.865355 0.663584 T T T Ti
0.885717 0.865914 0.661030 T T T Ti
0.104141 0.138727 0.647938 T T T Ti
0.610253 0.138713 0.658198 T T T Ti
0.117704 0.634640 0.663583 T T T Ti
0.614281 0.634082 0.661031 T T T Ti
0.147750 0.390974 0.572758 T T T Ti
0.653078 0.402735 0.573981 T T T Ti
0.138245 0.883874 0.579810 T T T Ti
0.627411 0.884935 0.580053 T T T Ti
0.352250 0.109024 0.572758 T T T Ti
0.846922 0.097264 0.573981 T T T Ti
0.361755 0.616125 0.579810 T T T Ti
0.872589 0.615063 0.580053 T T T Ti
0.391989 0.373950 0.489295 T T T Ti
0.903722 0.341661 0.500564 T T T Ti
0.385236 0.851925 0.494152 T T T Ti
0.911188 0.877296 0.479366 T T T Ti
0.108011 0.126050 0.489295 T T T Ti
0.596278 0.158339 0.500564 T T T Ti
0.114764 0.648074 0.494152 T T T Ti
0.588812 0.622704 0.479366 T T T Ti
0.125233 0.875001 0.737612 F F F Ti
0.625143 0.875006 0.737543 F F F Ti
0.374760 0.624980 0.737614 F F F Ti
0.874853 0.624980 0.737545 F F F Ti
0.124988 0.375000 0.737650 F F F Ti
0.624826 0.375224 0.737619 F F F Ti
0.375005 0.124980 0.737650 F F F Ti
0.875168 0.124757 0.737621 F F F Ti
0.750000 0.750000 0.388151 T T T Al

0.000000 0.000000 0.000000
0.000000 0.000000 0.000000
0.000000 0.000000 0.000000
0.000000 0.000000 0.000000
0.000000 0.000000 0.000000
0.000000 0.000000 0.000000
0.000000 0.000000 0.000000
0.000000 0.000000 0.000000
0.000000 0.000000 0.000000
0.000000 0.000000 0.000000
0.000000 0.000000 0.000000
0.000000 0.000000 0.000000
0.000000 0.000000 0.000000
0.000000 0.000000 0.000000
0.000000 0.000000 0.000000
0.000000 0.000000 0.000000
0.000000 0.000000 0.000000
0.000000 0.000000 0.000000
0.000000 0.000000 0.000000
0.000000 0.000000 0.000000
0.000000 0.000000 0.000000
0.000000 0.000000 0.000000
0.000000 0.000000 0.000000
0.000000 0.000000 0.000000
0.000000 0.000000 0.000000
0.000000 0.000000 0.000000
0.000000 0.000000 0.000000
0.000000 0.000000 0.000000
0.000000 0.000000 0.000000
0.000000 0.000000 0.000000
0.000000 0.000000 0.000000
0.000000 0.000000 0.000000
0.000000 0.000000 0.000000
0.000000 0.000000 0.000000
0.000000 0.000000 0.000000
0.000000 0.000000 0.000000
0.000000 0.000000 0.000000
0.000000 0.000000 0.000000
0.000000 0.000000 0.000000
0.000000 0.000000 0.000000
0.000000 0.000000 0.000000
0.000000 0.000000 0.000000
0.000000 0.000000 0.000000
0.000000 0.000000 0.000000
0.000000 0.000000 0.000000
0.000000 0.000000 0.000000
0.000000 0.000000 0.000000
0.000000 0.000000 0.000000
0.000000 0.000000 0.000000
0.000000 0.000000 0.000000
0.000000 0.000000 0.000000
0.000000 0.000000 0.000000
0.000000 0.000000 0.000000
0.000000 0.000000 0.000000
0.000000 0.000000 0.000000
0.000000 0.000000 0.000000
0.000000 0.000000 0.000000
0.000000 0.000000 0.000000
0.000000 0.000000 0.000000
0.000000 0.000000 0.000000
0.000000 0.000000 0.000000
0.000000 0.000000 0.000000
0.000000 0.000000 0.000000
0.000000 0.000000 0.000000
0.000000 0.000000 0.000000
0.000000 0.000000 0.000000
0.000000 0.000000 0.000000
0.000000 0.000000 0.000000
0.000000 0.000000 0.000000
0.000000 0.000000 0.000000
0.000000 0.000000 0.000000
0.000000 0.000000 0.000000
0.000000 0.000000 0.000000
0.000000 0.000000 0.000000
0.000000 0.000000 0.000000
0.000000 0.000000 0.000000
0.000000 0.000000 0.000000
0.000000 0.000000 0.000000
0.000000 0.000000 0.000000
0.000000 0.000000 0.000000
0.000000 0.000000 0.000000
0.000000 0.000000 0.000000
0.000000 0.000000 0.000000
0.000000 0.000000 0.000000
0.000000 0.000000 0.000000
0.000000 0.000000 0.000000
0.000000 0.000000 0.000000
0.000000 0.000000 0.000000
0.000000 0.000000 0.000000
0.000000 0.000000 0.000000
0.000000 0.000000 0.000000
0.000000 0.000000 0.000000
0.000000 0.000000 0.000000
0.000000 0.000000 0.000000
0.000000 0.000000 0.000000
0.000000 0.000000 0.000000
0.000000 0.000000 0.000000
