total_Ti
1.0
8.805261 0.000000 0.000000
-4.402630 7.625580 0.000000
0.000000 0.000000 17.888801
Ti
72
direct
0.083333 0.916670 0.485887 Ti
0.083333 0.416670 0.485887 Ti
0.583333 0.916670 0.485887 Ti
0.583333 0.416670 0.485887 Ti
0.250000 0.250004 0.847691 Ti
0.250000 0.750004 0.847691 Ti
0.750000 0.250004 0.847691 Ti
0.750000 0.750004 0.847691 Ti
0.416667 0.083337 0.899377 Ti
0.416667 0.583337 0.899377 Ti
0.916667 0.083337 0.899377 Ti
0.916667 0.583337 0.899377 Ti
0.250000 0.250004 0.537573 Ti
0.250000 0.750004 0.537573 Ti
0.750000 0.250004 0.537573 Ti
0.750000 0.750004 0.537573 Ti
0.416667 0.083337 0.589259 Ti
0.416667 0.583337 0.589259 Ti
0.916667 0.083337 0.589259 Ti
0.916667 0.583337 0.589259 Ti
0.083333 0.916670 0.640946 Ti
0.083333 0.416670 0.640946 Ti
0.583333 0.916670 0.640946 Ti
0.583333 0.416670 0.640946 Ti
0.250000 0.250004 0.692632 Ti
0.250000 0.750004 0.692632 Ti
0.750000 0.250004 0.692632 Ti
0.750000 0.750004 0.692632 Ti
0.416667 0.083337 0.744318 Ti
0.416667 0.583337 0.744318 Ti
0.916667 0.083337 0.744318 Ti
0.916667 0.583337 0.744318 Ti
0.083333 0.916670 0.796005 Ti
0.083333 0.416670 0.796005 Ti
0.583333 0.916670 0.796005 Ti
0.583333 0.416670 0.796005 Ti
0.138888 0.861107 -0.000000 Ti
0.138888 0.861107 0.256843 Ti
0.138888 0.527774 -0.000000 Ti
0.249999 0.749996 0.128422 Ti
0.138888 0.527774 0.256843 Ti
0.472221 0.861107 -0.000000 Ti
0.138888 0.194441 -0.000000 Ti
0.249999 0.749996 0.385265 Ti
0.250000 0.416663 0.128422 Ti
0.472221 0.861107 0.256843 Ti
0.138888 0.194441 0.256843 Ti
0.472221 0.527774 -0.000000 Ti
0.250000 0.416663 0.385265 Ti
0.583333 0.749996 0.128422 Ti
0.250000 0.083330 0.128422 Ti
0.472221 0.527774 0.256843 Ti
0.805555 0.861107 -0.000000 Ti
0.472222 0.194441 -0.000000 Ti
0.583333 0.749996 0.385265 Ti
0.250000 0.083330 0.385265 Ti
0.583333 0.416663 0.128422 Ti
0.805555 0.861107 0.256843 Ti
0.472222 0.194441 0.256843 Ti
0.805555 0.527774 -0.000000 Ti
0.583333 0.416663 0.385265 Ti
0.916666 0.749996 0.128422 Ti
0.583333 0.083330 0.128422 Ti
0.805555 0.527774 0.256843 Ti
0.805555 0.194441 -0.000000 Ti
0.916666 0.749996 0.385265 Ti
0.583333 0.083330 0.385265 Ti
0.916666 0.416663 0.128422 Ti
0.805555 0.194441 0.256843 Ti
0.916666 0.416663 0.385265 Ti
0.916666 0.083330 0.128422 Ti
0.916666 0.083330 0.385265 Ti
