Ti66 Mo1
1.0
6.309760 0.000000 0.000000
0.000000 9.464640 0.000000
0.000000 0.000000 18.918326
Ti Mo
66 1
Selective dynamics
direct
0.124203 0.040910 0.500604 F F F Ti
0.625958 0.040821 0.500295 F F F Ti
0.124843 0.041202 0.658830 F F F Ti
0.624780 0.041170 0.658801 F F F Ti
0.124964 0.041504 0.817235 F F F Ti
0.624947 0.041504 0.817231 F F F Ti
0.116651 0.375718 0.502584 F F F Ti
0.627488 0.375001 0.501474 F F F Ti
0.124426 0.374918 0.659118 F F F Ti
0.624622 0.374896 0.659091 F F F Ti
0.124902 0.375000 0.817278 F F F Ti
0.624881 0.374995 0.817292 F F F Ti
0.125847 0.706825 0.499702 F F F Ti
0.623524 0.707356 0.499684 F F F Ti
0.125056 0.708267 0.658658 F F F Ti
0.624394 0.708412 0.658674 F F F Ti
0.124960 0.708376 0.817207 F F F Ti
0.624863 0.708400 0.817210 F F F Ti
0.374648 0.207952 0.579856 F F F Ti
0.873765 0.207376 0.580057 F F F Ti
0.374895 0.208126 0.738079 F F F Ti
0.874742 0.208096 0.738132 F F F Ti
0.374977 0.208275 0.896384 F F F Ti
0.874927 0.208280 0.896390 F F F Ti
0.374647 0.541443 0.579664 F F F Ti
0.873658 0.542554 0.579974 F F F Ti
0.374896 0.541710 0.738051 F F F Ti
0.874726 0.541802 0.738101 F F F Ti
0.374961 0.541740 0.896412 F F F Ti
0.874906 0.541747 0.896412 F F F Ti
0.374901 0.874721 0.579234 F F F Ti
0.875020 0.874251 0.579293 F F F Ti
0.374888 0.874871 0.737943 F F F Ti
0.874900 0.874799 0.737946 F F F Ti
0.375015 0.874987 0.896441 F F F Ti
0.874946 0.874981 0.896439 F F F Ti
0.123737 0.625386 0.356558 F F F Ti
0.623413 0.624658 0.356607 F F F Ti
0.125031 0.625412 0.118655 F F F Ti
0.624733 0.625327 0.118700 F F F Ti
0.637678 0.120731 0.355672 F F F Ti
0.125367 0.124973 0.118558 F F F Ti
0.625192 0.124864 0.118536 F F F Ti
0.125186 0.375082 0.039250 F F F Ti
0.624712 0.375074 0.039220 F F F Ti
0.125067 0.875139 0.039540 F F F Ti
0.624930 0.875068 0.039547 F F F Ti
0.116389 0.377082 0.274446 F F F Ti
0.629410 0.374963 0.275830 F F F Ti
0.125786 0.876266 0.277617 F F F Ti
0.624975 0.874636 0.277363 F F F Ti
0.375060 0.875138 0.158524 F F F Ti
0.875405 0.875121 0.158429 F F F Ti
0.375091 0.375148 0.158024 F F F Ti
0.873963 0.375297 0.157335 F F F Ti
0.869590 0.375848 0.396529 F F F Ti
0.375038 0.876908 0.396385 F F F Ti
0.876826 0.874502 0.396559 F F F Ti
0.374546 0.625021 0.237697 F F F Ti
0.874283 0.626143 0.237503 F F F Ti
0.374931 0.625214 -0.000119 F F F Ti
0.874906 0.625230 -0.000134 F F F Ti
0.376235 0.124912 0.237306 F F F Ti
0.876193 0.124653 0.237031 F F F Ti
0.375046 0.124883 -0.000162 F F F Ti
0.874994 0.124870 -0.000170 F F F Ti
0.334804 0.325318 0.382802 T T T Mo

0.000000 0.000000 0.000000
0.000000 0.000000 0.000000
0.000000 0.000000 0.000000
0.000000 0.000000 0.000000
0.000000 0.000000 0.000000
0.000000 0.000000 0.000000
0.000000 0.000000 0.000000
0.000000 0.000000 0.000000
0.000000 0.000000 0.000000
0.000000 0.000000 0.000000
0.000000 0.000000 0.000000
0.000000 0.000000 0.000000
0.000000 0.000000 0.000000
0.000000 0.000000 0.000000
0.000000 0.000000 0.000000
0.000000 0.000000 0.000000
0.000000 0.000000 0.000000
0.000000 0.000000 0.000000
0.000000 0.000000 0.000000
0.000000 0.000000 0.000000
0.000000 0.000000 0.000000
0.000000 0.000000 0.000000
0.000000 0.000000 0.000000
0.000000 0.000000 0.000000
0.000000 0.000000 0.000000
0.000000 0.000000 0.000000
0.000000 0.000000 0.000000
0.000000 0.000000 0.000000
0.000000 0.000000 0.000000
0.000000 0.000000 0.000000
0.000000 0.000000 0.000000
0.000000 0.000000 0.000000
0.000000 0.000000 0.000000
0.000000 0.000000 0.000000
0.000000 0.000000 0.000000
0.000000 0.000000 0.000000
0.000000 0.000000 0.000000
0.000000 0.000000 0.000000
0.000000 0.000000 0.000000
0.000000 0.000000 0.000000
0.000000 0.000000 0.000000
0.000000 0.000000 0.000000
0.000000 0.000000 0.000000
0.000000 0.000000 0.000000
0.000000 0.000000 0.000000
0.000000 0.000000 0.000000
0.000000 0.000000 0.000000
0.000000 0.000000 0.000000
0.000000 0.000000 0.000000
0.000000 0.000000 0.000000
0.000000 0.000000 0.000000
0.000000 0.000000 0.000000
0.000000 0.000000 0.000000
0.000000 0.000000 0.000000
0.000000 0.000000 0.000000
0.000000 0.000000 0.000000
0.000000 0.000000 0.000000
0.000000 0.000000 0.000000
0.000000 0.000000 0.000000
0.000000 0.000000 0.000000
0.000000 0.000000 0.000000
0.000000 0.000000 0.000000
0.000000 0.000000 0.000000
0.000000 0.000000 0.000000
0.000000 0.000000 0.000000
0.000000 0.000000 0.000000
0.000000 0.000000 0.000000
