Ti72
1.0
8.805261 0.000000 0.000000
-4.402630 7.625580 0.000000
0.000000 0.000000 27.288801
Ti
72
direct
0.222214 0.944436 0.490748 Ti
0.222214 0.444436 0.490748 Ti
0.722214 0.944436 0.490748 Ti
0.722214 0.444436 0.490748 Ti
0.388880 0.277769 0.727924 Ti
0.388880 0.777769 0.727924 Ti
0.888880 0.277769 0.727924 Ti
0.888880 0.777769 0.727924 Ti
0.555547 0.111102 0.761806 Ti
0.555547 0.611103 0.761806 Ti
0.055556 0.111102 0.761806 Ti
0.055556 0.611103 0.761806 Ti
0.388880 0.277769 0.524630 Ti
0.388880 0.777769 0.524630 Ti
0.888880 0.277769 0.524630 Ti
0.888880 0.777769 0.524630 Ti
0.555547 0.111102 0.558513 Ti
0.555547 0.611103 0.558513 Ti
0.055556 0.111102 0.558513 Ti
0.055556 0.611103 0.558513 Ti
0.222214 0.944436 0.592395 Ti
0.222214 0.444436 0.592395 Ti
0.722214 0.944436 0.592395 Ti
0.722214 0.444436 0.592395 Ti
0.388880 0.277769 0.626277 Ti
0.388880 0.777769 0.626277 Ti
0.888880 0.277769 0.626277 Ti
0.888880 0.777769 0.626277 Ti
0.555547 0.111102 0.660160 Ti
0.555547 0.611103 0.660160 Ti
0.055556 0.111102 0.660160 Ti
0.055556 0.611103 0.660160 Ti
0.222214 0.944436 0.694042 Ti
0.222214 0.444436 0.694042 Ti
0.722214 0.944436 0.694042 Ti
0.722214 0.444436 0.694042 Ti
0.166666 0.833342 -0.000000 Ti
0.166666 0.833342 0.168370 Ti
0.166666 0.500009 -0.000000 Ti
0.277778 0.722231 0.084185 Ti
0.166666 0.500009 0.168370 Ti
0.500000 0.833342 -0.000000 Ti
0.166666 0.166675 -0.000000 Ti
0.277778 0.722231 0.252555 Ti
0.277778 0.388897 0.084185 Ti
0.500000 0.833342 0.168370 Ti
0.166666 0.166675 0.168370 Ti
0.500000 0.500009 -0.000000 Ti
0.277778 0.388897 0.252555 Ti
0.611111 0.722231 0.084185 Ti
0.277778 0.055564 0.084185 Ti
0.500000 0.500009 0.168370 Ti
0.833333 0.833342 -0.000000 Ti
0.500000 0.166675 0.000000 Ti
0.611111 0.722231 0.252555 Ti
0.277778 0.055564 0.252555 Ti
0.611111 0.388897 0.084185 Ti
0.833333 0.833342 0.168370 Ti
0.500000 0.166675 0.168370 Ti
0.833333 0.500009 -0.000000 Ti
0.611111 0.388897 0.252555 Ti
0.944444 0.722231 0.084185 Ti
0.611111 0.055564 0.084185 Ti
0.833333 0.500009 0.168370 Ti
0.833333 0.166675 -0.000000 Ti
0.944444 0.722231 0.252555 Ti
0.611111 0.055564 0.252555 Ti
0.944444 0.388897 0.084185 Ti
0.833333 0.166675 0.168370 Ti
0.944444 0.388897 0.252555 Ti
0.944444 0.055564 0.084185 Ti
0.944444 0.055564 0.252555 Ti
