Ti66 Sn1
1.0
6.309760 0.000000 0.000000
0.000000 9.464640 0.000000
0.000000 0.000000 18.918326
Ti Sn
66 1
Selective dynamics
direct
0.110199 0.034822 0.500224 F F F Ti
0.637573 0.035126 0.500054 F F F Ti
0.124517 0.042098 0.658765 F F F Ti
0.623910 0.042196 0.659004 F F F Ti
0.125099 0.042138 0.817400 F F F Ti
0.624700 0.042180 0.817418 F F F Ti
0.087238 0.388720 0.502543 F F F Ti
0.671445 0.397230 0.502732 F F F Ti
0.124958 0.375492 0.658620 F F F Ti
0.624541 0.376173 0.659395 F F F Ti
0.125139 0.375066 0.817312 F F F Ti
0.624645 0.375076 0.817487 F F F Ti
0.124292 0.709481 0.500254 F F F Ti
0.622679 0.711204 0.500285 F F F Ti
0.126634 0.709676 0.659668 F F F Ti
0.622331 0.710004 0.659877 F F F Ti
0.125200 0.708657 0.817679 F F F Ti
0.624548 0.708715 0.817721 F F F Ti
0.870685 0.207699 0.580636 F F F Ti
0.374667 0.208804 0.737633 F F F Ti
0.874844 0.208671 0.738229 F F F Ti
0.374936 0.208449 0.896531 F F F Ti
0.874987 0.208480 0.896612 F F F Ti
0.374564 0.543106 0.579546 F F F Ti
0.875113 0.549546 0.583283 F F F Ti
0.374808 0.541851 0.738278 F F F Ti
0.875048 0.542289 0.738878 F F F Ti
0.374973 0.541639 0.896661 F F F Ti
0.875052 0.541656 0.896731 F F F Ti
0.374257 0.875779 0.579552 F F F Ti
0.873648 0.873492 0.580808 F F F Ti
0.374569 0.875959 0.738365 F F F Ti
0.874849 0.875595 0.738569 F F F Ti
0.374999 0.875330 0.896684 F F F Ti
0.874959 0.875283 0.896714 F F F Ti
0.125376 0.624157 0.356830 F F F Ti
0.623620 0.625203 0.356357 F F F Ti
0.125147 0.624864 0.118892 F F F Ti
0.624797 0.624869 0.118859 F F F Ti
0.119706 0.122567 0.355730 F F F Ti
0.632572 0.121599 0.354675 F F F Ti
0.125171 0.124888 0.118790 F F F Ti
0.624702 0.124877 0.118699 F F F Ti
0.125121 0.374937 0.039751 F F F Ti
0.624788 0.374965 0.039731 F F F Ti
0.125029 0.875009 0.039643 F F F Ti
0.624765 0.874977 0.039613 F F F Ti
0.125841 0.374420 0.277509 F F F Ti
0.624295 0.374812 0.276862 F F F Ti
0.124555 0.874071 0.277072 F F F Ti
0.624793 0.873667 0.276759 F F F Ti
0.374836 0.874710 0.158350 F F F Ti
0.874892 0.874597 0.158208 F F F Ti
0.374890 0.374777 0.158533 F F F Ti
0.875327 0.374969 0.158375 F F F Ti
0.871539 0.375046 0.393887 F F F Ti
0.374202 0.873825 0.396024 F F F Ti
0.873731 0.871938 0.395629 F F F Ti
0.374612 0.624495 0.237766 F F F Ti
0.875181 0.624564 0.237548 F F F Ti
0.374899 0.624831 0.000202 F F F Ti
0.874832 0.624902 0.000195 F F F Ti
0.374828 0.124473 0.237674 F F F Ti
0.874925 0.124560 0.236874 F F F Ti
0.374923 0.125149 0.000136 F F F Ti
0.874804 0.125088 0.000118 F F F Ti
0.389695 0.258078 0.477494 T T T Sn

0.000000 0.000000 0.000000
0.000000 0.000000 0.000000
0.000000 0.000000 0.000000
0.000000 0.000000 0.000000
0.000000 0.000000 0.000000
0.000000 0.000000 0.000000
0.000000 0.000000 0.000000
0.000000 0.000000 0.000000
0.000000 0.000000 0.000000
0.000000 0.000000 0.000000
0.000000 0.000000 0.000000
0.000000 0.000000 0.000000
0.000000 0.000000 0.000000
0.000000 0.000000 0.000000
0.000000 0.000000 0.000000
0.000000 0.000000 0.000000
0.000000 0.000000 0.000000
0.000000 0.000000 0.000000
0.000000 0.000000 0.000000
0.000000 0.000000 0.000000
0.000000 0.000000 0.000000
0.000000 0.000000 0.000000
0.000000 0.000000 0.000000
0.000000 0.000000 0.000000
0.000000 0.000000 0.000000
0.000000 0.000000 0.000000
0.000000 0.000000 0.000000
0.000000 0.000000 0.000000
0.000000 0.000000 0.000000
0.000000 0.000000 0.000000
0.000000 0.000000 0.000000
0.000000 0.000000 0.000000
0.000000 0.000000 0.000000
0.000000 0.000000 0.000000
0.000000 0.000000 0.000000
0.000000 0.000000 0.000000
0.000000 0.000000 0.000000
0.000000 0.000000 0.000000
0.000000 0.000000 0.000000
0.000000 0.000000 0.000000
0.000000 0.000000 0.000000
0.000000 0.000000 0.000000
0.000000 0.000000 0.000000
0.000000 0.000000 0.000000
0.000000 0.000000 0.000000
0.000000 0.000000 0.000000
0.000000 0.000000 0.000000
0.000000 0.000000 0.000000
0.000000 0.000000 0.000000
0.000000 0.000000 0.000000
0.000000 0.000000 0.000000
0.000000 0.000000 0.000000
0.000000 0.000000 0.000000
0.000000 0.000000 0.000000
0.000000 0.000000 0.000000
0.000000 0.000000 0.000000
0.000000 0.000000 0.000000
0.000000 0.000000 0.000000
0.000000 0.000000 0.000000
0.000000 0.000000 0.000000
0.000000 0.000000 0.000000
0.000000 0.000000 0.000000
0.000000 0.000000 0.000000
0.000000 0.000000 0.000000
0.000000 0.000000 0.000000
0.000000 0.000000 0.000000
0.000000 0.000000 0.000000
