total_Ti
1.0
6.391540 0.000000 0.000000
0.000000 9.587310 0.000000
0.000000 0.000000 28.750000
Ti
84
direct
0.125000 0.083333 0.565217 Ti
0.625000 0.083333 0.565217 Ti
0.125000 0.083333 0.669565 Ti
0.625000 0.083333 0.669565 Ti
0.125000 0.083333 0.773913 Ti
0.625000 0.083333 0.773913 Ti
0.125000 0.416667 0.565217 Ti
0.625000 0.416667 0.565217 Ti
0.125000 0.416667 0.669565 Ti
0.625000 0.416667 0.669565 Ti
0.125000 0.416667 0.773913 Ti
0.625000 0.416667 0.773913 Ti
0.125000 0.750000 0.565217 Ti
0.625000 0.750000 0.565217 Ti
0.125000 0.750000 0.669565 Ti
0.625000 0.750000 0.669565 Ti
0.125000 0.750000 0.773913 Ti
0.625000 0.750000 0.773913 Ti
0.375000 0.250000 0.617391 Ti
0.875000 0.250000 0.617391 Ti
0.375000 0.250000 0.721739 Ti
0.875000 0.250000 0.721739 Ti
0.375000 0.250000 0.826087 Ti
0.875000 0.250000 0.826087 Ti
0.375000 0.583333 0.617391 Ti
0.875000 0.583333 0.617391 Ti
0.375000 0.583333 0.721739 Ti
0.875000 0.583333 0.721739 Ti
0.375000 0.583333 0.826087 Ti
0.875000 0.583333 0.826087 Ti
0.375000 0.916667 0.617391 Ti
0.875000 0.916667 0.617391 Ti
0.375000 0.916667 0.721739 Ti
0.875000 0.916667 0.721739 Ti
0.375000 0.916667 0.826087 Ti
0.875000 0.916667 0.826087 Ti
0.125000 0.166667 0.313043 Ti
0.625000 0.166667 0.313043 Ti
0.125000 0.666667 0.313043 Ti
0.625000 0.666667 0.313043 Ti
0.125000 0.166667 -0.000000 Ti
0.625000 0.166667 -0.000000 Ti
0.125000 0.666667 -0.000000 Ti
0.625000 0.666667 -0.000000 Ti
0.125000 0.833333 0.078261 Ti
0.625000 0.833333 0.078261 Ti
0.125000 0.833333 0.391304 Ti
0.625000 0.833333 0.391304 Ti
0.125000 0.333333 0.078261 Ti
0.625000 0.333333 0.078261 Ti
0.125000 0.333333 0.391304 Ti
0.625000 0.333333 0.391304 Ti
0.375000 0.583333 0.391304 Ti
0.875000 0.583333 0.391304 Ti
0.374999 0.583333 0.078261 Ti
0.874999 0.583333 0.078261 Ti
0.375000 0.083333 0.078261 Ti
0.875000 0.083333 0.078261 Ti
0.375000 0.083333 0.391304 Ti
0.875000 0.083333 0.391304 Ti
0.375000 0.416667 0.313043 Ti
0.875000 0.416667 0.313043 Ti
0.375000 0.916667 0.313043 Ti
0.875000 0.916667 0.313043 Ti
0.375000 0.416667 -0.000000 Ti
0.875000 0.416667 -0.000000 Ti
0.375000 0.916667 -0.000000 Ti
0.875000 0.916667 -0.000000 Ti
0.375000 0.083333 0.234783 Ti
0.875000 0.083333 0.234783 Ti
0.125000 0.166667 0.156522 Ti
0.625000 0.166667 0.156522 Ti
0.125000 0.333333 0.234783 Ti
0.625000 0.333333 0.234783 Ti
0.375000 0.416667 0.156522 Ti
0.875000 0.416667 0.156522 Ti
0.374999 0.583333 0.234783 Ti
0.874999 0.583333 0.234783 Ti
0.125000 0.666667 0.156522 Ti
0.625000 0.666667 0.156522 Ti
0.125000 0.833333 0.234783 Ti
0.625000 0.833333 0.234783 Ti
0.375000 0.916667 0.156522 Ti
0.875000 0.916667 0.156522 Ti
