alpha_Ti
1.0
6.391540 0.000000 0.000000
0.000000 9.587310 0.000000
0.000000 0.000000 28.750000
Ti
48
direct
0.125000 0.166667 0.313043 Ti
0.625000 0.166667 0.313043 Ti
0.125000 0.666667 0.313043 Ti
0.625000 0.666667 0.313043 Ti
0.125000 0.166667 -0.000000 Ti
0.625000 0.166667 -0.000000 Ti
0.125000 0.666667 -0.000000 Ti
0.625000 0.666667 -0.000000 Ti
0.125000 0.833333 0.078261 Ti
0.625000 0.833333 0.078261 Ti
0.125000 0.833333 0.391304 Ti
0.625000 0.833333 0.391304 Ti
0.125000 0.333333 0.078261 Ti
0.625000 0.333333 0.078261 Ti
0.125000 0.333333 0.391304 Ti
0.625000 0.333333 0.391304 Ti
0.375000 0.583333 0.391304 Ti
0.875000 0.583333 0.391304 Ti
0.374999 0.583333 0.078261 Ti
0.874999 0.583333 0.078261 Ti
0.375000 0.083333 0.078261 Ti
0.875000 0.083333 0.078261 Ti
0.375000 0.083333 0.391304 Ti
0.875000 0.083333 0.391304 Ti
0.375000 0.416667 0.313043 Ti
0.875000 0.416667 0.313043 Ti
0.375000 0.916667 0.313043 Ti
0.875000 0.916667 0.313043 Ti
0.375000 0.416667 -0.000000 Ti
0.875000 0.416667 -0.000000 Ti
0.375000 0.916667 -0.000000 Ti
0.875000 0.916667 -0.000000 Ti
0.375000 0.083333 0.234783 Ti
0.875000 0.083333 0.234783 Ti
0.125000 0.166667 0.156522 Ti
0.625000 0.166667 0.156522 Ti
0.125000 0.333333 0.234783 Ti
0.625000 0.333333 0.234783 Ti
0.375000 0.416667 0.156522 Ti
0.875000 0.416667 0.156522 Ti
0.374999 0.583333 0.234783 Ti
0.874999 0.583333 0.234783 Ti
0.125000 0.666667 0.156522 Ti
0.625000 0.666667 0.156522 Ti
0.125000 0.833333 0.234783 Ti
0.625000 0.833333 0.234783 Ti
0.375000 0.916667 0.156522 Ti
0.875000 0.916667 0.156522 Ti
