beta_Ti
1.0
9.588310 0.000000 0.000000
0.000000 9.588310 0.000000
0.000000 0.000000 19.200006
Ti
54
direct
0.083333 0.083333 0.500000 Ti
0.083333 0.083333 0.656250 Ti
0.083333 0.083333 0.812499 Ti
0.083333 0.416667 0.500000 Ti
0.083333 0.416667 0.656250 Ti
0.083333 0.416667 0.812499 Ti
0.083333 0.750000 0.500000 Ti
0.083333 0.750000 0.656250 Ti
0.083333 0.750000 0.812499 Ti
0.416667 0.083333 0.500000 Ti
0.416667 0.083333 0.656250 Ti
0.416667 0.083333 0.812499 Ti
0.416667 0.416667 0.500000 Ti
0.416667 0.416667 0.656250 Ti
0.416667 0.416667 0.812499 Ti
0.416667 0.750000 0.500000 Ti
0.416667 0.750000 0.656250 Ti
0.416667 0.750000 0.812499 Ti
0.750000 0.083333 0.500000 Ti
0.750000 0.083333 0.656250 Ti
0.750000 0.083333 0.812499 Ti
0.750000 0.416667 0.500000 Ti
0.750000 0.416667 0.656250 Ti
0.750000 0.416667 0.812499 Ti
0.750000 0.750000 0.500000 Ti
0.750000 0.750000 0.656250 Ti
0.750000 0.750000 0.812499 Ti
0.250000 0.250000 0.578125 Ti
0.250000 0.250000 0.734375 Ti
0.250000 0.250000 0.890625 Ti
0.250000 0.583333 0.578125 Ti
0.250000 0.583333 0.734375 Ti
0.250000 0.583333 0.890625 Ti
0.250000 0.916667 0.578125 Ti
0.250000 0.916667 0.734375 Ti
0.250000 0.916667 0.890625 Ti
0.583333 0.250000 0.578125 Ti
0.583333 0.250000 0.734375 Ti
0.583333 0.250000 0.890625 Ti
0.583333 0.583333 0.578125 Ti
0.583333 0.583333 0.734375 Ti
0.583333 0.583333 0.890625 Ti
0.583333 0.916667 0.578125 Ti
0.583333 0.916667 0.734375 Ti
0.583333 0.916667 0.890625 Ti
0.916667 0.250000 0.578125 Ti
0.916667 0.250000 0.734375 Ti
0.916667 0.250000 0.890625 Ti
0.916667 0.583333 0.578125 Ti
0.916667 0.583333 0.734375 Ti
0.916667 0.583333 0.890625 Ti
0.916667 0.916667 0.578125 Ti
0.916667 0.916667 0.734375 Ti
0.916667 0.916667 0.890625 Ti
