total_Ti
1.0
8.805261 0.000000 0.000000
-4.402631 7.625580 0.000000
0.000000 0.000000 23.383422
Ti
90
direct
0.967272 0.027818 0.587448 Ti
0.967272 0.527818 0.587448 Ti
0.467272 0.027818 0.587448 Ti
0.467272 0.527818 0.587448 Ti
0.133938 0.361151 0.864236 Ti
0.133938 0.861151 0.864236 Ti
0.633938 0.361151 0.864236 Ti
0.633938 0.861151 0.864236 Ti
0.300605 0.194485 0.903777 Ti
0.300605 0.694485 0.903777 Ti
0.800605 0.194485 0.903777 Ti
0.800605 0.694485 0.903777 Ti
0.133938 0.361151 0.626989 Ti
0.133938 0.861151 0.626989 Ti
0.633938 0.361151 0.626989 Ti
0.633938 0.861151 0.626989 Ti
0.300605 0.194485 0.666530 Ti
0.300605 0.694485 0.666530 Ti
0.800605 0.194485 0.666530 Ti
0.800605 0.694485 0.666530 Ti
0.967272 0.027818 0.706072 Ti
0.967272 0.527818 0.706072 Ti
0.467272 0.027818 0.706072 Ti
0.467272 0.527818 0.706072 Ti
0.133938 0.361151 0.745613 Ti
0.133938 0.861151 0.745613 Ti
0.633938 0.361151 0.745613 Ti
0.633938 0.861151 0.745613 Ti
0.300605 0.194485 0.785154 Ti
0.300605 0.694485 0.785154 Ti
0.800605 0.194485 0.785154 Ti
0.800605 0.694485 0.785154 Ti
0.967272 0.027818 0.824695 Ti
0.967272 0.527818 0.824695 Ti
0.467272 0.027818 0.824695 Ti
0.467272 0.527818 0.824695 Ti
0.111111 0.888889 -0.000000 Ti
0.111111 0.888889 0.392981 Ti
0.111111 0.555556 -0.000000 Ti
0.222222 0.777778 0.098245 Ti
0.111111 0.555556 0.392981 Ti
0.444444 0.888889 -0.000000 Ti
0.111111 0.222222 -0.000000 Ti
0.222222 0.777778 0.491226 Ti
0.222222 0.444444 0.098245 Ti
0.444444 0.888889 0.392981 Ti
0.111111 0.222222 0.392981 Ti
0.444444 0.555556 -0.000000 Ti
0.222222 0.444444 0.491226 Ti
0.555556 0.777778 0.098245 Ti
0.222222 0.111111 0.098245 Ti
0.444444 0.555556 0.392981 Ti
0.777778 0.888889 -0.000000 Ti
0.444444 0.222222 -0.000000 Ti
0.555556 0.777778 0.491226 Ti
0.222222 0.111111 0.491226 Ti
0.555556 0.444444 0.098245 Ti
0.777778 0.888889 0.392981 Ti
0.444444 0.222222 0.392981 Ti
0.777778 0.555556 -0.000000 Ti
0.555556 0.444444 0.491226 Ti
0.888889 0.777778 0.098245 Ti
0.555556 0.111111 0.098245 Ti
0.777778 0.555556 0.392981 Ti
0.777778 0.222222 -0.000000 Ti
0.888889 0.777778 0.491226 Ti
0.555556 0.111111 0.491226 Ti
0.888889 0.444444 0.098245 Ti
0.777778 0.222222 0.392981 Ti
0.888889 0.444444 0.491226 Ti
0.888889 0.111111 0.098245 Ti
0.888889 0.111111 0.491226 Ti
0.111111 0.888889 0.196490 Ti
0.111111 0.555556 0.196490 Ti
0.222222 0.777778 0.294736 Ti
0.444444 0.888889 0.196490 Ti
0.111111 0.222222 0.196490 Ti
0.222222 0.444444 0.294736 Ti
0.444444 0.555556 0.196490 Ti
0.555556 0.777778 0.294736 Ti
0.222222 0.111111 0.294736 Ti
0.777778 0.888889 0.196490 Ti
0.444444 0.222222 0.196490 Ti
0.555556 0.444444 0.294736 Ti
0.777778 0.555556 0.196490 Ti
0.888889 0.777778 0.294736 Ti
0.555556 0.111111 0.294736 Ti
0.777778 0.222222 0.196490 Ti
0.888889 0.444444 0.294736 Ti
0.888889 0.111111 0.294736 Ti
