Ti96 Mo1
1.0
9.513020 0.000000 0.000000
0.000000 9.350860 0.000000
0.000000 0.000000 18.547230
Ti Mo
96 1
Selective dynamics
direct
0.140278 0.380689 0.403313 T T T Ti
0.647824 0.359593 0.398359 T T T Ti
0.168737 0.885007 0.403095 T T T Ti
0.639109 0.934607 0.398975 T T T Ti
0.162892 0.379091 0.235398 T T T Ti
0.659923 0.380713 0.233871 T T T Ti
0.159704 0.875719 0.236393 T T T Ti
0.657179 0.877240 0.234978 T T T Ti
0.166639 0.375030 0.077598 F F F Ti
0.666685 0.375033 0.077581 F F F Ti
0.166693 0.875011 0.077583 F F F Ti
0.666672 0.874975 0.077626 F F F Ti
0.399389 0.370670 0.319365 T T T Ti
0.911919 0.361728 0.308806 T T T Ti
0.408172 0.865723 0.319093 T T T Ti
0.910580 0.875467 0.327242 T T T Ti
0.416578 0.375044 0.155217 F F F Ti
0.916736 0.375075 0.155196 F F F Ti
0.416710 0.874959 0.155261 F F F Ti
0.916722 0.874906 0.155245 F F F Ti
0.416681 0.375003 -0.000015 F F F Ti
0.916647 0.375019 -0.000012 F F F Ti
0.416695 0.875001 -0.000009 F F F Ti
0.916641 0.874998 -0.000003 F F F Ti
0.100611 0.129331 0.319364 T T T Ti
0.588081 0.138273 0.308805 T T T Ti
0.091828 0.634278 0.319092 T T T Ti
0.589420 0.624534 0.327241 T T T Ti
0.083425 0.124971 0.155217 F F F Ti
0.583261 0.124939 0.155197 F F F Ti
0.083293 0.625054 0.155261 F F F Ti
0.583275 0.625109 0.155244 F F F Ti
0.083322 0.125006 -0.000015 F F F Ti
0.583352 0.124989 -0.000011 F F F Ti
0.083309 0.625005 -0.000008 F F F Ti
0.583358 0.625009 -0.000003 F F F Ti
0.359721 0.119311 0.403313 T T T Ti
0.852175 0.140407 0.398359 T T T Ti
0.331262 0.614993 0.403095 T T T Ti
0.860890 0.565393 0.398975 T T T Ti
0.337107 0.120912 0.235398 T T T Ti
0.840077 0.119290 0.233870 T T T Ti
0.340295 0.624284 0.236394 T T T Ti
0.842820 0.622763 0.234978 T T T Ti
0.333360 0.124983 0.077599 F F F Ti
0.833314 0.124981 0.077581 F F F Ti
0.333306 0.625002 0.077583 F F F Ti
0.833328 0.625037 0.077626 F F F Ti
0.375006 0.374969 0.823922 F F F Ti
0.875020 0.374937 0.823809 F F F Ti
0.375042 0.875031 0.823932 F F F Ti
0.874943 0.874980 0.823881 F F F Ti
0.125000 0.125021 0.823921 F F F Ti
0.624988 0.125060 0.823809 F F F Ti
0.124961 0.624959 0.823934 F F F Ti
0.625062 0.625013 0.823882 F F F Ti
0.124929 0.375017 0.910133 F F F Ti
0.625056 0.375025 0.910101 F F F Ti
0.124925 0.874984 0.910130 F F F Ti
0.625038 0.874990 0.910078 F F F Ti
0.375076 0.124981 0.910133 F F F Ti
0.874947 0.124972 0.910100 F F F Ti
0.375080 0.625011 0.910130 F F F Ti
0.874968 0.625011 0.910078 F F F Ti
0.389765 0.366585 0.647109 T T T Ti
0.890797 0.366745 0.665792 T T T Ti
0.385422 0.860659 0.662204 T T T Ti
0.894432 0.862476 0.649904 T T T Ti
0.110234 0.133410 0.647109 T T T Ti
0.609202 0.133250 0.665791 T T T Ti
0.114575 0.639334 0.662204 T T T Ti
0.605565 0.637519 0.649905 T T T Ti
0.138544 0.396074 0.574248 T T T Ti
0.651213 0.378628 0.580903 T T T Ti
0.156980 0.879858 0.570484 T T T Ti
0.633681 0.900295 0.579609 T T T Ti
0.361455 0.103924 0.574248 T T T Ti
0.848787 0.121370 0.580902 T T T Ti
0.343019 0.620140 0.570484 T T T Ti
0.866318 0.599703 0.579609 T T T Ti
0.381696 0.359388 0.490410 T T T Ti
0.901046 0.350342 0.495250 T T T Ti
0.414230 0.851791 0.483821 T T T Ti
0.925019 0.915114 0.484752 T T T Ti
0.118304 0.140612 0.490410 T T T Ti
0.598954 0.149657 0.495250 T T T Ti
0.085770 0.648209 0.483821 T T T Ti
0.574981 0.584886 0.484752 T T T Ti
0.125085 0.874936 0.737802 F F F Ti
0.624886 0.875239 0.737631 F F F Ti
0.374900 0.625033 0.737802 F F F Ti
0.875107 0.624741 0.737634 F F F Ti
0.125011 0.374885 0.737672 F F F Ti
0.625143 0.374851 0.737640 F F F Ti
0.374980 0.125096 0.737670 F F F Ti
0.874851 0.125130 0.737640 F F F Ti
0.750000 0.750000 0.450922 T T T Mo

0.000000 0.000000 0.000000
0.000000 0.000000 0.000000
0.000000 0.000000 0.000000
0.000000 0.000000 0.000000
0.000000 0.000000 0.000000
0.000000 0.000000 0.000000
0.000000 0.000000 0.000000
0.000000 0.000000 0.000000
0.000000 0.000000 0.000000
0.000000 0.000000 0.000000
0.000000 0.000000 0.000000
0.000000 0.000000 0.000000
0.000000 0.000000 0.000000
0.000000 0.000000 0.000000
0.000000 0.000000 0.000000
0.000000 0.000000 0.000000
0.000000 0.000000 0.000000
0.000000 0.000000 0.000000
0.000000 0.000000 0.000000
0.000000 0.000000 0.000000
0.000000 0.000000 0.000000
0.000000 0.000000 0.000000
0.000000 0.000000 0.000000
0.000000 0.000000 0.000000
0.000000 0.000000 0.000000
0.000000 0.000000 0.000000
0.000000 0.000000 0.000000
0.000000 0.000000 0.000000
0.000000 0.000000 0.000000
0.000000 0.000000 0.000000
0.000000 0.000000 0.000000
0.000000 0.000000 0.000000
0.000000 0.000000 0.000000
0.000000 0.000000 0.000000
0.000000 0.000000 0.000000
0.000000 0.000000 0.000000
0.000000 0.000000 0.000000
0.000000 0.000000 0.000000
0.000000 0.000000 0.000000
0.000000 0.000000 0.000000
0.000000 0.000000 0.000000
0.000000 0.000000 0.000000
0.000000 0.000000 0.000000
0.000000 0.000000 0.000000
0.000000 0.000000 0.000000
0.000000 0.000000 0.000000
0.000000 0.000000 0.000000
0.000000 0.000000 0.000000
0.000000 0.000000 0.000000
0.000000 0.000000 0.000000
0.000000 0.000000 0.000000
0.000000 0.000000 0.000000
0.000000 0.000000 0.000000
0.000000 0.000000 0.000000
0.000000 0.000000 0.000000
0.000000 0.000000 0.000000
0.000000 0.000000 0.000000
0.000000 0.000000 0.000000
0.000000 0.000000 0.000000
0.000000 0.000000 0.000000
0.000000 0.000000 0.000000
0.000000 0.000000 0.000000
0.000000 0.000000 0.000000
0.000000 0.000000 0.000000
0.000000 0.000000 0.000000
0.000000 0.000000 0.000000
0.000000 0.000000 0.000000
0.000000 0.000000 0.000000
0.000000 0.000000 0.000000
0.000000 0.000000 0.000000
0.000000 0.000000 0.000000
0.000000 0.000000 0.000000
0.000000 0.000000 0.000000
0.000000 0.000000 0.000000
0.000000 0.000000 0.000000
0.000000 0.000000 0.000000
0.000000 0.000000 0.000000
0.000000 0.000000 0.000000
0.000000 0.000000 0.000000
0.000000 0.000000 0.000000
0.000000 0.000000 0.000000
0.000000 0.000000 0.000000
0.000000 0.000000 0.000000
0.000000 0.000000 0.000000
0.000000 0.000000 0.000000
0.000000 0.000000 0.000000
0.000000 0.000000 0.000000
0.000000 0.000000 0.000000
0.000000 0.000000 0.000000
0.000000 0.000000 0.000000
0.000000 0.000000 0.000000
0.000000 0.000000 0.000000
0.000000 0.000000 0.000000
0.000000 0.000000 0.000000
0.000000 0.000000 0.000000
0.000000 0.000000 0.000000
0.000000 0.000000 0.000000
