beta_Ti
1.0
9.588310 0.000000 0.000000
0.000000 9.588310 0.000000
0.000000 0.000000 22.000006
Ti
54
direct
0.083333 0.083333 0.500000 Ti
0.083333 0.083333 0.636364 Ti
0.083333 0.083333 0.772727 Ti
0.083333 0.416667 0.500000 Ti
0.083333 0.416667 0.636364 Ti
0.083333 0.416667 0.772727 Ti
0.083333 0.750000 0.500000 Ti
0.083333 0.750000 0.636364 Ti
0.083333 0.750000 0.772727 Ti
0.416667 0.083333 0.500000 Ti
0.416667 0.083333 0.636364 Ti
0.416667 0.083333 0.772727 Ti
0.416667 0.416667 0.500000 Ti
0.416667 0.416667 0.636364 Ti
0.416667 0.416667 0.772727 Ti
0.416667 0.750000 0.500000 Ti
0.416667 0.750000 0.636364 Ti
0.416667 0.750000 0.772727 Ti
0.750000 0.083333 0.500000 Ti
0.750000 0.083333 0.636364 Ti
0.750000 0.083333 0.772727 Ti
0.750000 0.416667 0.500000 Ti
0.750000 0.416667 0.636364 Ti
0.750000 0.416667 0.772727 Ti
0.750000 0.750000 0.500000 Ti
0.750000 0.750000 0.636364 Ti
0.750000 0.750000 0.772727 Ti
0.250000 0.250000 0.568181 Ti
0.250000 0.250000 0.704545 Ti
0.250000 0.250000 0.840909 Ti
0.250000 0.583333 0.568181 Ti
0.250000 0.583333 0.704545 Ti
0.250000 0.583333 0.840909 Ti
0.250000 0.916667 0.568181 Ti
0.250000 0.916667 0.704545 Ti
0.250000 0.916667 0.840909 Ti
0.583333 0.250000 0.568181 Ti
0.583333 0.250000 0.704545 Ti
0.583333 0.250000 0.840909 Ti
0.583333 0.583333 0.568181 Ti
0.583333 0.583333 0.704545 Ti
0.583333 0.583333 0.840909 Ti
0.583333 0.916667 0.568181 Ti
0.583333 0.916667 0.704545 Ti
0.583333 0.916667 0.840909 Ti
0.916667 0.250000 0.568181 Ti
0.916667 0.250000 0.704545 Ti
0.916667 0.250000 0.840909 Ti
0.916667 0.583333 0.568181 Ti
0.916667 0.583333 0.704545 Ti
0.916667 0.583333 0.840909 Ti
0.916667 0.916667 0.568181 Ti
0.916667 0.916667 0.704545 Ti
0.916667 0.916667 0.840909 Ti
