alpha_Ti
1.0
6.309760 0.000000 0.000000
0.000000 9.464640 0.000000
0.000000 0.000000 19.600004
Ti
32
direct
0.125000 0.625000 0.344388 Ti
0.625000 0.625000 0.344388 Ti
0.125000 0.625000 0.114796 Ti
0.625000 0.625000 0.114796 Ti
0.125000 0.125000 0.344388 Ti
0.625000 0.125000 0.344388 Ti
0.125000 0.125000 0.114796 Ti
0.625000 0.125000 0.114796 Ti
0.125000 0.375000 0.038265 Ti
0.625000 0.375000 0.038265 Ti
0.125000 0.875000 0.038265 Ti
0.625000 0.875000 0.038265 Ti
0.125000 0.375000 0.267857 Ti
0.625000 0.375000 0.267857 Ti
0.125000 0.875000 0.267857 Ti
0.625000 0.875000 0.267857 Ti
0.375000 0.875000 0.153061 Ti
0.875000 0.875000 0.153061 Ti
0.374999 0.375000 0.153061 Ti
0.874999 0.375000 0.153061 Ti
0.375000 0.375000 0.382653 Ti
0.875000 0.375000 0.382653 Ti
0.375000 0.875000 0.382653 Ti
0.875000 0.875000 0.382653 Ti
0.375000 0.625000 0.229592 Ti
0.875000 0.625000 0.229592 Ti
0.375000 0.625000 -0.000000 Ti
0.875000 0.625000 -0.000000 Ti
0.375000 0.125000 0.229592 Ti
0.875000 0.125000 0.229592 Ti
0.375000 0.125000 -0.000000 Ti
0.875000 0.125000 -0.000000 Ti
