beta_Ti
1.0
8.805261 0.000000 0.000000
-4.402631 7.625580 0.000000
0.000000 0.000000 23.483422
Ti
36
direct
0.083333 0.916670 0.587076 Ti
0.083333 0.416670 0.587076 Ti
0.583333 0.916670 0.587076 Ti
0.583333 0.416670 0.587076 Ti
0.250000 0.250004 0.862685 Ti
0.250000 0.750004 0.862685 Ti
0.750000 0.250004 0.862685 Ti
0.750000 0.750004 0.862685 Ti
0.416667 0.083337 0.902058 Ti
0.416667 0.583337 0.902058 Ti
0.916667 0.083337 0.902058 Ti
0.916667 0.583337 0.902058 Ti
0.250000 0.250004 0.626449 Ti
0.250000 0.750004 0.626449 Ti
0.750000 0.250004 0.626449 Ti
0.750000 0.750004 0.626449 Ti
0.416667 0.083337 0.665821 Ti
0.416667 0.583337 0.665821 Ti
0.916667 0.083337 0.665821 Ti
0.916667 0.583337 0.665821 Ti
0.083333 0.916670 0.705194 Ti
0.083333 0.416670 0.705194 Ti
0.583333 0.916670 0.705194 Ti
0.583333 0.416670 0.705194 Ti
0.250000 0.250004 0.744567 Ti
0.250000 0.750004 0.744567 Ti
0.750000 0.250004 0.744567 Ti
0.750000 0.750004 0.744567 Ti
0.416667 0.083337 0.783940 Ti
0.416667 0.583337 0.783940 Ti
0.916667 0.083337 0.783940 Ti
0.916667 0.583337 0.783940 Ti
0.083333 0.916670 0.823312 Ti
0.083333 0.416670 0.823312 Ti
0.583333 0.916670 0.823312 Ti
0.583333 0.416670 0.823312 Ti
