Ti66 Al1
1.0
6.309760 0.000000 0.000000
0.000000 9.464640 0.000000
0.000000 0.000000 18.918326
Ti Al
66 1
Selective dynamics
direct
0.626043 0.041601 0.500015 F F F Ti
0.125054 0.041727 0.658534 F F F Ti
0.625034 0.041697 0.658577 F F F Ti
0.125021 0.041683 0.817132 F F F Ti
0.625008 0.041681 0.817146 F F F Ti
0.125210 0.376816 0.500368 F F F Ti
0.625413 0.375154 0.500225 F F F Ti
0.125080 0.375087 0.658669 F F F Ti
0.625019 0.375040 0.658671 F F F Ti
0.125014 0.374995 0.817163 F F F Ti
0.624999 0.374987 0.817172 F F F Ti
0.125087 0.708335 0.500103 F F F Ti
0.624932 0.708057 0.500250 F F F Ti
0.125057 0.708448 0.658648 F F F Ti
0.624972 0.708464 0.658686 F F F Ti
0.125010 0.708361 0.817167 F F F Ti
0.624995 0.708367 0.817179 F F F Ti
0.375169 0.208473 0.579311 F F F Ti
0.875011 0.208592 0.579440 F F F Ti
0.375022 0.208327 0.737866 F F F Ti
0.875023 0.208333 0.737884 F F F Ti
0.374968 0.208296 0.896390 F F F Ti
0.875045 0.208297 0.896391 F F F Ti
0.375309 0.541893 0.579494 F F F Ti
0.874848 0.541936 0.579523 F F F Ti
0.375041 0.541713 0.737928 F F F Ti
0.874997 0.541715 0.737935 F F F Ti
0.374986 0.541627 0.896411 F F F Ti
0.875025 0.541627 0.896410 F F F Ti
0.375062 0.875124 0.579261 F F F Ti
0.875077 0.874969 0.579348 F F F Ti
0.374995 0.875063 0.737867 F F F Ti
0.875026 0.875053 0.737883 F F F Ti
0.374971 0.875036 0.896384 F F F Ti
0.875043 0.875035 0.896385 F F F Ti
0.125262 0.624804 0.356694 F F F Ti
0.624897 0.624651 0.356563 F F F Ti
0.125056 0.624939 0.118858 F F F Ti
0.625008 0.624942 0.118841 F F F Ti
0.627592 0.124929 0.356769 F F F Ti
0.125119 0.124965 0.118943 F F F Ti
0.624963 0.124983 0.118910 F F F Ti
0.125029 0.374960 0.039627 F F F Ti
0.624986 0.374966 0.039617 F F F Ti
0.125039 0.874998 0.039596 F F F Ti
0.625004 0.875002 0.039583 F F F Ti
0.125073 0.375073 0.277551 F F F Ti
0.625205 0.374874 0.277403 F F F Ti
0.125119 0.874167 0.277315 F F F Ti
0.625285 0.874885 0.277226 F F F Ti
0.375062 0.874975 0.158498 F F F Ti
0.875048 0.874916 0.158451 F F F Ti
0.374995 0.374886 0.158572 F F F Ti
0.875064 0.374943 0.158519 F F F Ti
0.376785 0.376809 0.396553 F F F Ti
0.873170 0.377749 0.396560 F F F Ti
0.378113 0.872378 0.396308 F F F Ti
0.871465 0.871244 0.396301 F F F Ti
0.375133 0.624844 0.237726 F F F Ti
0.874989 0.624803 0.237708 F F F Ti
0.375000 0.624983 -0.000040 F F F Ti
0.875015 0.624983 -0.000041 F F F Ti
0.375108 0.124883 0.237993 F F F Ti
0.875117 0.124896 0.237712 F F F Ti
0.374998 0.125002 -0.000023 F F F Ti
0.875031 0.125002 -0.000024 F F F Ti
0.118701 0.112519 0.399221 T T T Al

0.000000 0.000000 0.000000
0.000000 0.000000 0.000000
0.000000 0.000000 0.000000
0.000000 0.000000 0.000000
0.000000 0.000000 0.000000
0.000000 0.000000 0.000000
0.000000 0.000000 0.000000
0.000000 0.000000 0.000000
0.000000 0.000000 0.000000
0.000000 0.000000 0.000000
0.000000 0.000000 0.000000
0.000000 0.000000 0.000000
0.000000 0.000000 0.000000
0.000000 0.000000 0.000000
0.000000 0.000000 0.000000
0.000000 0.000000 0.000000
0.000000 0.000000 0.000000
0.000000 0.000000 0.000000
0.000000 0.000000 0.000000
0.000000 0.000000 0.000000
0.000000 0.000000 0.000000
0.000000 0.000000 0.000000
0.000000 0.000000 0.000000
0.000000 0.000000 0.000000
0.000000 0.000000 0.000000
0.000000 0.000000 0.000000
0.000000 0.000000 0.000000
0.000000 0.000000 0.000000
0.000000 0.000000 0.000000
0.000000 0.000000 0.000000
0.000000 0.000000 0.000000
0.000000 0.000000 0.000000
0.000000 0.000000 0.000000
0.000000 0.000000 0.000000
0.000000 0.000000 0.000000
0.000000 0.000000 0.000000
0.000000 0.000000 0.000000
0.000000 0.000000 0.000000
0.000000 0.000000 0.000000
0.000000 0.000000 0.000000
0.000000 0.000000 0.000000
0.000000 0.000000 0.000000
0.000000 0.000000 0.000000
0.000000 0.000000 0.000000
0.000000 0.000000 0.000000
0.000000 0.000000 0.000000
0.000000 0.000000 0.000000
0.000000 0.000000 0.000000
0.000000 0.000000 0.000000
0.000000 0.000000 0.000000
0.000000 0.000000 0.000000
0.000000 0.000000 0.000000
0.000000 0.000000 0.000000
0.000000 0.000000 0.000000
0.000000 0.000000 0.000000
0.000000 0.000000 0.000000
0.000000 0.000000 0.000000
0.000000 0.000000 0.000000
0.000000 0.000000 0.000000
0.000000 0.000000 0.000000
0.000000 0.000000 0.000000
0.000000 0.000000 0.000000
0.000000 0.000000 0.000000
0.000000 0.000000 0.000000
0.000000 0.000000 0.000000
0.000000 0.000000 0.000000
0.000000 0.000000 0.000000
