Ti82 Nb1
1.0
6.391540 0.000000 0.000000
0.000000 9.587310 0.000000
0.000000 0.000000 23.271695
Ti Nb
82 1
Selective dynamics
direct
0.631083 0.083339 0.581645 F F F Ti
0.125134 0.083338 0.709495 F F F Ti
0.625238 0.083340 0.709655 F F F Ti
0.125008 0.083336 0.838415 F F F Ti
0.625020 0.083336 0.838436 F F F Ti
0.124950 0.417010 0.580667 F F F Ti
0.625370 0.416996 0.580673 F F F Ti
0.125127 0.416730 0.709552 F F F Ti
0.625093 0.416757 0.709572 F F F Ti
0.125016 0.416673 0.838427 F F F Ti
0.625010 0.416677 0.838432 F F F Ti
0.124858 0.749637 0.580683 F F F Ti
0.625367 0.749689 0.580679 F F F Ti
0.125095 0.749950 0.709558 F F F Ti
0.625090 0.749924 0.709579 F F F Ti
0.125008 0.749999 0.838428 F F F Ti
0.625007 0.749994 0.838434 F F F Ti
0.375423 0.250193 0.645170 F F F Ti
0.875695 0.250387 0.645207 F F F Ti
0.375005 0.250016 0.773984 F F F Ti
0.875098 0.250027 0.773999 F F F Ti
0.374995 0.249999 0.902864 F F F Ti
0.875016 0.250000 0.902868 F F F Ti
0.375080 0.583395 0.645095 F F F Ti
0.875026 0.583322 0.645144 F F F Ti
0.375013 0.583336 0.773989 F F F Ti
0.875044 0.583325 0.774001 F F F Ti
0.374996 0.583331 0.902868 F F F Ti
0.875008 0.583330 0.902871 F F F Ti
0.375423 0.916493 0.645176 F F F Ti
0.875684 0.916291 0.645209 F F F Ti
0.375000 0.916660 0.773984 F F F Ti
0.875091 0.916645 0.773999 F F F Ti
0.374990 0.916667 0.902861 F F F Ti
0.875012 0.916665 0.902866 F F F Ti
0.123886 0.166937 0.386514 F F F Ti
0.624370 0.166757 0.386716 F F F Ti
0.124891 0.666439 0.386558 F F F Ti
0.624976 0.666590 0.386642 F F F Ti
0.125003 0.166662 -0.000010 F F F Ti
0.624986 0.166663 -0.000009 F F F Ti
0.125003 0.666677 -0.000007 F F F Ti
0.624989 0.666676 -0.000006 F F F Ti
0.125000 0.833339 0.096669 F F F Ti
0.624991 0.833339 0.096668 F F F Ti
0.122004 0.830796 0.483197 F F F Ti
0.626007 0.832315 0.483397 F F F Ti
0.124998 0.333331 0.096668 F F F Ti
0.624989 0.333331 0.096667 F F F Ti
0.122088 0.335851 0.483164 F F F Ti
0.625809 0.334337 0.483395 F F F Ti
0.375143 0.583570 0.483402 F F F Ti
0.874312 0.583391 0.483386 F F F Ti
0.374999 0.583335 0.096667 F F F Ti
0.874998 0.583336 0.096664 F F F Ti
0.374995 0.083335 0.096673 F F F Ti
0.874991 0.083337 0.096670 F F F Ti
0.871050 0.083323 0.483204 F F F Ti
0.374924 0.416789 0.386665 F F F Ti
0.874441 0.416855 0.386542 F F F Ti
0.374690 0.916369 0.386651 F F F Ti
0.874418 0.916574 0.386595 F F F Ti
0.374991 0.416662 -0.000009 F F F Ti
0.875006 0.416662 -0.000006 F F F Ti
0.374991 0.916672 -0.000007 F F F Ti
0.875008 0.916671 -0.000004 F F F Ti
0.374883 0.083330 0.290033 F F F Ti
0.874765 0.083332 0.289987 F F F Ti
0.124983 0.166661 0.193344 F F F Ti
0.624948 0.166663 0.193340 F F F Ti
0.124938 0.333390 0.289973 F F F Ti
0.624840 0.333324 0.289991 F F F Ti
0.374980 0.416670 0.193332 F F F Ti
0.874954 0.416665 0.193326 F F F Ti
0.375014 0.583351 0.289989 F F F Ti
0.874906 0.583365 0.289955 F F F Ti
0.124991 0.666668 0.193331 F F F Ti
0.624962 0.666669 0.193327 F F F Ti
0.124913 0.833331 0.289997 F F F Ti
0.624897 0.833319 0.289990 F F F Ti
0.374966 0.916671 0.193344 F F F Ti
0.874963 0.916664 0.193335 F F F Ti
0.325530 0.083137 0.507222 T T T Nb

0.000000 0.000000 0.000000
0.000000 0.000000 0.000000
0.000000 0.000000 0.000000
0.000000 0.000000 0.000000
0.000000 0.000000 0.000000
0.000000 0.000000 0.000000
0.000000 0.000000 0.000000
0.000000 0.000000 0.000000
0.000000 0.000000 0.000000
0.000000 0.000000 0.000000
0.000000 0.000000 0.000000
0.000000 0.000000 0.000000
0.000000 0.000000 0.000000
0.000000 0.000000 0.000000
0.000000 0.000000 0.000000
0.000000 0.000000 0.000000
0.000000 0.000000 0.000000
0.000000 0.000000 0.000000
0.000000 0.000000 0.000000
0.000000 0.000000 0.000000
0.000000 0.000000 0.000000
0.000000 0.000000 0.000000
0.000000 0.000000 0.000000
0.000000 0.000000 0.000000
0.000000 0.000000 0.000000
0.000000 0.000000 0.000000
0.000000 0.000000 0.000000
0.000000 0.000000 0.000000
0.000000 0.000000 0.000000
0.000000 0.000000 0.000000
0.000000 0.000000 0.000000
0.000000 0.000000 0.000000
0.000000 0.000000 0.000000
0.000000 0.000000 0.000000
0.000000 0.000000 0.000000
0.000000 0.000000 0.000000
0.000000 0.000000 0.000000
0.000000 0.000000 0.000000
0.000000 0.000000 0.000000
0.000000 0.000000 0.000000
0.000000 0.000000 0.000000
0.000000 0.000000 0.000000
0.000000 0.000000 0.000000
0.000000 0.000000 0.000000
0.000000 0.000000 0.000000
0.000000 0.000000 0.000000
0.000000 0.000000 0.000000
0.000000 0.000000 0.000000
0.000000 0.000000 0.000000
0.000000 0.000000 0.000000
0.000000 0.000000 0.000000
0.000000 0.000000 0.000000
0.000000 0.000000 0.000000
0.000000 0.000000 0.000000
0.000000 0.000000 0.000000
0.000000 0.000000 0.000000
0.000000 0.000000 0.000000
0.000000 0.000000 0.000000
0.000000 0.000000 0.000000
0.000000 0.000000 0.000000
0.000000 0.000000 0.000000
0.000000 0.000000 0.000000
0.000000 0.000000 0.000000
0.000000 0.000000 0.000000
0.000000 0.000000 0.000000
0.000000 0.000000 0.000000
0.000000 0.000000 0.000000
0.000000 0.000000 0.000000
0.000000 0.000000 0.000000
0.000000 0.000000 0.000000
0.000000 0.000000 0.000000
0.000000 0.000000 0.000000
0.000000 0.000000 0.000000
0.000000 0.000000 0.000000
0.000000 0.000000 0.000000
0.000000 0.000000 0.000000
0.000000 0.000000 0.000000
0.000000 0.000000 0.000000
0.000000 0.000000 0.000000
0.000000 0.000000 0.000000
0.000000 0.000000 0.000000
0.000000 0.000000 0.000000
0.000000 0.000000 0.000000
