total_Ti
1.0
5.745590 0.000000 0.000000
0.000000 9.072750 0.000000
0.000000 0.000000 29.625032
Ti
64
direct
0.041667 0.875000 0.315040 Ti
0.041667 0.375000 0.315040 Ti
0.541667 0.875000 0.315040 Ti
0.541667 0.375000 0.315040 Ti
0.291667 0.625000 0.500694 Ti
0.291667 0.125000 0.500694 Ti
0.791667 0.625000 0.500694 Ti
0.791667 0.125000 0.500694 Ti
0.291667 0.875000 0.229119 Ti
0.291667 0.375000 0.229119 Ti
0.791667 0.875000 0.229119 Ti
0.791667 0.375000 0.229119 Ti
0.041667 0.625000 0.257760 Ti
0.041667 0.125000 0.257760 Ti
0.541667 0.625000 0.257760 Ti
0.541667 0.125000 0.257760 Ti
0.041667 0.875000 0.143200 Ti
0.041667 0.375000 0.143200 Ti
0.541667 0.875000 0.143200 Ti
0.541667 0.375000 0.143200 Ti
0.291667 0.625000 0.171840 Ti
0.291667 0.125000 0.171840 Ti
0.791667 0.625000 0.171840 Ti
0.791667 0.125000 0.171840 Ti
0.291667 0.875000 0.057279 Ti
0.291667 0.375000 0.057279 Ti
0.791667 0.875000 0.057279 Ti
0.791667 0.375000 0.057279 Ti
0.041667 0.625000 0.085920 Ti
0.041667 0.125000 0.085920 Ti
0.541667 0.625000 0.085920 Ti
0.541667 0.125000 0.085920 Ti
0.458333 0.625000 0.590308 Ti
0.458333 0.125000 0.590308 Ti
0.958333 0.625000 0.590308 Ti
0.958333 0.125000 0.590308 Ti
0.125000 0.625000 0.679923 Ti
0.125000 0.125000 0.679923 Ti
0.625000 0.625000 0.679923 Ti
0.625000 0.125000 0.679923 Ti
0.291667 0.625000 0.769538 Ti
0.291667 0.125000 0.769538 Ti
0.791667 0.625000 0.769538 Ti
0.791667 0.125000 0.769538 Ti
0.125000 0.875000 0.545501 Ti
0.125000 0.375000 0.545501 Ti
0.625000 0.875000 0.545501 Ti
0.625000 0.375000 0.545501 Ti
0.291667 0.875000 0.635116 Ti
0.291667 0.375000 0.635116 Ti
0.791667 0.875000 0.635116 Ti
0.791667 0.375000 0.635116 Ti
0.458333 0.875000 0.724730 Ti
0.458333 0.375000 0.724731 Ti
0.958333 0.875000 0.724730 Ti
0.958333 0.375000 0.724731 Ti
0.125000 0.875000 0.814345 Ti
0.125000 0.375000 0.814345 Ti
0.625000 0.875000 0.814345 Ti
0.625000 0.375000 0.814345 Ti
0.791667 0.125000 0.000000 Ti
0.291667 0.125000 0.000000 Ti
0.791667 0.625000 -0.000000 Ti
0.291667 0.625000 -0.000000 Ti
