total_Ti
1.0
4.756512 0.000000 0.000000
0.000000 4.675432 0.000000
0.000000 0.000000 19.911800
Ti
24
direct
0.333333 0.750000 0.361826 Ti
0.333333 0.750000 0.217095 Ti
0.333333 0.750000 0.072365 Ti
0.833334 0.750000 0.289461 Ti
0.833334 0.750000 0.144730 Ti
0.833334 0.750000 -0.000000 Ti
0.166666 0.250000 0.289460 Ti
0.166666 0.250000 0.144730 Ti
0.166666 0.250000 -0.000000 Ti
0.666667 0.250000 0.361826 Ti
0.666667 0.250000 0.217095 Ti
0.666667 0.250000 0.072365 Ti
0.666667 0.750000 0.881982 Ti
0.166667 0.250000 0.881982 Ti
0.166667 0.750000 0.801555 Ti
0.666667 0.250000 0.801555 Ti
0.666667 0.750000 0.721128 Ti
0.166667 0.250000 0.721128 Ti
0.166667 0.750000 0.640701 Ti
0.666667 0.250000 0.640701 Ti
0.666667 0.750000 0.560273 Ti
0.166667 0.250000 0.560273 Ti
0.166667 0.750000 0.479846 Ti
0.666667 0.250000 0.479846 Ti
