alpha_Ti
1.0
4.756512 0.000000 0.000000
0.000000 4.675432 0.000000
0.000000 0.000000 20.911800
Ti
12
direct
0.333333 0.750000 0.344523 Ti
0.333333 0.750000 0.206714 Ti
0.333333 0.750000 0.068905 Ti
0.833334 0.750000 0.275619 Ti
0.833334 0.750000 0.137809 Ti
0.833334 0.750000 -0.000000 Ti
0.166666 0.250000 0.275618 Ti
0.166666 0.250000 0.137809 Ti
0.166666 0.250000 -0.000000 Ti
0.666667 0.250000 0.344523 Ti
0.666667 0.250000 0.206714 Ti
0.666667 0.250000 0.068905 Ti
