Ti66 Mo1
1.0
6.309760 0.000000 0.000000
0.000000 9.464640 0.000000
0.000000 0.000000 18.918326
Ti Mo
66 1
Selective dynamics
direct
0.126782 0.047270 0.447950 T T T Ti
0.628308 0.061238 0.481244 T T T Ti
0.125475 0.048290 0.655279 T T T Ti
0.625173 0.055640 0.643487 T T T Ti
0.125012 0.039291 0.817461 F F F Ti
0.625046 0.039246 0.817554 F F F Ti
0.631520 0.381453 0.487295 T T T Ti
0.125879 0.363829 0.654964 T T T Ti
0.626623 0.365560 0.643866 T T T Ti
0.125382 0.372967 0.817403 F F F Ti
0.625403 0.373170 0.817415 F F F Ti
0.125233 0.713806 0.487418 T T T Ti
0.621894 0.720616 0.499582 T T T Ti
0.125631 0.712642 0.642652 T T T Ti
0.624063 0.712839 0.647348 T T T Ti
0.125065 0.705899 0.817231 F F F Ti
0.624910 0.705927 0.817220 F F F Ti
0.350380 0.211625 0.554774 T T T Ti
0.900922 0.209901 0.555981 T T T Ti
0.375771 0.205824 0.738486 F F F Ti
0.875128 0.205712 0.738613 F F F Ti
0.375221 0.206619 0.896332 F F F Ti
0.875078 0.206620 0.896359 F F F Ti
0.359444 0.525063 0.564890 T T T Ti
0.890852 0.526954 0.565606 T T T Ti
0.374959 0.538129 0.738041 F F F Ti
0.875671 0.538326 0.738124 F F F Ti
0.375135 0.540063 0.896323 F F F Ti
0.875102 0.540090 0.896337 F F F Ti
0.356216 0.901462 0.561819 T T T Ti
0.894306 0.900259 0.561920 T T T Ti
0.374940 0.871465 0.738161 F F F Ti
0.875174 0.871330 0.738126 F F F Ti
0.375012 0.873271 0.896383 F F F Ti
0.874983 0.873245 0.896379 F F F Ti
0.125450 0.590874 0.369290 T T T Ti
0.623524 0.601861 0.373083 T T T Ti
0.125523 0.623623 0.118083 F F F Ti
0.625075 0.623829 0.117921 F F F Ti
0.629507 0.082626 0.355556 T T T Ti
0.126000 0.122699 0.118421 F F F Ti
0.625466 0.122761 0.118220 F F F Ti
0.125570 0.373463 0.038739 F F F Ti
0.625259 0.373567 0.038757 F F F Ti
0.125013 0.873795 0.039338 F F F Ti
0.624874 0.873778 0.039273 F F F Ti
0.126323 0.373772 0.275668 T T T Ti
0.624396 0.376229 0.277371 T T T Ti
0.125405 0.869222 0.283618 T T T Ti
0.624657 0.863967 0.271829 T T T Ti
0.375024 0.873236 0.158209 F F F Ti
0.875309 0.872928 0.158128 F F F Ti
0.374627 0.372266 0.156940 F F F Ti
0.876870 0.372499 0.156820 F F F Ti
0.390096 0.296382 0.387202 T T T Ti
0.849912 0.296812 0.383894 T T T Ti
0.397602 0.853828 0.396370 T T T Ti
0.853204 0.852320 0.396514 T T T Ti
0.370301 0.621813 0.247621 T T T Ti
0.879862 0.621892 0.247593 T T T Ti
0.375046 0.624082 -0.000415 F F F Ti
0.875203 0.624092 -0.000398 F F F Ti
0.381627 0.122853 0.246084 T T T Ti
0.871053 0.122520 0.245302 T T T Ti
0.375156 0.123335 -0.000275 F F F Ti
0.875288 0.123324 -0.000257 F F F Ti
0.105082 0.330139 0.453820 T T T Mo

0.000000 0.000000 0.000000
0.000000 0.000000 0.000000
0.000000 0.000000 0.000000
0.000000 0.000000 0.000000
0.000000 0.000000 0.000000
0.000000 0.000000 0.000000
0.000000 0.000000 0.000000
0.000000 0.000000 0.000000
0.000000 0.000000 0.000000
0.000000 0.000000 0.000000
0.000000 0.000000 0.000000
0.000000 0.000000 0.000000
0.000000 0.000000 0.000000
0.000000 0.000000 0.000000
0.000000 0.000000 0.000000
0.000000 0.000000 0.000000
0.000000 0.000000 0.000000
0.000000 0.000000 0.000000
0.000000 0.000000 0.000000
0.000000 0.000000 0.000000
0.000000 0.000000 0.000000
0.000000 0.000000 0.000000
0.000000 0.000000 0.000000
0.000000 0.000000 0.000000
0.000000 0.000000 0.000000
0.000000 0.000000 0.000000
0.000000 0.000000 0.000000
0.000000 0.000000 0.000000
0.000000 0.000000 0.000000
0.000000 0.000000 0.000000
0.000000 0.000000 0.000000
0.000000 0.000000 0.000000
0.000000 0.000000 0.000000
0.000000 0.000000 0.000000
0.000000 0.000000 0.000000
0.000000 0.000000 0.000000
0.000000 0.000000 0.000000
0.000000 0.000000 0.000000
0.000000 0.000000 0.000000
0.000000 0.000000 0.000000
0.000000 0.000000 0.000000
0.000000 0.000000 0.000000
0.000000 0.000000 0.000000
0.000000 0.000000 0.000000
0.000000 0.000000 0.000000
0.000000 0.000000 0.000000
0.000000 0.000000 0.000000
0.000000 0.000000 0.000000
0.000000 0.000000 0.000000
0.000000 0.000000 0.000000
0.000000 0.000000 0.000000
0.000000 0.000000 0.000000
0.000000 0.000000 0.000000
0.000000 0.000000 0.000000
0.000000 0.000000 0.000000
0.000000 0.000000 0.000000
0.000000 0.000000 0.000000
0.000000 0.000000 0.000000
0.000000 0.000000 0.000000
0.000000 0.000000 0.000000
0.000000 0.000000 0.000000
0.000000 0.000000 0.000000
0.000000 0.000000 0.000000
0.000000 0.000000 0.000000
0.000000 0.000000 0.000000
0.000000 0.000000 0.000000
0.000000 0.000000 0.000000
