Ti72
1.0
8.805261 0.000000 0.000000
-4.402630 7.625580 0.000000
0.000000 0.000000 25.288801
Ti
72
direct
0.222214 0.944436 0.490017 Ti
0.222214 0.444436 0.490017 Ti
0.722214 0.944436 0.490017 Ti
0.722214 0.444436 0.490017 Ti
0.388880 0.277769 0.745950 Ti
0.388880 0.777769 0.745950 Ti
0.888880 0.277769 0.745950 Ti
0.888880 0.777769 0.745950 Ti
0.555547 0.111102 0.782512 Ti
0.555547 0.611103 0.782512 Ti
0.055556 0.111102 0.782512 Ti
0.055556 0.611103 0.782512 Ti
0.388880 0.277769 0.526578 Ti
0.388880 0.777769 0.526578 Ti
0.888880 0.277769 0.526578 Ti
0.888880 0.777769 0.526578 Ti
0.555547 0.111102 0.563140 Ti
0.555547 0.611103 0.563140 Ti
0.055556 0.111102 0.563140 Ti
0.055556 0.611103 0.563140 Ti
0.222214 0.944436 0.599702 Ti
0.222214 0.444436 0.599702 Ti
0.722214 0.944436 0.599702 Ti
0.722214 0.444436 0.599702 Ti
0.388880 0.277769 0.636264 Ti
0.388880 0.777769 0.636264 Ti
0.888880 0.277769 0.636264 Ti
0.888880 0.777769 0.636264 Ti
0.555547 0.111102 0.672826 Ti
0.555547 0.611103 0.672826 Ti
0.055556 0.111102 0.672826 Ti
0.055556 0.611103 0.672826 Ti
0.222214 0.944436 0.709388 Ti
0.222214 0.444436 0.709388 Ti
0.722214 0.944436 0.709388 Ti
0.722214 0.444436 0.709388 Ti
0.166666 0.833342 -0.000000 Ti
0.166666 0.833342 0.181686 Ti
0.166666 0.500009 -0.000000 Ti
0.277778 0.722231 0.090843 Ti
0.166666 0.500009 0.181686 Ti
0.500000 0.833342 -0.000000 Ti
0.166666 0.166675 -0.000000 Ti
0.277778 0.722231 0.272529 Ti
0.277778 0.388897 0.090843 Ti
0.500000 0.833342 0.181686 Ti
0.166666 0.166675 0.181686 Ti
0.500000 0.500009 -0.000000 Ti
0.277778 0.388897 0.272529 Ti
0.611111 0.722231 0.090843 Ti
0.277778 0.055564 0.090843 Ti
0.500000 0.500009 0.181686 Ti
0.833333 0.833342 -0.000000 Ti
0.500000 0.166675 0.000000 Ti
0.611111 0.722231 0.272529 Ti
0.277778 0.055564 0.272529 Ti
0.611111 0.388897 0.090843 Ti
0.833333 0.833342 0.181686 Ti
0.500000 0.166675 0.181686 Ti
0.833333 0.500009 -0.000000 Ti
0.611111 0.388897 0.272529 Ti
0.944444 0.722231 0.090843 Ti
0.611111 0.055564 0.090843 Ti
0.833333 0.500009 0.181686 Ti
0.833333 0.166675 -0.000000 Ti
0.944444 0.722231 0.272529 Ti
0.611111 0.055564 0.272529 Ti
0.944444 0.388897 0.090843 Ti
0.833333 0.166675 0.181686 Ti
0.944444 0.388897 0.272529 Ti
0.944444 0.055564 0.090843 Ti
0.944444 0.055564 0.272529 Ti
