Ti97
1.0
9.513020 0.000000 0.000000
0.000000 9.350860 0.000000
0.000000 0.000000 18.547230
Ti
97
Selective dynamics
direct
0.148319 0.380173 0.405380 T T T Ti
0.656769 0.338491 0.415188 T T T Ti
0.133776 0.857809 0.411354 T T T Ti
0.667980 0.871400 0.406030 T T T Ti
0.150187 0.368095 0.239263 T T T Ti
0.657975 0.364513 0.233792 T T T Ti
0.164163 0.867323 0.233918 T T T Ti
0.670986 0.895411 0.235339 T T T Ti
0.166678 0.375085 0.077345 F F F Ti
0.666713 0.375009 0.077361 F F F Ti
0.166706 0.875029 0.077487 F F F Ti
0.666543 0.874886 0.077567 F F F Ti
0.406606 0.375713 0.324578 T T T Ti
0.896338 0.372878 0.324326 T T T Ti
0.355829 0.940517 0.335891 T T T Ti
0.913984 0.876848 0.315794 T T T Ti
0.416799 0.375127 0.154926 F F F Ti
0.916841 0.374785 0.154837 F F F Ti
0.416539 0.874977 0.155487 F F F Ti
0.916734 0.875010 0.154870 F F F Ti
0.416682 0.375059 -0.000151 F F F Ti
0.916643 0.375000 -0.000228 F F F Ti
0.416668 0.874956 0.000001 F F F Ti
0.916645 0.874969 -0.000176 F F F Ti
0.103662 0.127124 0.324324 T T T Ti
0.593394 0.124288 0.324577 T T T Ti
0.086016 0.623155 0.315793 T T T Ti
0.644171 0.559484 0.335890 T T T Ti
0.083157 0.125250 0.154834 F F F Ti
0.583200 0.124902 0.154927 F F F Ti
0.083266 0.625021 0.154870 F F F Ti
0.583463 0.625024 0.155487 F F F Ti
0.083358 0.125009 -0.000228 F F F Ti
0.583320 0.124957 -0.000149 F F F Ti
0.083357 0.625037 -0.000175 F F F Ti
0.583335 0.625038 0.000000 F F F Ti
0.343230 0.161509 0.415188 T T T Ti
0.851680 0.119828 0.405381 T T T Ti
0.332019 0.628600 0.406030 T T T Ti
0.866223 0.642191 0.411354 T T T Ti
0.342025 0.135492 0.233791 T T T Ti
0.849813 0.131911 0.239263 T T T Ti
0.329012 0.604594 0.235340 T T T Ti
0.835836 0.632684 0.233918 T T T Ti
0.333287 0.125014 0.077361 F F F Ti
0.833322 0.124939 0.077345 F F F Ti
0.333455 0.625128 0.077565 F F F Ti
0.833294 0.624989 0.077487 F F F Ti
0.375059 0.375098 0.823764 F F F Ti
0.874906 0.374949 0.823740 F F F Ti
0.375073 0.874984 0.823674 F F F Ti
0.874873 0.874958 0.823780 F F F Ti
0.125092 0.125030 0.823739 F F F Ti
0.624951 0.124899 0.823765 F F F Ti
0.125132 0.625028 0.823780 F F F Ti
0.624929 0.625000 0.823675 F F F Ti
0.125064 0.375090 0.910024 F F F Ti
0.624978 0.375109 0.910086 F F F Ti
0.125127 0.874956 0.910075 F F F Ti
0.624915 0.874882 0.910175 F F F Ti
0.375026 0.124881 0.910089 F F F Ti
0.874943 0.124905 0.910025 F F F Ti
0.375088 0.625092 0.910174 F F F Ti
0.874880 0.625026 0.910076 F F F Ti
0.396644 0.385378 0.654841 T T T Ti
0.897509 0.378466 0.652266 T T T Ti
0.398328 0.885443 0.648842 T T T Ti
0.891188 0.883703 0.658881 T T T Ti
0.102490 0.121529 0.652266 T T T Ti
0.603355 0.114616 0.654842 T T T Ti
0.108808 0.616290 0.658881 T T T Ti
0.601672 0.614553 0.648843 T T T Ti
0.153131 0.369197 0.572445 T T T Ti
0.647970 0.356115 0.574965 T T T Ti
0.144038 0.866993 0.579692 T T T Ti
0.654384 0.865468 0.572922 T T T Ti
0.352029 0.143883 0.574965 T T T Ti
0.846868 0.130801 0.572445 T T T Ti
0.345616 0.634530 0.572921 T T T Ti
0.855962 0.633005 0.579693 T T T Ti
0.406044 0.397306 0.491687 T T T Ti
0.903372 0.375453 0.489997 T T T Ti
0.377718 0.899121 0.490464 T T T Ti
0.906320 0.883690 0.496306 T T T Ti
0.096627 0.124547 0.489997 T T T Ti
0.593956 0.102694 0.491687 T T T Ti
0.093679 0.616309 0.496306 T T T Ti
0.622282 0.600879 0.490464 T T T Ti
0.125184 0.875268 0.737640 F F F Ti
0.624735 0.874803 0.737552 F F F Ti
0.375256 0.625174 0.737545 F F F Ti
0.874807 0.624703 0.737646 F F F Ti
0.124891 0.374867 0.737556 F F F Ti
0.625051 0.374876 0.737568 F F F Ti
0.374940 0.125103 0.737567 F F F Ti
0.875104 0.125114 0.737554 F F F Ti
0.500000 0.750001 0.336799 T T T Ti

0.000000 0.000000 0.000000
0.000000 0.000000 0.000000
0.000000 0.000000 0.000000
0.000000 0.000000 0.000000
0.000000 0.000000 0.000000
0.000000 0.000000 0.000000
0.000000 0.000000 0.000000
0.000000 0.000000 0.000000
0.000000 0.000000 0.000000
0.000000 0.000000 0.000000
0.000000 0.000000 0.000000
0.000000 0.000000 0.000000
0.000000 0.000000 0.000000
0.000000 0.000000 0.000000
0.000000 0.000000 0.000000
0.000000 0.000000 0.000000
0.000000 0.000000 0.000000
0.000000 0.000000 0.000000
0.000000 0.000000 0.000000
0.000000 0.000000 0.000000
0.000000 0.000000 0.000000
0.000000 0.000000 0.000000
0.000000 0.000000 0.000000
0.000000 0.000000 0.000000
0.000000 0.000000 0.000000
0.000000 0.000000 0.000000
0.000000 0.000000 0.000000
0.000000 0.000000 0.000000
0.000000 0.000000 0.000000
0.000000 0.000000 0.000000
0.000000 0.000000 0.000000
0.000000 0.000000 0.000000
0.000000 0.000000 0.000000
0.000000 0.000000 0.000000
0.000000 0.000000 0.000000
0.000000 0.000000 0.000000
0.000000 0.000000 0.000000
0.000000 0.000000 0.000000
0.000000 0.000000 0.000000
0.000000 0.000000 0.000000
0.000000 0.000000 0.000000
0.000000 0.000000 0.000000
0.000000 0.000000 0.000000
0.000000 0.000000 0.000000
0.000000 0.000000 0.000000
0.000000 0.000000 0.000000
0.000000 0.000000 0.000000
0.000000 0.000000 0.000000
0.000000 0.000000 0.000000
0.000000 0.000000 0.000000
0.000000 0.000000 0.000000
0.000000 0.000000 0.000000
0.000000 0.000000 0.000000
0.000000 0.000000 0.000000
0.000000 0.000000 0.000000
0.000000 0.000000 0.000000
0.000000 0.000000 0.000000
0.000000 0.000000 0.000000
0.000000 0.000000 0.000000
0.000000 0.000000 0.000000
0.000000 0.000000 0.000000
0.000000 0.000000 0.000000
0.000000 0.000000 0.000000
0.000000 0.000000 0.000000
0.000000 0.000000 0.000000
0.000000 0.000000 0.000000
0.000000 0.000000 0.000000
0.000000 0.000000 0.000000
0.000000 0.000000 0.000000
0.000000 0.000000 0.000000
0.000000 0.000000 0.000000
0.000000 0.000000 0.000000
0.000000 0.000000 0.000000
0.000000 0.000000 0.000000
0.000000 0.000000 0.000000
0.000000 0.000000 0.000000
0.000000 0.000000 0.000000
0.000000 0.000000 0.000000
0.000000 0.000000 0.000000
0.000000 0.000000 0.000000
0.000000 0.000000 0.000000
0.000000 0.000000 0.000000
0.000000 0.000000 0.000000
0.000000 0.000000 0.000000
0.000000 0.000000 0.000000
0.000000 0.000000 0.000000
0.000000 0.000000 0.000000
0.000000 0.000000 0.000000
0.000000 0.000000 0.000000
0.000000 0.000000 0.000000
0.000000 0.000000 0.000000
0.000000 0.000000 0.000000
0.000000 0.000000 0.000000
0.000000 0.000000 0.000000
0.000000 0.000000 0.000000
0.000000 0.000000 0.000000
0.000000 0.000000 0.000000
