total_Ti
1.0
6.309760 0.000000 0.000000
0.000000 9.464640 0.000000
0.000000 0.000000 19.200004
Ti
68
direct
0.125000 0.041667 0.500000 Ti
0.625000 0.041667 0.500000 Ti
0.125000 0.041667 0.656250 Ti
0.625000 0.041667 0.656250 Ti
0.125000 0.041667 0.812500 Ti
0.625000 0.041667 0.812500 Ti
0.125000 0.375000 0.500000 Ti
0.625000 0.375000 0.500000 Ti
0.125000 0.375000 0.656250 Ti
0.625000 0.375000 0.656250 Ti
0.125000 0.375000 0.812500 Ti
0.625000 0.375000 0.812500 Ti
0.125000 0.708333 0.500000 Ti
0.625000 0.708333 0.500000 Ti
0.125000 0.708333 0.656250 Ti
0.625000 0.708333 0.656250 Ti
0.125000 0.708333 0.812500 Ti
0.625000 0.708333 0.812500 Ti
0.375000 0.208333 0.578125 Ti
0.875000 0.208333 0.578125 Ti
0.375000 0.208333 0.734375 Ti
0.875000 0.208333 0.734375 Ti
0.375000 0.208333 0.890625 Ti
0.875000 0.208333 0.890625 Ti
0.375000 0.541667 0.578125 Ti
0.875000 0.541667 0.578125 Ti
0.375000 0.541667 0.734375 Ti
0.875000 0.541667 0.734375 Ti
0.375000 0.541667 0.890625 Ti
0.875000 0.541667 0.890625 Ti
0.375000 0.875000 0.578125 Ti
0.875000 0.875000 0.578125 Ti
0.375000 0.875000 0.734375 Ti
0.875000 0.875000 0.734375 Ti
0.375000 0.875000 0.890625 Ti
0.875000 0.875000 0.890625 Ti
0.125000 0.625000 0.351562 Ti
0.625000 0.625000 0.351562 Ti
0.125000 0.625000 0.117187 Ti
0.625000 0.625000 0.117187 Ti
0.125000 0.125000 0.351562 Ti
0.625000 0.125000 0.351562 Ti
0.125000 0.125000 0.117187 Ti
0.625000 0.125000 0.117187 Ti
0.125000 0.375000 0.039062 Ti
0.625000 0.375000 0.039062 Ti
0.125000 0.875000 0.039062 Ti
0.625000 0.875000 0.039062 Ti
0.125000 0.375000 0.273438 Ti
0.625000 0.375000 0.273438 Ti
0.125000 0.875000 0.273438 Ti
0.625000 0.875000 0.273438 Ti
0.375000 0.875000 0.156250 Ti
0.875000 0.875000 0.156250 Ti
0.374999 0.375000 0.156250 Ti
0.874999 0.375000 0.156250 Ti
0.375000 0.375000 0.390625 Ti
0.875000 0.375000 0.390625 Ti
0.375000 0.875000 0.390625 Ti
0.875000 0.875000 0.390625 Ti
0.375000 0.625000 0.234375 Ti
0.875000 0.625000 0.234375 Ti
0.375000 0.625000 -0.000000 Ti
0.875000 0.625000 -0.000000 Ti
0.375000 0.125000 0.234375 Ti
0.875000 0.125000 0.234375 Ti
0.375000 0.125000 -0.000000 Ti
0.875000 0.125000 -0.000000 Ti
