Ti66 Al1
1.0
6.309760 0.000000 0.000000
0.000000 9.464640 0.000000
0.000000 0.000000 18.918326
Ti Al
66 1
Selective dynamics
direct
0.126574 0.032059 0.506180 F F F Ti
0.628572 0.041839 0.500690 F F F Ti
0.125423 0.040922 0.659854 F F F Ti
0.625097 0.041430 0.659402 F F F Ti
0.125072 0.041569 0.817618 F F F Ti
0.624969 0.041635 0.817599 F F F Ti
0.626624 0.375260 0.501179 F F F Ti
0.125202 0.374712 0.658838 F F F Ti
0.625218 0.374982 0.659068 F F F Ti
0.125089 0.374898 0.817422 F F F Ti
0.625069 0.374941 0.817471 F F F Ti
0.125267 0.709232 0.500258 F F F Ti
0.623441 0.709286 0.500446 F F F Ti
0.125259 0.707682 0.659126 F F F Ti
0.624593 0.707279 0.659351 F F F Ti
0.125033 0.708091 0.817524 F F F Ti
0.624933 0.708019 0.817582 F F F Ti
0.376298 0.207878 0.580023 F F F Ti
0.874864 0.207964 0.580489 F F F Ti
0.375250 0.208285 0.738329 F F F Ti
0.875031 0.208252 0.738399 F F F Ti
0.375028 0.208379 0.896623 F F F Ti
0.875063 0.208368 0.896634 F F F Ti
0.374773 0.541175 0.579524 F F F Ti
0.875276 0.541737 0.579691 F F F Ti
0.374950 0.541188 0.738255 F F F Ti
0.875241 0.541255 0.738283 F F F Ti
0.374987 0.541491 0.896599 F F F Ti
0.875074 0.541504 0.896596 F F F Ti
0.378399 0.873198 0.580812 F F F Ti
0.872450 0.872698 0.580971 F F F Ti
0.375428 0.874493 0.738593 F F F Ti
0.874705 0.874449 0.738598 F F F Ti
0.375060 0.875047 0.896679 F F F Ti
0.874966 0.875049 0.896676 F F F Ti
0.126441 0.628628 0.356408 F F F Ti
0.624135 0.630462 0.355915 F F F Ti
0.125350 0.626087 0.118708 F F F Ti
0.625153 0.626048 0.118652 F F F Ti
0.632414 0.127638 0.357186 F F F Ti
0.125680 0.125917 0.119149 F F F Ti
0.624957 0.125850 0.119085 F F F Ti
0.125298 0.375403 0.039610 F F F Ti
0.625066 0.375372 0.039596 F F F Ti
0.125169 0.875651 0.039693 F F F Ti
0.624995 0.875661 0.039690 F F F Ti
0.125487 0.379865 0.277030 F F F Ti
0.625935 0.377203 0.276512 F F F Ti
0.125372 0.877209 0.277724 F F F Ti
0.625712 0.877970 0.277387 F F F Ti
0.375155 0.876544 0.158654 F F F Ti
0.875429 0.876341 0.158493 F F F Ti
0.375154 0.376067 0.158449 F F F Ti
0.875503 0.376273 0.158206 F F F Ti
0.386612 0.384778 0.396167 F F F Ti
0.859518 0.391050 0.395912 F F F Ti
0.377022 0.876281 0.396919 F F F Ti
0.873744 0.873523 0.397015 F F F Ti
0.375765 0.627380 0.237376 F F F Ti
0.875114 0.627535 0.237335 F F F Ti
0.375076 0.625395 0.000010 F F F Ti
0.875089 0.625412 0.000005 F F F Ti
0.375217 0.127120 0.238587 F F F Ti
0.875676 0.126981 0.237615 F F F Ti
0.375112 0.125309 0.000187 F F F Ti
0.875184 0.125313 0.000206 F F F Ti
0.103186 0.179734 0.398875 T T T Al

0.000000 0.000000 0.000000
0.000000 0.000000 0.000000
0.000000 0.000000 0.000000
0.000000 0.000000 0.000000
0.000000 0.000000 0.000000
0.000000 0.000000 0.000000
0.000000 0.000000 0.000000
0.000000 0.000000 0.000000
0.000000 0.000000 0.000000
0.000000 0.000000 0.000000
0.000000 0.000000 0.000000
0.000000 0.000000 0.000000
0.000000 0.000000 0.000000
0.000000 0.000000 0.000000
0.000000 0.000000 0.000000
0.000000 0.000000 0.000000
0.000000 0.000000 0.000000
0.000000 0.000000 0.000000
0.000000 0.000000 0.000000
0.000000 0.000000 0.000000
0.000000 0.000000 0.000000
0.000000 0.000000 0.000000
0.000000 0.000000 0.000000
0.000000 0.000000 0.000000
0.000000 0.000000 0.000000
0.000000 0.000000 0.000000
0.000000 0.000000 0.000000
0.000000 0.000000 0.000000
0.000000 0.000000 0.000000
0.000000 0.000000 0.000000
0.000000 0.000000 0.000000
0.000000 0.000000 0.000000
0.000000 0.000000 0.000000
0.000000 0.000000 0.000000
0.000000 0.000000 0.000000
0.000000 0.000000 0.000000
0.000000 0.000000 0.000000
0.000000 0.000000 0.000000
0.000000 0.000000 0.000000
0.000000 0.000000 0.000000
0.000000 0.000000 0.000000
0.000000 0.000000 0.000000
0.000000 0.000000 0.000000
0.000000 0.000000 0.000000
0.000000 0.000000 0.000000
0.000000 0.000000 0.000000
0.000000 0.000000 0.000000
0.000000 0.000000 0.000000
0.000000 0.000000 0.000000
0.000000 0.000000 0.000000
0.000000 0.000000 0.000000
0.000000 0.000000 0.000000
0.000000 0.000000 0.000000
0.000000 0.000000 0.000000
0.000000 0.000000 0.000000
0.000000 0.000000 0.000000
0.000000 0.000000 0.000000
0.000000 0.000000 0.000000
0.000000 0.000000 0.000000
0.000000 0.000000 0.000000
0.000000 0.000000 0.000000
0.000000 0.000000 0.000000
0.000000 0.000000 0.000000
0.000000 0.000000 0.000000
0.000000 0.000000 0.000000
0.000000 0.000000 0.000000
0.000000 0.000000 0.000000
