Ti82 Nb1
1.0
6.391540 0.000000 0.000000
0.000000 9.587310 0.000000
0.000000 0.000000 23.271695
Ti Nb
82 1
Selective dynamics
direct
0.627499 0.082857 0.580481 F F F Ti
0.124537 0.083055 0.709875 F F F Ti
0.625047 0.083242 0.709553 F F F Ti
0.124986 0.083327 0.838449 F F F Ti
0.624967 0.083331 0.838426 F F F Ti
0.124239 0.418131 0.580469 F F F Ti
0.625043 0.416801 0.580532 F F F Ti
0.124936 0.416739 0.709522 F F F Ti
0.624775 0.416754 0.709529 F F F Ti
0.125004 0.416673 0.838416 F F F Ti
0.624969 0.416679 0.838418 F F F Ti
0.125016 0.750055 0.580576 F F F Ti
0.625170 0.749856 0.580542 F F F Ti
0.124946 0.749893 0.709540 F F F Ti
0.625156 0.749844 0.709560 F F F Ti
0.124992 0.749973 0.838426 F F F Ti
0.624992 0.749968 0.838431 F F F Ti
0.873141 0.250652 0.645302 F F F Ti
0.374984 0.250006 0.773971 F F F Ti
0.874865 0.250064 0.774012 F F F Ti
0.374998 0.250005 0.902867 F F F Ti
0.874984 0.250008 0.902872 F F F Ti
0.375036 0.583365 0.645047 F F F Ti
0.874855 0.583474 0.645074 F F F Ti
0.374976 0.583321 0.773971 F F F Ti
0.874993 0.583318 0.773979 F F F Ti
0.374994 0.583326 0.902867 F F F Ti
0.874998 0.583324 0.902869 F F F Ti
0.376051 0.915559 0.645288 F F F Ti
0.874943 0.916467 0.645122 F F F Ti
0.375074 0.916577 0.774011 F F F Ti
0.874877 0.916572 0.774005 F F F Ti
0.375002 0.916655 0.902872 F F F Ti
0.874982 0.916656 0.902871 F F F Ti
0.124993 0.166686 0.386692 F F F Ti
0.625145 0.166703 0.386677 F F F Ti
0.125013 0.666748 0.386744 F F F Ti
0.624975 0.666709 0.386728 F F F Ti
0.124999 0.166668 0.000009 F F F Ti
0.624995 0.166667 0.000009 F F F Ti
0.124998 0.666670 0.000006 F F F Ti
0.624992 0.666669 0.000007 F F F Ti
0.125001 0.833335 0.096691 F F F Ti
0.624995 0.833335 0.096690 F F F Ti
0.125050 0.833377 0.483417 F F F Ti
0.625148 0.833260 0.483391 F F F Ti
0.125001 0.333332 0.096691 F F F Ti
0.624994 0.333333 0.096690 F F F Ti
0.124877 0.333742 0.483244 F F F Ti
0.625266 0.333437 0.483362 F F F Ti
0.375087 0.583451 0.483382 F F F Ti
0.874908 0.583463 0.483376 F F F Ti
0.374998 0.583329 0.096690 F F F Ti
0.875005 0.583330 0.096690 F F F Ti
0.374997 0.083334 0.096692 F F F Ti
0.875005 0.083334 0.096691 F F F Ti
0.375889 0.083191 0.483067 F F F Ti
0.875145 0.083369 0.483348 F F F Ti
0.375055 0.416716 0.386698 F F F Ti
0.874961 0.416725 0.386695 F F F Ti
0.375028 0.916618 0.386688 F F F Ti
0.875008 0.916670 0.386722 F F F Ti
0.374996 0.416669 0.000008 F F F Ti
0.874997 0.416670 0.000009 F F F Ti
0.374998 0.916666 0.000012 F F F Ti
0.874995 0.916665 0.000011 F F F Ti
0.375007 0.083335 0.290034 F F F Ti
0.875000 0.083330 0.290038 F F F Ti
0.124997 0.166668 0.193365 F F F Ti
0.625002 0.166668 0.193363 F F F Ti
0.124998 0.333346 0.290038 F F F Ti
0.625006 0.333347 0.290033 F F F Ti
0.374998 0.416672 0.193364 F F F Ti
0.874997 0.416672 0.193364 F F F Ti
0.375000 0.583346 0.290042 F F F Ti
0.875005 0.583349 0.290042 F F F Ti
0.124999 0.666671 0.193369 F F F Ti
0.624996 0.666669 0.193367 F F F Ti
0.124991 0.833332 0.290043 F F F Ti
0.625014 0.833328 0.290039 F F F Ti
0.374998 0.916664 0.193365 F F F Ti
0.874997 0.916665 0.193365 F F F Ti
0.217143 0.143885 0.595033 T T T Nb

0.000000 0.000000 0.000000
0.000000 0.000000 0.000000
0.000000 0.000000 0.000000
0.000000 0.000000 0.000000
0.000000 0.000000 0.000000
0.000000 0.000000 0.000000
0.000000 0.000000 0.000000
0.000000 0.000000 0.000000
0.000000 0.000000 0.000000
0.000000 0.000000 0.000000
0.000000 0.000000 0.000000
0.000000 0.000000 0.000000
0.000000 0.000000 0.000000
0.000000 0.000000 0.000000
0.000000 0.000000 0.000000
0.000000 0.000000 0.000000
0.000000 0.000000 0.000000
0.000000 0.000000 0.000000
0.000000 0.000000 0.000000
0.000000 0.000000 0.000000
0.000000 0.000000 0.000000
0.000000 0.000000 0.000000
0.000000 0.000000 0.000000
0.000000 0.000000 0.000000
0.000000 0.000000 0.000000
0.000000 0.000000 0.000000
0.000000 0.000000 0.000000
0.000000 0.000000 0.000000
0.000000 0.000000 0.000000
0.000000 0.000000 0.000000
0.000000 0.000000 0.000000
0.000000 0.000000 0.000000
0.000000 0.000000 0.000000
0.000000 0.000000 0.000000
0.000000 0.000000 0.000000
0.000000 0.000000 0.000000
0.000000 0.000000 0.000000
0.000000 0.000000 0.000000
0.000000 0.000000 0.000000
0.000000 0.000000 0.000000
0.000000 0.000000 0.000000
0.000000 0.000000 0.000000
0.000000 0.000000 0.000000
0.000000 0.000000 0.000000
0.000000 0.000000 0.000000
0.000000 0.000000 0.000000
0.000000 0.000000 0.000000
0.000000 0.000000 0.000000
0.000000 0.000000 0.000000
0.000000 0.000000 0.000000
0.000000 0.000000 0.000000
0.000000 0.000000 0.000000
0.000000 0.000000 0.000000
0.000000 0.000000 0.000000
0.000000 0.000000 0.000000
0.000000 0.000000 0.000000
0.000000 0.000000 0.000000
0.000000 0.000000 0.000000
0.000000 0.000000 0.000000
0.000000 0.000000 0.000000
0.000000 0.000000 0.000000
0.000000 0.000000 0.000000
0.000000 0.000000 0.000000
0.000000 0.000000 0.000000
0.000000 0.000000 0.000000
0.000000 0.000000 0.000000
0.000000 0.000000 0.000000
0.000000 0.000000 0.000000
0.000000 0.000000 0.000000
0.000000 0.000000 0.000000
0.000000 0.000000 0.000000
0.000000 0.000000 0.000000
0.000000 0.000000 0.000000
0.000000 0.000000 0.000000
0.000000 0.000000 0.000000
0.000000 0.000000 0.000000
0.000000 0.000000 0.000000
0.000000 0.000000 0.000000
0.000000 0.000000 0.000000
0.000000 0.000000 0.000000
0.000000 0.000000 0.000000
0.000000 0.000000 0.000000
0.000000 0.000000 0.000000
