Ti97
1.0
9.513020 0.000000 0.000000
0.000000 9.350860 0.000000
0.000000 0.000000 18.547230
Ti
97
Selective dynamics
direct
0.144975 0.376700 0.404505 T T T Ti
0.650507 0.363104 0.403947 T T T Ti
0.166957 0.882588 0.401532 T T T Ti
0.624684 0.937910 0.407701 T T T Ti
0.160752 0.377348 0.236275 T T T Ti
0.659300 0.376321 0.233869 T T T Ti
0.161367 0.876425 0.236737 T T T Ti
0.654869 0.882967 0.232426 T T T Ti
0.166643 0.374992 0.077478 F F F Ti
0.666701 0.375027 0.077508 F F F Ti
0.166705 0.874981 0.077534 F F F Ti
0.666692 0.874946 0.077707 F F F Ti
0.399523 0.368557 0.320459 T T T Ti
0.908160 0.364539 0.313185 T T T Ti
0.412672 0.866901 0.318727 T T T Ti
0.918872 0.890829 0.324913 T T T Ti
0.416631 0.375024 0.155047 F F F Ti
0.916779 0.374891 0.155057 F F F Ti
0.416909 0.875023 0.155254 F F F Ti
0.916637 0.874862 0.155278 F F F Ti
0.416693 0.375020 -0.000092 F F F Ti
0.916633 0.375016 -0.000073 F F F Ti
0.416759 0.874981 -0.000019 F F F Ti
0.916615 0.874957 -0.000006 F F F Ti
0.100477 0.131444 0.320458 T T T Ti
0.591840 0.135462 0.313183 T T T Ti
0.087328 0.633100 0.318726 T T T Ti
0.581128 0.609172 0.324912 T T T Ti
0.083374 0.124996 0.155047 F F F Ti
0.583216 0.125127 0.155055 F F F Ti
0.083093 0.624987 0.155255 F F F Ti
0.583362 0.625149 0.155277 F F F Ti
0.083311 0.124989 -0.000092 F F F Ti
0.583363 0.124993 -0.000072 F F F Ti
0.083244 0.625020 -0.000019 F F F Ti
0.583384 0.625046 -0.000007 F F F Ti
0.355024 0.123300 0.404505 T T T Ti
0.849492 0.136896 0.403947 T T T Ti
0.333042 0.617412 0.401533 T T T Ti
0.875315 0.562090 0.407701 T T T Ti
0.339247 0.122655 0.236275 T T T Ti
0.840699 0.123682 0.233868 T T T Ti
0.338632 0.623578 0.236737 T T T Ti
0.845130 0.617037 0.232427 T T T Ti
0.333356 0.125022 0.077478 F F F Ti
0.833299 0.124986 0.077508 F F F Ti
0.333293 0.625032 0.077534 F F F Ti
0.833308 0.625061 0.077707 F F F Ti
0.374976 0.375010 0.823894 F F F Ti
0.875005 0.374977 0.823849 F F F Ti
0.375056 0.874990 0.823873 F F F Ti
0.874971 0.874952 0.823775 F F F Ti
0.125029 0.124982 0.823894 F F F Ti
0.625001 0.125019 0.823850 F F F Ti
0.124950 0.624999 0.823874 F F F Ti
0.625036 0.625044 0.823777 F F F Ti
0.124896 0.375063 0.910075 F F F Ti
0.625063 0.375099 0.910047 F F F Ti
0.124863 0.874937 0.910068 F F F Ti
0.625080 0.874928 0.910029 F F F Ti
0.375109 0.124938 0.910076 F F F Ti
0.874941 0.124901 0.910048 F F F Ti
0.375141 0.625057 0.910068 F F F Ti
0.874924 0.625071 0.910028 F F F Ti
0.395723 0.365531 0.647914 T T T Ti
0.893280 0.363947 0.660667 T T T Ti
0.384632 0.863815 0.662209 T T T Ti
0.890077 0.864058 0.655381 T T T Ti
0.104275 0.134464 0.647914 T T T Ti
0.606718 0.136048 0.660667 T T T Ti
0.115366 0.636178 0.662209 T T T Ti
0.609921 0.635937 0.655381 T T T Ti
0.148092 0.390834 0.573101 T T T Ti
0.654684 0.387000 0.577045 T T T Ti
0.147939 0.880220 0.575143 T T T Ti
0.630145 0.892437 0.580587 T T T Ti
0.351907 0.109164 0.573101 T T T Ti
0.845316 0.112998 0.577045 T T T Ti
0.352061 0.619778 0.575143 T T T Ti
0.869854 0.607561 0.580587 T T T Ti
0.391467 0.367376 0.490141 T T T Ti
0.905429 0.353013 0.497997 T T T Ti
0.400080 0.856150 0.488377 T T T Ti
0.919397 0.893879 0.483705 T T T Ti
0.108533 0.132623 0.490141 T T T Ti
0.594571 0.146987 0.497997 T T T Ti
0.099920 0.643850 0.488377 T T T Ti
0.580603 0.606120 0.483705 T T T Ti
0.125090 0.874950 0.737692 F F F Ti
0.625010 0.875091 0.737534 F F F Ti
0.374898 0.625023 0.737692 F F F Ti
0.874985 0.624893 0.737536 F F F Ti
0.125041 0.374913 0.737682 F F F Ti
0.624978 0.374977 0.737666 F F F Ti
0.374948 0.125065 0.737681 F F F Ti
0.875013 0.125001 0.737666 F F F Ti
0.750000 0.750000 0.411867 T T T Ti

0.000000 0.000000 0.000000
0.000000 0.000000 0.000000
0.000000 0.000000 0.000000
0.000000 0.000000 0.000000
0.000000 0.000000 0.000000
0.000000 0.000000 0.000000
0.000000 0.000000 0.000000
0.000000 0.000000 0.000000
0.000000 0.000000 0.000000
0.000000 0.000000 0.000000
0.000000 0.000000 0.000000
0.000000 0.000000 0.000000
0.000000 0.000000 0.000000
0.000000 0.000000 0.000000
0.000000 0.000000 0.000000
0.000000 0.000000 0.000000
0.000000 0.000000 0.000000
0.000000 0.000000 0.000000
0.000000 0.000000 0.000000
0.000000 0.000000 0.000000
0.000000 0.000000 0.000000
0.000000 0.000000 0.000000
0.000000 0.000000 0.000000
0.000000 0.000000 0.000000
0.000000 0.000000 0.000000
0.000000 0.000000 0.000000
0.000000 0.000000 0.000000
0.000000 0.000000 0.000000
0.000000 0.000000 0.000000
0.000000 0.000000 0.000000
0.000000 0.000000 0.000000
0.000000 0.000000 0.000000
0.000000 0.000000 0.000000
0.000000 0.000000 0.000000
0.000000 0.000000 0.000000
0.000000 0.000000 0.000000
0.000000 0.000000 0.000000
0.000000 0.000000 0.000000
0.000000 0.000000 0.000000
0.000000 0.000000 0.000000
0.000000 0.000000 0.000000
0.000000 0.000000 0.000000
0.000000 0.000000 0.000000
0.000000 0.000000 0.000000
0.000000 0.000000 0.000000
0.000000 0.000000 0.000000
0.000000 0.000000 0.000000
0.000000 0.000000 0.000000
0.000000 0.000000 0.000000
0.000000 0.000000 0.000000
0.000000 0.000000 0.000000
0.000000 0.000000 0.000000
0.000000 0.000000 0.000000
0.000000 0.000000 0.000000
0.000000 0.000000 0.000000
0.000000 0.000000 0.000000
0.000000 0.000000 0.000000
0.000000 0.000000 0.000000
0.000000 0.000000 0.000000
0.000000 0.000000 0.000000
0.000000 0.000000 0.000000
0.000000 0.000000 0.000000
0.000000 0.000000 0.000000
0.000000 0.000000 0.000000
0.000000 0.000000 0.000000
0.000000 0.000000 0.000000
0.000000 0.000000 0.000000
0.000000 0.000000 0.000000
0.000000 0.000000 0.000000
0.000000 0.000000 0.000000
0.000000 0.000000 0.000000
0.000000 0.000000 0.000000
0.000000 0.000000 0.000000
0.000000 0.000000 0.000000
0.000000 0.000000 0.000000
0.000000 0.000000 0.000000
0.000000 0.000000 0.000000
0.000000 0.000000 0.000000
0.000000 0.000000 0.000000
0.000000 0.000000 0.000000
0.000000 0.000000 0.000000
0.000000 0.000000 0.000000
0.000000 0.000000 0.000000
0.000000 0.000000 0.000000
0.000000 0.000000 0.000000
0.000000 0.000000 0.000000
0.000000 0.000000 0.000000
0.000000 0.000000 0.000000
0.000000 0.000000 0.000000
0.000000 0.000000 0.000000
0.000000 0.000000 0.000000
0.000000 0.000000 0.000000
0.000000 0.000000 0.000000
0.000000 0.000000 0.000000
0.000000 0.000000 0.000000
0.000000 0.000000 0.000000
0.000000 0.000000 0.000000
