Ti82 Al1
1.0
6.391540 0.000000 0.000000
0.000000 9.587310 0.000000
0.000000 0.000000 23.271695
Ti Al
82 1
Selective dynamics
direct
0.637227 0.080078 0.579862 F F F Ti
0.121434 0.081395 0.711157 F F F Ti
0.625149 0.082537 0.709845 F F F Ti
0.124771 0.083235 0.838693 F F F Ti
0.624618 0.083280 0.838599 F F F Ti
0.119319 0.423368 0.579845 F F F Ti
0.625968 0.417896 0.580229 F F F Ti
0.124045 0.416900 0.709639 F F F Ti
0.623569 0.416961 0.709694 F F F Ti
0.124938 0.416579 0.838519 F F F Ti
0.624634 0.416633 0.838544 F F F Ti
0.124953 0.750617 0.580585 F F F Ti
0.625664 0.749336 0.580407 F F F Ti
0.124734 0.749425 0.709795 F F F Ti
0.625455 0.749210 0.709884 F F F Ti
0.124908 0.749770 0.838619 F F F Ti
0.624799 0.749703 0.838663 F F F Ti
0.866845 0.252079 0.645850 F F F Ti
0.374473 0.249790 0.774034 F F F Ti
0.873971 0.250230 0.774281 F F F Ti
0.374901 0.249983 0.902955 F F F Ti
0.874831 0.250012 0.902986 F F F Ti
0.374850 0.583546 0.645091 F F F Ti
0.873954 0.584134 0.645335 F F F Ti
0.374669 0.583159 0.774132 F F F Ti
0.874811 0.583116 0.774205 F F F Ti
0.374882 0.583213 0.902981 F F F Ti
0.874956 0.583196 0.902992 F F F Ti
0.378531 0.912473 0.645791 F F F Ti
0.875186 0.915660 0.645471 F F F Ti
0.375201 0.916111 0.774299 F F F Ti
0.874087 0.915961 0.774375 F F F Ti
0.374934 0.916559 0.903002 F F F Ti
0.874822 0.916562 0.903007 F F F Ti
0.125226 0.166745 0.386566 F F F Ti
0.625581 0.166741 0.386484 F F F Ti
0.125118 0.666674 0.386680 F F F Ti
0.624917 0.666643 0.386588 F F F Ti
0.124973 0.166650 0.000054 F F F Ti
0.624938 0.166650 0.000057 F F F Ti
0.124975 0.666619 0.000051 F F F Ti
0.624937 0.666616 0.000057 F F F Ti
0.124990 0.833327 0.096691 F F F Ti
0.624970 0.833327 0.096692 F F F Ti
0.125375 0.833701 0.483393 F F F Ti
0.625606 0.833107 0.483212 F F F Ti
0.124991 0.333325 0.096682 F F F Ti
0.624964 0.333328 0.096682 F F F Ti
0.124652 0.334516 0.482897 F F F Ti
0.626286 0.333710 0.483067 F F F Ti
0.375372 0.583933 0.483162 F F F Ti
0.874556 0.584101 0.483071 F F F Ti
0.375000 0.583314 0.096686 F F F Ti
0.875023 0.583318 0.096687 F F F Ti
0.374981 0.083336 0.096686 F F F Ti
0.875008 0.083336 0.096685 F F F Ti
0.377624 0.083038 0.482638 F F F Ti
0.876515 0.083545 0.483023 F F F Ti
0.375240 0.416772 0.386553 F F F Ti
0.874941 0.416858 0.386499 F F F Ti
0.375123 0.916541 0.386561 F F F Ti
0.875176 0.916636 0.386623 F F F Ti
0.374944 0.416646 0.000053 F F F Ti
0.874954 0.416651 0.000062 F F F Ti
0.374954 0.916634 0.000083 F F F Ti
0.874945 0.916633 0.000085 F F F Ti
0.375031 0.083329 0.289964 F F F Ti
0.875052 0.083312 0.289962 F F F Ti
0.124988 0.166659 0.193335 F F F Ti
0.624996 0.166653 0.193325 F F F Ti
0.125006 0.333360 0.289962 F F F Ti
0.625018 0.333367 0.289929 F F F Ti
0.374970 0.416673 0.193325 F F F Ti
0.874984 0.416675 0.193323 F F F Ti
0.375005 0.583374 0.289962 F F F Ti
0.875052 0.583397 0.289952 F F F Ti
0.124994 0.666657 0.193343 F F F Ti
0.624975 0.666653 0.193335 F F F Ti
0.124985 0.833327 0.289991 F F F Ti
0.625055 0.833325 0.289965 F F F Ti
0.374971 0.916650 0.193338 F F F Ti
0.874987 0.916648 0.193336 F F F Ti
0.255010 0.170861 0.608927 T T T Al

0.000000 0.000000 0.000000
0.000000 0.000000 0.000000
0.000000 0.000000 0.000000
0.000000 0.000000 0.000000
0.000000 0.000000 0.000000
0.000000 0.000000 0.000000
0.000000 0.000000 0.000000
0.000000 0.000000 0.000000
0.000000 0.000000 0.000000
0.000000 0.000000 0.000000
0.000000 0.000000 0.000000
0.000000 0.000000 0.000000
0.000000 0.000000 0.000000
0.000000 0.000000 0.000000
0.000000 0.000000 0.000000
0.000000 0.000000 0.000000
0.000000 0.000000 0.000000
0.000000 0.000000 0.000000
0.000000 0.000000 0.000000
0.000000 0.000000 0.000000
0.000000 0.000000 0.000000
0.000000 0.000000 0.000000
0.000000 0.000000 0.000000
0.000000 0.000000 0.000000
0.000000 0.000000 0.000000
0.000000 0.000000 0.000000
0.000000 0.000000 0.000000
0.000000 0.000000 0.000000
0.000000 0.000000 0.000000
0.000000 0.000000 0.000000
0.000000 0.000000 0.000000
0.000000 0.000000 0.000000
0.000000 0.000000 0.000000
0.000000 0.000000 0.000000
0.000000 0.000000 0.000000
0.000000 0.000000 0.000000
0.000000 0.000000 0.000000
0.000000 0.000000 0.000000
0.000000 0.000000 0.000000
0.000000 0.000000 0.000000
0.000000 0.000000 0.000000
0.000000 0.000000 0.000000
0.000000 0.000000 0.000000
0.000000 0.000000 0.000000
0.000000 0.000000 0.000000
0.000000 0.000000 0.000000
0.000000 0.000000 0.000000
0.000000 0.000000 0.000000
0.000000 0.000000 0.000000
0.000000 0.000000 0.000000
0.000000 0.000000 0.000000
0.000000 0.000000 0.000000
0.000000 0.000000 0.000000
0.000000 0.000000 0.000000
0.000000 0.000000 0.000000
0.000000 0.000000 0.000000
0.000000 0.000000 0.000000
0.000000 0.000000 0.000000
0.000000 0.000000 0.000000
0.000000 0.000000 0.000000
0.000000 0.000000 0.000000
0.000000 0.000000 0.000000
0.000000 0.000000 0.000000
0.000000 0.000000 0.000000
0.000000 0.000000 0.000000
0.000000 0.000000 0.000000
0.000000 0.000000 0.000000
0.000000 0.000000 0.000000
0.000000 0.000000 0.000000
0.000000 0.000000 0.000000
0.000000 0.000000 0.000000
0.000000 0.000000 0.000000
0.000000 0.000000 0.000000
0.000000 0.000000 0.000000
0.000000 0.000000 0.000000
0.000000 0.000000 0.000000
0.000000 0.000000 0.000000
0.000000 0.000000 0.000000
0.000000 0.000000 0.000000
0.000000 0.000000 0.000000
0.000000 0.000000 0.000000
0.000000 0.000000 0.000000
0.000000 0.000000 0.000000
