Ti66 Al1
1.0
6.309760 0.000000 0.000000
0.000000 9.464640 0.000000
0.000000 0.000000 18.918326
Ti Al
66 1
Selective dynamics
direct
0.096224 0.061866 0.484381 T T T Ti
0.591173 0.026138 0.483140 T T T Ti
0.120236 0.057028 0.646254 T T T Ti
0.610808 0.041005 0.646185 T T T Ti
0.124880 0.041745 0.817398 F F F Ti
0.625362 0.041596 0.817455 F F F Ti
0.580386 0.375142 0.452666 T T T Ti
0.110078 0.375014 0.645735 T T T Ti
0.644198 0.375068 0.655573 T T T Ti
0.124703 0.375018 0.817226 F F F Ti
0.625428 0.375040 0.817445 F F F Ti
0.096582 0.687896 0.484356 T T T Ti
0.590801 0.723898 0.483121 T T T Ti
0.120385 0.692931 0.646228 T T T Ti
0.610622 0.708942 0.646152 T T T Ti
0.124899 0.708252 0.817395 F F F Ti
0.625344 0.708404 0.817450 F F F Ti
0.393494 0.219812 0.564425 T T T Ti
0.833685 0.227245 0.551256 T T T Ti
0.375216 0.208597 0.738342 F F F Ti
0.875068 0.208004 0.738066 F F F Ti
0.374953 0.208374 0.896444 F F F Ti
0.875020 0.208352 0.896429 F F F Ti
0.393268 0.530033 0.564318 T T T Ti
0.833822 0.522698 0.551218 T T T Ti
0.375197 0.541412 0.738334 F F F Ti
0.875104 0.542012 0.738054 F F F Ti
0.374948 0.541629 0.896449 F F F Ti
0.875028 0.541638 0.896434 F F F Ti
0.331358 0.875206 0.560085 T T T Ti
0.877234 0.874736 0.567599 T T T Ti
0.374986 0.875023 0.738543 F F F Ti
0.875532 0.874927 0.738081 F F F Ti
0.374964 0.874991 0.896554 F F F Ti
0.875096 0.874962 0.896505 F F F Ti
0.220785 0.597988 0.368006 T T T Ti
0.690623 0.611332 0.368735 T T T Ti
0.125008 0.625019 0.118724 F F F Ti
0.625227 0.625050 0.118561 F F F Ti
0.220585 0.151961 0.367905 T T T Ti
0.690888 0.138777 0.368746 T T T Ti
0.125017 0.125033 0.118710 F F F Ti
0.625225 0.124998 0.118546 F F F Ti
0.124859 0.375006 0.039436 F F F Ti
0.625102 0.375003 0.039403 F F F Ti
0.125003 0.875024 0.039453 F F F Ti
0.625077 0.875014 0.039396 F F F Ti
0.146927 0.375115 0.277008 T T T Ti
0.613514 0.375100 0.283723 T T T Ti
0.105431 0.875220 0.280492 T T T Ti
0.631435 0.875200 0.285185 T T T Ti
0.375277 0.875011 0.158144 F F F Ti
0.874970 0.875056 0.157904 F F F Ti
0.374865 0.375031 0.157771 F F F Ti
0.875249 0.375007 0.158326 F F F Ti
-0.083454 0.375138 0.397648 T T T Ti
0.344087 0.875523 0.397593 T T T Ti
0.889646 0.874759 0.399921 T T T Ti
0.386079 0.629716 0.245186 T T T Ti
0.883435 0.619663 0.247637 T T T Ti
0.374977 0.625029 -0.000083 F F F Ti
0.875050 0.624976 -0.000095 F F F Ti
0.386120 0.120458 0.245146 T T T Ti
0.883370 0.130494 0.247616 T T T Ti
0.374989 0.124974 -0.000091 F F F Ti
0.875050 0.125021 -0.000104 F F F Ti
0.213585 0.373670 0.465114 T T T Al

0.000000 0.000000 0.000000
0.000000 0.000000 0.000000
0.000000 0.000000 0.000000
0.000000 0.000000 0.000000
0.000000 0.000000 0.000000
0.000000 0.000000 0.000000
0.000000 0.000000 0.000000
0.000000 0.000000 0.000000
0.000000 0.000000 0.000000
0.000000 0.000000 0.000000
0.000000 0.000000 0.000000
0.000000 0.000000 0.000000
0.000000 0.000000 0.000000
0.000000 0.000000 0.000000
0.000000 0.000000 0.000000
0.000000 0.000000 0.000000
0.000000 0.000000 0.000000
0.000000 0.000000 0.000000
0.000000 0.000000 0.000000
0.000000 0.000000 0.000000
0.000000 0.000000 0.000000
0.000000 0.000000 0.000000
0.000000 0.000000 0.000000
0.000000 0.000000 0.000000
0.000000 0.000000 0.000000
0.000000 0.000000 0.000000
0.000000 0.000000 0.000000
0.000000 0.000000 0.000000
0.000000 0.000000 0.000000
0.000000 0.000000 0.000000
0.000000 0.000000 0.000000
0.000000 0.000000 0.000000
0.000000 0.000000 0.000000
0.000000 0.000000 0.000000
0.000000 0.000000 0.000000
0.000000 0.000000 0.000000
0.000000 0.000000 0.000000
0.000000 0.000000 0.000000
0.000000 0.000000 0.000000
0.000000 0.000000 0.000000
0.000000 0.000000 0.000000
0.000000 0.000000 0.000000
0.000000 0.000000 0.000000
0.000000 0.000000 0.000000
0.000000 0.000000 0.000000
0.000000 0.000000 0.000000
0.000000 0.000000 0.000000
0.000000 0.000000 0.000000
0.000000 0.000000 0.000000
0.000000 0.000000 0.000000
0.000000 0.000000 0.000000
0.000000 0.000000 0.000000
0.000000 0.000000 0.000000
0.000000 0.000000 0.000000
0.000000 0.000000 0.000000
0.000000 0.000000 0.000000
0.000000 0.000000 0.000000
0.000000 0.000000 0.000000
0.000000 0.000000 0.000000
0.000000 0.000000 0.000000
0.000000 0.000000 0.000000
0.000000 0.000000 0.000000
0.000000 0.000000 0.000000
0.000000 0.000000 0.000000
0.000000 0.000000 0.000000
0.000000 0.000000 0.000000
0.000000 0.000000 0.000000
