Optimistic_Structure
1.0
9.588310 0.000000 0.000000
0.000000 9.588310 0.000000
0.000000 0.000000 18.970089
Ti Sn
100 1
Selective dynamics
direct
0.083333 0.083333 0.500000 T T T Ti
0.083333 0.083333 0.658144 T T T Ti
0.083333 0.083333 0.816287 F F F Ti
0.083333 0.416667 0.500000 T T T Ti
0.083333 0.416667 0.658144 T T T Ti
0.083333 0.416667 0.816287 F F F Ti
0.083333 0.750000 0.500000 T T T Ti
0.083333 0.750000 0.658144 T T T Ti
0.083333 0.750000 0.816287 F F F Ti
0.416667 0.083333 0.658144 T T T Ti
0.416667 0.083333 0.816287 F F F Ti
0.416667 0.416667 0.500000 T T T Ti
0.416667 0.416667 0.658144 T T T Ti
0.416667 0.416667 0.816287 F F F Ti
0.416667 0.750000 0.500000 T T T Ti
0.416667 0.750000 0.658144 T T T Ti
0.416667 0.750000 0.816287 F F F Ti
0.750000 0.083333 0.500000 T T T Ti
0.750000 0.083333 0.658144 T T T Ti
0.750000 0.083333 0.816287 F F F Ti
0.750000 0.416667 0.500000 T T T Ti
0.750000 0.416667 0.658144 T T T Ti
0.750000 0.416667 0.816287 F F F Ti
0.750000 0.750000 0.500000 T T T Ti
0.750000 0.750000 0.658144 T T T Ti
0.750000 0.750000 0.816287 F F F Ti
0.250000 0.250000 0.579071 T T T Ti
0.250000 0.250000 0.737215 T T T Ti
0.250000 0.250000 0.895359 F F F Ti
0.250000 0.583333 0.579071 T T T Ti
0.250000 0.583333 0.737215 T T T Ti
0.250000 0.583333 0.895359 F F F Ti
0.250000 0.916667 0.579071 T T T Ti
0.250000 0.916667 0.737215 T T T Ti
0.250000 0.916667 0.895359 F F F Ti
0.583333 0.250000 0.579071 T T T Ti
0.583333 0.250000 0.737215 T T T Ti
0.583333 0.250000 0.895359 F F F Ti
0.583333 0.583333 0.579071 T T T Ti
0.583333 0.583333 0.737215 T T T Ti
0.583333 0.583333 0.895359 F F F Ti
0.583333 0.916667 0.579071 T T T Ti
0.583333 0.916667 0.737215 T T T Ti
0.583333 0.916667 0.895359 F F F Ti
0.916667 0.250000 0.579071 T T T Ti
0.916667 0.250000 0.737215 T T T Ti
0.916667 0.250000 0.895359 F F F Ti
0.916667 0.583333 0.579071 T T T Ti
0.916667 0.583333 0.737215 T T T Ti
0.916667 0.583333 0.895359 F F F Ti
0.916667 0.916667 0.579071 T T T Ti
0.916667 0.916667 0.737215 T T T Ti
0.916667 0.916667 0.895359 F F F Ti
0.125000 0.833333 -0.000000 F F F Ti
0.125000 0.333333 -0.000000 F F F Ti
0.625000 0.833333 -0.000000 F F F Ti
0.625000 0.333333 -0.000000 F F F Ti
0.375000 0.666667 -0.000000 F F F Ti
0.375000 0.166667 -0.000000 F F F Ti
0.875000 0.666667 -0.000000 F F F Ti
0.875000 0.166667 -0.000000 F F F Ti
0.875000 0.416667 0.079071 F F F Ti
0.375000 0.416667 0.079071 F F F Ti
0.875000 0.916667 0.079071 F F F Ti
0.375000 0.916667 0.079071 F F F Ti
0.625000 0.083333 0.079071 F F F Ti
0.125000 0.083333 0.079071 F F F Ti
0.625000 0.583333 0.079071 F F F Ti
0.125000 0.583333 0.079071 F F F Ti
0.125000 0.333333 0.158144 T T T Ti
0.625000 0.333333 0.158144 T T T Ti
0.625000 0.833333 0.158144 T T T Ti
0.125000 0.833333 0.158144 T T T Ti
0.875000 0.666667 0.158144 T T T Ti
0.375000 0.166667 0.158144 T T T Ti
0.875000 0.166667 0.158144 T T T Ti
0.375000 0.666667 0.158144 T T T Ti
0.875000 0.416667 0.237215 T T T Ti
0.375000 0.416667 0.237215 T T T Ti
0.875000 0.916667 0.237215 T T T Ti
0.375000 0.916667 0.237215 T T T Ti
0.125000 0.583333 0.237215 T T T Ti
0.625000 0.083333 0.237215 T T T Ti
0.125000 0.083333 0.237215 T T T Ti
0.625000 0.583333 0.237215 T T T Ti
0.625000 0.833333 0.316287 T T T Ti
0.625000 0.333333 0.316287 T T T Ti
0.125000 0.833333 0.316287 T T T Ti
0.125000 0.333333 0.316287 T T T Ti
0.375000 0.166667 0.316287 T T T Ti
0.875000 0.166667 0.316287 T T T Ti
0.375000 0.666667 0.316287 T T T Ti
0.875000 0.666667 0.316287 T T T Ti
0.875000 0.416667 0.395359 T T T Ti
0.375000 0.416667 0.395359 T T T Ti
0.375000 0.916667 0.395359 T T T Ti
0.875000 0.916667 0.395359 T T T Ti
0.625000 0.583333 0.395359 T T T Ti
0.625000 0.083333 0.395359 T T T Ti
0.125000 0.583333 0.395359 T T T Ti
0.416667 0.083333 0.500000 T T T Sn
