substance_top
1.0
   3.5061499999999999    0.0000000000000000    0.0000000000000002
   0.0000000000000019   12.0001999999999995    0.0000000000000007
   0.0000000000000000    0.0000000000000000   30.0716049620000021
Fe
36
Selective dynamics
direct
   0.9933200000000000    0.7184400000000000    0.6674575592610832 F F F Fe
   0.4933200000000000    0.5543100000000000    0.6559134927093087 F F F Fe
   0.4933200000000000    0.7391600000000000    0.6205748784470214 F F F Fe
   0.9933200000000000    0.5750200000000000    0.6090308118952470 F F F Fe
   0.9933200000000001    0.3901700000000000    0.6443604842004840 F F F Fe
   0.4933200000000000    0.2260400000000000    0.6328164176487094 F F F Fe
   0.4933200000000000    0.4108899999999999    0.5974778033864222 F F F Fe
   0.9933200000000001    0.2467500000000000    0.5859337368346479 F F F Fe
   0.9933200000000000    0.0619000000000000    0.6212634091398849 F F F Fe
   0.4933200000000000    0.8977699999999998    0.6097193425881104 F F F Fe
   0.4933200000000000    0.0826200000000000    0.5743807283258232 F F F Fe
   0.9933200000000000    0.9184800000000000    0.5628366617740487 F F F Fe
   0.9933200000000000    0.7598700000000000    0.5737011395900099 F F F Fe
   0.4933200000000000    0.5957300000000000    0.5621481310811853 F F F Fe
   0.4933200000000000    0.7805800000000001    0.5268184587759482 F F F Fe
   0.9933200000000001    0.6164500000000001    0.5152654502671236 F F F Fe
   0.9933200000000001    0.4315999999999999    0.5506040645294108 F F F Fe
   0.4933200000000000    0.2674600000000000    0.5390510560205862 F F F Fe
   0.4933200000000000    0.4523100000000000    0.5037213837153491 F F F Fe
   0.9933200000000001    0.2881800000000000    0.4921683752065245 F F F Fe
   0.9933199999999999    0.1033300000000000    0.5275069894688117 F F F Fe
   0.4933200000000000    0.9391999999999999    0.5159539809599870 F F F Fe
   0.4933200000000000    0.1240400000000000    0.4806243086547500 F F F Fe
   0.9933200000000000    0.9599100000000000    0.4690713001459252 F F F Fe
   0.9933200000000000    0.8013000000000000    0.4799357779618866 F F F Fe
   0.4933200000000000    0.6371599999999998    0.4683917114101121 F F F Fe
   0.4933200000000000    0.8220099999999999    0.4330530971478249 F F F Fe
   0.9933200000000001    0.6578799999999999    0.4215090305960504 F F F Fe
   0.9933200000000001    0.4730300000000000    0.4568387029012874 F F F Fe
   0.4933200000000000    0.3088900000000000    0.4452946363495129 F F F Fe
   0.4933200000000000    0.4937400000000000    0.4099560220872257 F F F Fe
   0.9933200000000000    0.3296100000000000    0.3984119555354513 F F F Fe
   0.9933200000000001    0.1447600000000000    0.4337416278406883 F F F Fe
   0.4933200000000000    0.9806200000000000    0.4221975612889137 F F F Fe
   0.4933200000000000    0.1654700000000000    0.3868589470266266 F F F Fe
   0.9933200000000000    0.0013400000000000    0.3753148804748521 F F F Fe
