Ti66 Cr1
1.0
6.309760 0.000000 0.000000
0.000000 9.464640 0.000000
0.000000 0.000000 18.918326
Ti Cr
66 1
Selective dynamics
direct
0.123428 0.040277 0.502678 F F F Ti
0.627846 0.042026 0.500461 F F F Ti
0.124918 0.041836 0.659157 F F F Ti
0.624967 0.041881 0.658960 F F F Ti
0.124998 0.041723 0.817291 F F F Ti
0.624974 0.041727 0.817276 F F F Ti
0.121912 0.377608 0.501451 F F F Ti
0.624696 0.375649 0.500647 F F F Ti
0.124778 0.375627 0.658969 F F F Ti
0.624784 0.375594 0.658923 F F F Ti
0.124979 0.375281 0.817255 F F F Ti
0.624952 0.375284 0.817258 F F F Ti
0.125957 0.710490 0.499699 F F F Ti
0.623464 0.709975 0.499762 F F F Ti
0.125123 0.708763 0.658676 F F F Ti
0.624458 0.708720 0.658741 F F F Ti
0.124997 0.708496 0.817222 F F F Ti
0.624890 0.708494 0.817236 F F F Ti
0.375304 0.208888 0.579896 F F F Ti
0.874075 0.209044 0.580081 F F F Ti
0.375050 0.208596 0.738100 F F F Ti
0.874796 0.208604 0.738143 F F F Ti
0.375061 0.208496 0.896342 F F F Ti
0.874999 0.208508 0.896335 F F F Ti
0.374986 0.542472 0.579474 F F F Ti
0.874060 0.543081 0.579599 F F F Ti
0.374963 0.541972 0.738017 F F F Ti
0.874843 0.542041 0.738035 F F F Ti
0.375002 0.541885 0.896429 F F F Ti
0.874970 0.541903 0.896426 F F F Ti
0.375876 0.875364 0.579681 F F F Ti
0.874294 0.874675 0.579806 F F F Ti
0.375038 0.875112 0.738076 F F F Ti
0.874836 0.875032 0.738084 F F F Ti
0.375064 0.875050 0.896459 F F F Ti
0.875000 0.875037 0.896451 F F F Ti
0.126594 0.624130 0.356865 F F F Ti
0.622187 0.625015 0.356836 F F F Ti
0.125279 0.625497 0.118838 F F F Ti
0.625040 0.625480 0.118880 F F F Ti
0.646782 0.123771 0.355635 F F F Ti
0.125837 0.125357 0.118381 F F F Ti
0.626573 0.125097 0.118010 F F F Ti
0.125237 0.375287 0.039256 F F F Ti
0.625086 0.375357 0.039146 F F F Ti
0.125210 0.875169 0.039560 F F F Ti
0.625269 0.874977 0.039521 F F F Ti
0.120935 0.380471 0.274833 F F F Ti
0.626922 0.375742 0.276854 F F F Ti
0.127408 0.878020 0.277929 F F F Ti
0.626346 0.875115 0.277450 F F F Ti
0.375477 0.875096 0.158521 F F F Ti
0.876163 0.875309 0.158573 F F F Ti
0.376058 0.375717 0.157891 F F F Ti
0.874192 0.376016 0.157547 F F F Ti
0.869144 0.380602 0.396940 F F F Ti
0.376586 0.877841 0.396407 F F F Ti
0.878555 0.875230 0.396480 F F F Ti
0.375068 0.625175 0.237931 F F F Ti
0.875144 0.626248 0.237903 F F F Ti
0.374998 0.625266 -0.000050 F F F Ti
0.875088 0.625270 -0.000051 F F F Ti
0.382340 0.125410 0.235622 F F F Ti
0.876587 0.125845 0.236295 F F F Ti
0.375255 0.124986 -0.000263 F F F Ti
0.875358 0.124985 -0.000287 F F F Ti
0.216144 0.169481 0.366978 T T T Cr

0.000000 0.000000 0.000000
0.000000 0.000000 0.000000
0.000000 0.000000 0.000000
0.000000 0.000000 0.000000
0.000000 0.000000 0.000000
0.000000 0.000000 0.000000
0.000000 0.000000 0.000000
0.000000 0.000000 0.000000
0.000000 0.000000 0.000000
0.000000 0.000000 0.000000
0.000000 0.000000 0.000000
0.000000 0.000000 0.000000
0.000000 0.000000 0.000000
0.000000 0.000000 0.000000
0.000000 0.000000 0.000000
0.000000 0.000000 0.000000
0.000000 0.000000 0.000000
0.000000 0.000000 0.000000
0.000000 0.000000 0.000000
0.000000 0.000000 0.000000
0.000000 0.000000 0.000000
0.000000 0.000000 0.000000
0.000000 0.000000 0.000000
0.000000 0.000000 0.000000
0.000000 0.000000 0.000000
0.000000 0.000000 0.000000
0.000000 0.000000 0.000000
0.000000 0.000000 0.000000
0.000000 0.000000 0.000000
0.000000 0.000000 0.000000
0.000000 0.000000 0.000000
0.000000 0.000000 0.000000
0.000000 0.000000 0.000000
0.000000 0.000000 0.000000
0.000000 0.000000 0.000000
0.000000 0.000000 0.000000
0.000000 0.000000 0.000000
0.000000 0.000000 0.000000
0.000000 0.000000 0.000000
0.000000 0.000000 0.000000
0.000000 0.000000 0.000000
0.000000 0.000000 0.000000
0.000000 0.000000 0.000000
0.000000 0.000000 0.000000
0.000000 0.000000 0.000000
0.000000 0.000000 0.000000
0.000000 0.000000 0.000000
0.000000 0.000000 0.000000
0.000000 0.000000 0.000000
0.000000 0.000000 0.000000
0.000000 0.000000 0.000000
0.000000 0.000000 0.000000
0.000000 0.000000 0.000000
0.000000 0.000000 0.000000
0.000000 0.000000 0.000000
0.000000 0.000000 0.000000
0.000000 0.000000 0.000000
0.000000 0.000000 0.000000
0.000000 0.000000 0.000000
0.000000 0.000000 0.000000
0.000000 0.000000 0.000000
0.000000 0.000000 0.000000
0.000000 0.000000 0.000000
0.000000 0.000000 0.000000
0.000000 0.000000 0.000000
0.000000 0.000000 0.000000
0.000000 0.000000 0.000000
