Ti66 Cr1
1.0
6.309760 0.000000 0.000000
0.000000 9.464640 0.000000
0.000000 0.000000 18.918326
Ti Cr
66 1
Selective dynamics
direct
0.116823 0.037226 0.497297 F F F Ti
0.626811 0.039969 0.499433 F F F Ti
0.631525 0.039203 0.659856 F F F Ti
0.125072 0.041693 0.817359 F F F Ti
0.625707 0.041481 0.817560 F F F Ti
0.121999 0.376619 0.499400 F F F Ti
0.623363 0.374401 0.500234 F F F Ti
0.119984 0.379519 0.660069 F F F Ti
0.625905 0.375755 0.659181 F F F Ti
0.124647 0.375499 0.817639 F F F Ti
0.625617 0.375470 0.817628 F F F Ti
0.124627 0.707889 0.499859 F F F Ti
0.624863 0.707787 0.499839 F F F Ti
0.125049 0.709016 0.658640 F F F Ti
0.624979 0.708375 0.658736 F F F Ti
0.125146 0.708647 0.817333 F F F Ti
0.624960 0.708690 0.817380 F F F Ti
0.872382 0.208608 0.579188 F F F Ti
0.376642 0.209366 0.739902 F F F Ti
0.875688 0.208589 0.738105 F F F Ti
0.375064 0.208445 0.896779 F F F Ti
0.875052 0.208371 0.896606 F F F Ti
0.374503 0.541609 0.579449 F F F Ti
0.873952 0.542042 0.579276 F F F Ti
0.375218 0.542337 0.738243 F F F Ti
0.874170 0.542607 0.738349 F F F Ti
0.375051 0.541903 0.896641 F F F Ti
0.874947 0.541918 0.896657 F F F Ti
0.376181 0.871680 0.578885 F F F Ti
0.875250 0.874410 0.579297 F F F Ti
0.375316 0.874950 0.738084 F F F Ti
0.876451 0.874839 0.738102 F F F Ti
0.375015 0.875034 0.896616 F F F Ti
0.875193 0.875002 0.896604 F F F Ti
0.124958 0.624609 0.356725 F F F Ti
0.624510 0.624499 0.356763 F F F Ti
0.124998 0.624948 0.118986 F F F Ti
0.624950 0.624944 0.118985 F F F Ti
0.124734 0.124956 0.356322 F F F Ti
0.624656 0.124873 0.356603 F F F Ti
0.124955 0.124986 0.118970 F F F Ti
0.624949 0.124989 0.118966 F F F Ti
0.124947 0.375022 0.039718 F F F Ti
0.624994 0.375029 0.039726 F F F Ti
0.124964 0.874977 0.039694 F F F Ti
0.625008 0.874967 0.039698 F F F Ti
0.124856 0.374976 0.277431 F F F Ti
0.624771 0.374929 0.277441 F F F Ti
0.124920 0.874776 0.277314 F F F Ti
0.624796 0.874809 0.277308 F F F Ti
0.374992 0.874923 0.158531 F F F Ti
0.874927 0.874923 0.158528 F F F Ti
0.374990 0.374980 0.158572 F F F Ti
0.874972 0.374988 0.158569 F F F Ti
0.374624 0.374737 0.396411 F F F Ti
0.873910 0.374877 0.396296 F F F Ti
0.375169 0.874349 0.396059 F F F Ti
0.873979 0.873964 0.395865 F F F Ti
0.374976 0.624846 0.237846 F F F Ti
0.874898 0.624839 0.237840 F F F Ti
0.374998 0.625043 0.000125 F F F Ti
0.874984 0.625041 0.000129 F F F Ti
0.375009 0.124951 0.237767 F F F Ti
0.874787 0.124960 0.237751 F F F Ti
0.374990 0.124934 0.000173 F F F Ti
0.874958 0.124984 0.000102 F F F Ti
0.321021 0.176705 0.593999 T T T Cr

0.000000 0.000000 0.000000
0.000000 0.000000 0.000000
0.000000 0.000000 0.000000
0.000000 0.000000 0.000000
0.000000 0.000000 0.000000
0.000000 0.000000 0.000000
0.000000 0.000000 0.000000
0.000000 0.000000 0.000000
0.000000 0.000000 0.000000
0.000000 0.000000 0.000000
0.000000 0.000000 0.000000
0.000000 0.000000 0.000000
0.000000 0.000000 0.000000
0.000000 0.000000 0.000000
0.000000 0.000000 0.000000
0.000000 0.000000 0.000000
0.000000 0.000000 0.000000
0.000000 0.000000 0.000000
0.000000 0.000000 0.000000
0.000000 0.000000 0.000000
0.000000 0.000000 0.000000
0.000000 0.000000 0.000000
0.000000 0.000000 0.000000
0.000000 0.000000 0.000000
0.000000 0.000000 0.000000
0.000000 0.000000 0.000000
0.000000 0.000000 0.000000
0.000000 0.000000 0.000000
0.000000 0.000000 0.000000
0.000000 0.000000 0.000000
0.000000 0.000000 0.000000
0.000000 0.000000 0.000000
0.000000 0.000000 0.000000
0.000000 0.000000 0.000000
0.000000 0.000000 0.000000
0.000000 0.000000 0.000000
0.000000 0.000000 0.000000
0.000000 0.000000 0.000000
0.000000 0.000000 0.000000
0.000000 0.000000 0.000000
0.000000 0.000000 0.000000
0.000000 0.000000 0.000000
0.000000 0.000000 0.000000
0.000000 0.000000 0.000000
0.000000 0.000000 0.000000
0.000000 0.000000 0.000000
0.000000 0.000000 0.000000
0.000000 0.000000 0.000000
0.000000 0.000000 0.000000
0.000000 0.000000 0.000000
0.000000 0.000000 0.000000
0.000000 0.000000 0.000000
0.000000 0.000000 0.000000
0.000000 0.000000 0.000000
0.000000 0.000000 0.000000
0.000000 0.000000 0.000000
0.000000 0.000000 0.000000
0.000000 0.000000 0.000000
0.000000 0.000000 0.000000
0.000000 0.000000 0.000000
0.000000 0.000000 0.000000
0.000000 0.000000 0.000000
0.000000 0.000000 0.000000
0.000000 0.000000 0.000000
0.000000 0.000000 0.000000
0.000000 0.000000 0.000000
0.000000 0.000000 0.000000
