VASP @ Device Studio
1.0
4.7565119580	0.0000000000	0.0000000000
0.0000000000	4.6754324760	0.0000000000
0.0000000000	0.0000000000	19.2118000000
Ti
24
Cartesian
1.5855047480 3.5065742024 7.2046003342
1.5855047480 3.5065739563 4.3227596283
1.5855047480 3.5065739563 1.4409208298
3.9637607881 3.5065739563 5.7636809349
3.9637607881 3.5065739563 2.8818416595
3.9637607881 3.5065734641 0.0000000000
0.7927511699 1.1688577814 5.7636785507
0.7927511699 1.1688577814 2.8818387985
0.7927511699 1.1688583966 -0.0000009537
3.1710072726 1.1688583966 7.2046003342
3.1710072726 1.1688581505 4.3227596283
3.1710072726 1.1688583966 1.4409208298
3.1710080534 3.5065746931 17.2118473053
0.7927520133 1.1688586412 17.2118473053
0.7927520133 3.5065746931 15.6104001999
3.1710075527 1.1688586412 15.6104001999
3.1710080534 3.5065744470 14.0089483261
0.7927520133 1.1688582721 14.0089483261
0.7927520133 3.5065744470 12.4075002670
3.1710075527 1.1688585181 12.4075002670
3.1710080534 3.5065744470 10.8060483932
0.7927520133 1.1688585181 10.8060483932
0.7927520133 3.5065742009 9.2046003342
3.1710075527 1.1688585181 9.2046003342
