VASP @ Device Studio
1.0
4.5295800000	0.0000000000	0.0000000000
0.0000000000	4.5295800000	0.0000000000
0.0000000000	0.0000000000	19.2118000000
Ti
24
Cartesian
1.5098607257 3.3971848503 7.2046003342
1.5098607257 3.3971846118 4.3227596283
1.5098607257 3.3971846118 1.4409208298
3.7746507838 3.3971846118 5.7636809349
3.7746507838 3.3971846118 2.8818416595
3.7746507838 3.3971841350 0.0000000000
0.7549292162 1.1323946729 5.7636785507
0.7549292162 1.1323946729 2.8818387985
0.7549292162 1.1323952690 -0.0000009537
3.0197193339 1.1323952690 7.2046003342
3.0197193339 1.1323950305 4.3227596283
3.0197193339 1.1323952690 1.4409208298
3.0197200775 3.3971853256 17.2118473053
0.7549300194 1.1323955059 17.2118473053
0.7549300194 3.3971853256 15.6104001999
3.0197196007 1.1323955059 15.6104001999
3.0197200775 3.3971850872 14.0089483261
0.7549300194 1.1323951483 14.0089483261
0.7549300194 3.3971850872 12.4075002670
3.0197196007 1.1323953867 12.4075002670
3.0197200775 3.3971850872 10.8060483932
0.7549300194 1.1323953867 10.8060483932
0.7549300194 3.3971848488 9.2046003342
3.0197196007 1.1323953867 9.2046003342
