VASP @ Device Studio
1.0
8.8052610000	0.0000000000	0.0000000000
-4.4026304996	7.6255797132	0.0000000000
0.0000000000	0.0000000000	18.2888000000
Ti
72
Cartesian
8.3946079511 0.2121276348 8.8919296265
6.1932925461 4.0249168244 8.8919296265
3.9919778889 0.2121276348 8.8919296265
1.7906623101 4.0249168244 8.8919296265
-0.4106527815 2.7539874224 15.3641777039
-2.6119684554 6.5667770190 15.3641777039
3.9919777507 2.7539874224 15.3641777039
1.7906623086 6.5667770190 15.3641777039
1.7906623115 1.4830575568 16.2887840271
-0.4106527830 5.2958471534 16.2887840271
6.1932928438 1.4830575568 16.2887840271
3.9919777493 5.2958471534 16.2887840271
-0.4106527815 2.7539874224 9.8165359497
-2.6119684554 6.5667770190 9.8165359497
3.9919777507 2.7539874224 9.8165359497
1.7906623086 6.5667770190 9.8165359497
1.7906623115 1.4830575568 10.7411422729
-0.4106527830 5.2958471534 10.7411422729
6.1932928438 1.4830575568 10.7411422729
3.9919777493 5.2958471534 10.7411422729
8.3946079511 0.2121276348 11.6657485962
6.1932925461 4.0249168244 11.6657485962
3.9919778889 0.2121276348 11.6657485962
1.7906623101 4.0249168244 11.6657485962
-0.4106527815 2.7539874224 12.5903549194
-2.6119684554 6.5667770190 12.5903549194
3.9919777507 2.7539874224 12.5903549194
1.7906623086 6.5667770190 12.5903549194
1.7906623115 1.4830575568 13.5149631500
-0.4106527830 5.2958471534 13.5149631500
6.1932928438 1.4830575568 13.5149631500
3.9919777493 5.2958471534 13.5149631500
8.3946079511 0.2121276348 14.4395694733
6.1932925461 4.0249168244 14.4395694733
3.9919778889 0.2121276348 14.4395694733
1.7906623101 4.0249168244 14.4395694733
-2.9350894973 6.7782933886 0.0000000000
-2.9350894973 6.7782933886 4.5946202278
-1.4675455603 4.2364336575 0.0000000000
-1.4675428962 5.9310052667 2.2973098755
-1.4675455603 4.2364336575 4.5946202278
-0.0000023935 6.7782933886 0.0000000000
-0.0000017137 1.6945739265 0.0000000000
-1.4675428992 5.9310052708 6.8919301000
0.0000009900 3.3891453039 2.2973098755
-0.0000023935 6.7782933886 4.5946202278
-0.0000017137 1.6945739265 4.5946202278
1.4675414999 4.2364336575 0.0000000000
0.0000009900 3.3891453039 6.8919301033
1.4675441639 5.9310052667 2.2973098755
1.4675448621 0.8472856887 2.2973098755
1.4675414999 4.2364336575 4.5946202278
2.9350846230 6.7782933886 0.0000000000
2.9350853212 1.6945739265 0.0000000000
1.4675441639 5.9310052667 6.8919301033
1.4675448621 0.8472856887 6.8919301033
2.9350881010 3.3891453039 2.2973098755
2.9350846230 6.7782933886 4.5946202278
2.9350853212 1.6945739265 4.5946202278
4.4026283283 4.2364336575 0.0000000000
2.9350881010 3.3891453039 6.8919301033
4.4026311081 5.9310052667 2.2973098755
4.4026320380 0.8472856887 2.2973098755
4.4026283283 4.2364336575 4.5946202278
5.8701724971 1.6945739265 0.0000000000
4.4026311081 5.9310052667 6.8919301033
4.4026320380 0.8472856887 6.8919301033
5.8701748135 3.3891453039 2.2973098755
5.8701724971 1.6945739265 4.5946202278
5.8701748135 3.3891453039 6.8919301033
7.3377189823 0.8472856887 2.2973098755
7.3377189823 0.8472856887 6.8919301033
