VASP @ Device Studio
   1.00000000000000
     9.445957   0.0000000000000000    0.0000000000000000
     0.0000000000000000    9.093951    0.0000000000000000
     0.0000000000000000    0.0000000000000000   18.5472299999999990
   Ti
    96
Direct
  0.1666664853572541  0.3750000000855565  0.3884456276058472
  0.6666664853572541  0.3750000000855565  0.3884456276058472
  0.1666664853572541  0.8750000001924931  0.3884456276058472
  0.6666664853572541  0.8750000001924931  0.3884456276058472
  0.1666664853572541  0.3750000000855565  0.2330680467056254
  0.6666664853572541  0.3750000000855565  0.2330680467056254
  0.1666664853572541  0.8750000001924931  0.2330680467056254
  0.6666664853572541  0.8750000001924931  0.2330680467056254
  0.1666664853572541  0.3750000000855565  0.0776893461773014
  0.6666664853572541  0.3750000000855565  0.0776893461773014
  0.1666664853572541  0.8750000001924931  0.0776893461773014
  0.6666664853572541  0.8750000001924931  0.0776893461773014
  0.4166670069371747  0.3750000000855565  0.3107573847091984
  0.9166670069371747  0.3750000000855565  0.3107573847091984
  0.4166670069371747  0.8750000001924931  0.3107573847091984
  0.9166670069371747  0.8750000001924931  0.3107573847091984
  0.4166670069371747  0.3750000000855565  0.1553786923546028
  0.9166670069371747  0.3750000000855565  0.1553786923546028
  0.4166670069371747  0.8750000001924931  0.1553786923546028
  0.9166670069371747  0.8750000001924931  0.1553786923546028
  0.4166670069371747  0.3750000000855565  0.0000000000000000
  0.9166670069371747  0.3750000000855565  0.0000000000000000
  0.4166670069371747  0.8750000001924931  0.0000000000000000
  0.9166670069371747  0.8750000001924931  0.0000000000000000
  0.0833329930628253  0.1250000000320810  0.3107562732548175
  0.5833329930628253  0.1250000000320810  0.3107562732548175
  0.0833329930628253  0.6250000001390248  0.3107562732548175
  0.5833329930628253  0.6250000001390248  0.3107562732548175
  0.0833329930628253  0.1250000000320810  0.1553786923546028
  0.5833329930628253  0.1250000000320810  0.1553786923546028
  0.0833329930628253  0.6250000001390248  0.1553786923546028
  0.5833329930628253  0.6250000001390248  0.1553786923546028
  0.0833329930628253  0.1250000000320810  0.0000000000000000
  0.5833329930628253  0.1250000000320810  0.0000000000000000
  0.0833329930628253  0.6250000001390248  0.0000000000000000
  0.5833329930628253  0.6250000001390248  0.0000000000000000
  0.3333334848309732  0.1250000000320810  0.3884456276058472
  0.8333334848309732  0.1250000000320810  0.3884456276058472
  0.3333334848309732  0.6250000001390248  0.3884456276058472
  0.8333334848309732  0.6250000001390248  0.3884456276058472
  0.3333334848309732  0.1250000000320810  0.2330680467056254
  0.8333334848309732  0.1250000000320810  0.2330680467056254
  0.3333334848309732  0.6250000001390248  0.2330680467056254
  0.8333334848309732  0.6250000001390248  0.2330680467056254
  0.3333334848309732  0.1250000000320810  0.0776893461773014
  0.8333334848309732  0.1250000000320810  0.0776893461773014
  0.3333334848309732  0.6250000001390248  0.0776893461773014
  0.8333334848309732  0.6250000001390248  0.0776893461773014
  0.3750000250814125  0.3750000128330413  0.8237384577157911
  0.8750000250814125  0.3750000128330413  0.8237384577157911
  0.3750000250814125  0.8749999874450012  0.8237384577157911
  0.8750000250814125  0.8749999874450012  0.8237384577157911
  0.1250000250393697  0.1250000000320810  0.8237384577157911
  0.6250000250393697  0.1250000000320810  0.8237384577157911
  0.1250000250393697  0.6250000128865167  0.8237384577157911
  0.6250000250393697  0.6250000128865167  0.8237384577157911
  0.1250000250393697  0.3750000128330413  0.9100835028033814
  0.6250000250393697  0.3750000128330413  0.9100835028033814
  0.1250000250393697  0.8749999874450012  0.9100835028033814
  0.6250000250393697  0.8749999874450012  0.9100835028033814
  0.3750000250814125  0.1250000000320810  0.9100835028033814
  0.8750000250814125  0.1250000000320810  0.9100835028033814
  0.3750000250814125  0.6250000128865167  0.9100835028033814
  0.8750000250814125  0.6250000128865167  0.9100835028033814
  0.3750000250814125  0.3750000128330413  0.6510498072758040
  0.8750000250814125  0.3750000128330413  0.6510498072758040
  0.3750000250814125  0.8749999874450012  0.6510498072758040
  0.8750000250814125  0.8749999874450012  0.6510498072758040
  0.1250000250393697  0.1250000000320810  0.6510498072758040
  0.6250000250393697  0.1250000000320810  0.6510498072758040
  0.1250000250393697  0.6250000128865167  0.6510498072758040
  0.6250000250393697  0.6250000128865167  0.6510498072758040
  0.1250000250393697  0.3750000128330413  0.5647059448230252
  0.6250000250393697  0.3750000128330413  0.5647059448230252
  0.1250000250393697  0.8749999874450012  0.5647059448230252
  0.6250000250393697  0.8749999874450012  0.5647059448230252
  0.3750000250814125  0.1250000000320810  0.5647059448230252
  0.8750000250814125  0.1250000000320810  0.5647059448230252
  0.3750000250814125  0.6250000128865167  0.5647059448230252
  0.8750000250814125  0.6250000128865167  0.5647059448230252
  0.3750000250814125  0.3750000128330413  0.4783611054103503
  0.8750000250814125  0.3750000128330413  0.4783611054103503
  0.3750000250814125  0.8749999874450012  0.4783611054103503
  0.8750000250814125  0.8749999874450012  0.4783611054103503
  0.1250000250393697  0.1250000000320810  0.4783611054103503
  0.6250000250393697  0.1250000000320810  0.4783611054103503
  0.1250000250393697  0.6250000128865167  0.4783611054103503
  0.6250000250393697  0.6250000128865167  0.4783611054103503
  0.1250000250393697  0.8749999874450012  0.7373946466830930
  0.6250000250393697  0.8749999874450012  0.7373946466830930
  0.3750000250814125  0.6250000128865167  0.7373946466830930
  0.8750000250814125  0.6250000128865167  0.7373946466830930
  0.1250000250393697  0.3750000128330413  0.7373946466830930
  0.6250000250393697  0.3750000128330413  0.7373946466830930
  0.3750000250814125  0.1250000000320810  0.7373946466830930
  0.8750000250814125  0.1250000000320810  0.7373946466830930
