VASP @ Device Studio
1.0
4.7565097800	0.0000000000	0.0000000000
0.0000000000	9.3508596400	0.0000000000
0.0000000000	0.0000000000	18.5472300000
Ti
48
Cartesian
1.5855015352 3.5065723658 7.2045903977
1.5855015352 8.1820021868 7.2045903977
1.5855015352 3.5065723658 4.3227666679
1.5855015352 8.1820021868 4.3227666679
1.5855015352 3.5065723658 1.4409221721
1.5855015352 8.1820021868 1.4409221721
3.9637613870 3.5065723658 5.7636886884
3.9637613870 8.1820021868 5.7636886884
3.9637613870 3.5065723658 2.8818443442
3.9637613870 8.1820021868 2.8818443442
3.9637613870 3.5065723658 0.0000000000
3.9637613870 8.1820021868 0.0000000000
0.7927483930 1.1688574553 5.7636680740
0.7927483930 5.8442872763 5.7636680740
0.7927483930 1.1688574553 2.8818443442
0.7927483930 5.8442872763 2.8818443442
0.7927483930 1.1688574553 0.0000000000
0.7927483930 5.8442872763 0.0000000000
3.1710079612 1.1688574553 7.2045903977
3.1710079612 5.8442872763 7.2045903977
3.1710079612 1.1688574553 4.3227666679
3.1710079612 5.8442872763 4.3227666679
3.1710079612 1.1688574553 1.4409221721
3.1710079612 5.8442872763 1.4409221721
3.5673825736 3.5065724850 15.2780666351
3.5673825736 8.1820020676 15.2780666351
1.1891276832 1.1688574553 15.2780666351
1.1891276832 5.8442873955 15.2780666351
1.1891276832 3.5065724850 16.8795280457
1.1891276832 8.1820020676 16.8795280457
3.5673825736 1.1688574553 16.8795280457
3.5673825736 5.8442873955 16.8795280457
3.5673825736 3.5065724850 12.0751705170
3.5673825736 8.1820020676 12.0751705170
1.1891276832 1.1688574553 12.0751705170
1.1891276832 5.8442873955 12.0751705170
1.1891276832 3.5065724850 10.4737310410
1.1891276832 8.1820020676 10.4737310410
3.5673825736 1.1688574553 10.4737310410
3.5673825736 5.8442873955 10.4737310410
3.5673825736 3.5065724850 8.8722734451
3.5673825736 8.1820020676 8.8722734451
1.1891276832 1.1688574553 8.8722734451
1.1891276832 5.8442873955 8.8722734451
1.1891276832 8.1820020676 13.6766281128
3.5673825736 5.8442873955 13.6766281128
1.1891276832 3.5065724850 13.6766281128
3.5673825736 1.1688574553 13.6766281128
