VASP @ Device Studio
1.0
8.8052610000	0.0000000000	0.0000000000
-4.4026304996	7.6255797132	0.0000000000
0.0000000000	0.0000000000	18.2888000000
Ti
72
Cartesian
-3.3019895581 6.9901436172 8.8919296265
-1.1006743848 3.1773536454 8.8919296265
1.1006410900 6.9901436172 8.8919296265
3.3019562633 3.1773536454 8.8919296265
1.1006409400 1.9064237798 15.3641777039
-1.1006743863 5.7192136082 15.3641777039
5.5032715881 1.9064237798 15.3641777039
3.3019562618 5.7192136082 15.3641777039
3.3019562648 0.6354939143 16.2887840271
1.1006409385 4.4482837426 16.2887840271
7.7045866812 0.6354939143 16.2887840271
5.5032715866 4.4482837426 16.2887840271
1.1006409400 1.9064237798 9.8165359497
-1.1006743863 5.7192136082 9.8165359497
5.5032715881 1.9064237798 9.8165359497
3.3019562618 5.7192136082 9.8165359497
3.3019562648 0.6354939143 10.7411422729
1.1006409385 4.4482837426 10.7411422729
7.7045866812 0.6354939143 10.7411422729
5.5032715866 4.4482837426 10.7411422729
-3.3019895581 6.9901436172 11.6657485962
-1.1006743848 3.1773536454 11.6657485962
1.1006410900 6.9901436172 11.6657485962
3.3019562633 3.1773536454 11.6657485962
1.1006409400 1.9064237798 12.5903549194
-1.1006743863 5.7192136082 12.5903549194
5.5032715881 1.9064237798 12.5903549194
3.3019562618 5.7192136082 12.5903549194
3.3019562648 0.6354939143 13.5149631500
1.1006409385 4.4482837426 13.5149631500
7.7045866812 0.6354939143 13.5149631500
5.5032715866 4.4482837426 13.5149631500
-3.3019895581 6.9901436172 14.4395694733
-1.1006743848 3.1773536454 14.4395694733
1.1006410900 6.9901436172 14.4395694733
3.3019562633 3.1773536454 14.4395694733
-2.5681921361 6.5664437959 0.0000000000
-2.5681921361 6.5664437959 4.5946202278
-1.1006481991 4.0245840648 0.0000000000
-1.1006455350 5.7191556740 2.2973098755
-1.1006481991 4.0245840648 4.5946202278
0.3668949677 6.5664437959 0.0000000000
0.3668956475 1.4827243338 0.0000000000
-1.1006455380 5.7191556781 6.8919301000
0.3668983512 3.1772957112 2.2973098755
0.3668949677 6.5664437959 4.5946202278
0.3668956475 1.4827243338 4.5946202278
1.8344388611 4.0245840648 0.0000000000
0.3668983512 3.1772957112 6.8919301033
1.8344415251 5.7191556740 2.2973098755
1.8344422233 0.6354360960 2.2973098755
1.8344388611 4.0245840648 4.5946202278
3.3019819842 6.5664437959 0.0000000000
3.3019826824 1.4827243338 0.0000000000
1.8344415251 5.7191556740 6.8919301033
1.8344422233 0.6354360960 6.8919301033
3.3019854622 3.1772957112 2.2973098755
3.3019819842 6.5664437959 4.5946202278
3.3019826824 1.4827243338 4.5946202278
4.7695256895 4.0245840648 0.0000000000
3.3019854622 3.1772957112 6.8919301033
4.7695284693 5.7191556740 2.2973098755
4.7695293992 0.6354360960 2.2973098755
4.7695256895 4.0245840648 4.5946202278
6.2370698583 1.4827243338 0.0000000000
4.7695284693 5.7191556740 6.8919301033
4.7695293992 0.6354360960 6.8919301033
6.2370721747 3.1772957112 2.2973098755
6.2370698583 1.4827243338 4.5946202278
6.2370721747 3.1772957112 6.8919301033
7.7046163435 0.6354360960 2.2973098755
7.7046163435 0.6354360960 6.8919301033
