VASP @ Device Studio
1.0
9.5883102417	0.0000000000	0.0000000000	
0.0000000000	9.5883102417	0.0000000000	
0.0000000000	0.0000000000	19.0000000000	
Ti
102
Cartesian
0.7990226626 0.7990226626 9.5000000000
0.7990226626 0.7990226626 12.5000055432
0.7990226626 0.7990226626 15.4999907017
0.7990226626 3.9951326012 9.5000000000
0.7990226626 3.9951326012 12.5000055432
0.7990226626 3.9951326012 15.4999907017
0.7990226626 7.1912326813 9.5000000000
0.7990226626 7.1912326813 12.5000055432
0.7990226626 7.1912326813 15.4999907017
3.9951326012 0.7990226626 9.5000000000
3.9951326012 0.7990226626 12.5000055432
3.9951326012 0.7990226626 15.4999907017
3.9951326012 3.9951326012 9.5000000000
3.9951326012 3.9951326012 12.5000055432
3.9951326012 3.9951326012 15.4999907017
3.9951326012 7.1912326813 9.5000000000
3.9951326012 7.1912326813 12.5000055432
3.9951326012 7.1912326813 15.4999907017
7.1912326813 0.7990226626 9.5000000000
7.1912326813 0.7990226626 12.5000055432
7.1912326813 0.7990226626 15.4999907017
7.1912326813 3.9951326012 9.5000000000
7.1912326813 3.9951326012 12.5000055432
7.1912326813 3.9951326012 15.4999907017
7.1912326813 7.1912326813 9.5000000000
7.1912326813 7.1912326813 12.5000055432
7.1912326813 7.1912326813 15.4999907017
2.3970775604 2.3970775604 10.9999931455
2.3970775604 2.3970775604 13.9999975562
2.3970775604 2.3970775604 17.0000030994
2.3970775604 5.5931779263 10.9999931455
2.3970775604 5.5931779263 13.9999975562
2.3970775604 5.5931779263 17.0000030994
2.3970775604 8.7892874363 10.9999931455
2.3970775604 8.7892874363 13.9999975562
2.3970775604 8.7892874363 17.0000030994
5.5931779263 2.3970775604 10.9999931455
5.5931779263 2.3970775604 13.9999975562
5.5931779263 2.3970775604 17.0000030994
5.5931779263 5.5931779263 10.9999931455
5.5931779263 5.5931779263 13.9999975562
5.5931779263 5.5931779263 17.0000030994
5.5931779263 8.7892874363 10.9999931455
5.5931779263 8.7892874363 13.9999975562
5.5931779263 8.7892874363 17.0000030994
8.7892874363 2.3970775604 10.9999931455
8.7892874363 2.3970775604 13.9999975562
8.7892874363 2.3970775604 17.0000030994
8.7892874363 5.5931779263 10.9999931455
8.7892874363 5.5931779263 13.9999975562
8.7892874363 5.5931779263 17.0000030994
8.7892874363 8.7892874363 10.9999931455
8.7892874363 8.7892874363 13.9999975562
8.7892874363 8.7892874363 17.0000030994
1.1985387802 7.9902554867 0.0000000000
1.1985387802 3.1961000801 0.0000000000
5.9926939011 7.9902554867 0.0000000000
5.9926939011 3.1961000801 0.0000000000
3.5956163406 6.3922098758 0.0000000000
3.5956163406 1.5980548979 0.0000000000
8.3897714615 6.3922098758 0.0000000000
8.3897714615 1.5980548979 0.0000000000
8.3897714615 3.9951326012 1.4999930039
3.5956163406 3.9951326012 1.4999930039
8.3897714615 8.7892874363 1.4999930039
3.5956163406 8.7892874363 1.4999930039
5.9926939011 0.7990226626 1.4999930039
1.1985387802 0.7990226626 1.4999930039
5.9926939011 5.5931779263 1.4999930039
1.1985387802 5.5931779263 1.4999930039
1.1985387802 3.1961000801 3.0000049770
5.9926939011 3.1961000801 3.0000049770
5.9926939011 7.9902554867 3.0000049770
1.1985387802 7.9902554867 3.0000049770
8.3897714615 6.3922098758 3.0000049770
3.5956163406 1.5980548979 3.0000049770
8.3897714615 1.5980548979 3.0000049770
3.5956163406 6.3922098758 3.0000049770
8.3897714615 3.9951326012 4.4999981225
3.5956163406 3.9951326012 4.4999981225
8.3897714615 8.7892874363 4.4999981225
3.5956163406 8.7892874363 4.4999981225
1.1985387802 5.5931779263 4.4999981225
5.9926939011 0.7990226626 4.4999981225
1.1985387802 0.7990226626 4.4999981225
5.9926939011 5.5931779263 4.4999981225
5.9926939011 7.9902554867 5.9999912679
5.9926939011 3.1961000801 5.9999912679
1.1985387802 7.9902554867 5.9999912679
1.1985387802 3.1961000801 5.9999912679
3.5956163406 1.5980548979 5.9999912679
8.3897714615 1.5980548979 5.9999912679
3.5956163406 6.3922098758 5.9999912679
8.3897714615 6.3922098758 5.9999912679
8.3897714615 3.9951326012 7.5000030994
3.5956163406 3.9951326012 7.5000030994
3.5956163406 8.7892874363 7.5000030994
8.3897714615 8.7892874363 7.5000030994
5.9926939011 5.5931779263 7.5000030994
5.9926939011 0.7990226626 7.5000030994
1.1985387802 5.5931779263 7.5000030994
1.1985387802 0.7990226626 7.5000030994
