VASP @ Device Studio
1.0
8.8052610000	0.0000000000	0.0000000000
-4.4026305000	7.6255797100	0.0000000000
0.0000000000	0.0000000000	22.8834200000
Ti
90
Cartesian
8.3946075439 0.2121276408 13.4865493774
6.1932926178 4.0249166489 13.4865493774
3.9919779301 0.2121276408 13.4865493774
1.7906622887 4.0249166489 13.4865493774
-0.4106527865 2.7539873123 19.9587974548
-2.6119685173 6.5667772293 19.9587974548
3.9919776917 2.7539873123 19.9587974548
1.7906622887 6.5667772293 19.9587974548
1.7906622887 1.4830574989 20.8834037781
-0.4106527865 5.2958469391 20.8834037781
6.1932926178 1.4830574989 20.8834037781
3.9919776917 5.2958469391 20.8834037781
-0.4106527865 2.7539873123 14.4111557007
-2.6119685173 6.5667772293 14.4111557007
3.9919776917 2.7539873123 14.4111557007
1.7906622887 6.5667772293 14.4111557007
1.7906622887 1.4830574989 15.3357620239
-0.4106527865 5.2958469391 15.3357620239
6.1932926178 1.4830574989 15.3357620239
3.9919776917 5.2958469391 15.3357620239
8.3946075439 0.2121276408 16.2603683472
6.1932926178 4.0249166489 16.2603683472
3.9919779301 0.2121276408 16.2603683472
1.7906622887 4.0249166489 16.2603683472
-0.4106527865 2.7539873123 17.1849746704
-2.6119685173 6.5667772293 17.1849746704
3.9919776917 2.7539873123 17.1849746704
1.7906622887 6.5667772293 17.1849746704
1.7906622887 1.4830574989 18.1095829010
-0.4106527865 5.2958469391 18.1095829010
6.1932926178 1.4830574989 18.1095829010
3.9919776917 5.2958469391 18.1095829010
8.3946075439 0.2121276408 19.0341892242
6.1932926178 4.0249166489 19.0341892242
3.9919779301 0.2121276408 19.0341892242
1.7906622887 4.0249166489 19.0341892242
-2.9350895882 6.7782936096 0.0000000000
-2.9350895882 6.7782936096 9.1892404556
-1.4675455093 4.2364335060 0.0000000000
-1.4675428867 5.9310054779 2.2973098755
-1.4675455093 4.2364335060 9.1892404556
-0.0000023935 6.7782936096 0.0000000000
-0.0000017137 1.6945738792 0.0000000000
-1.4675428867 5.9310054779 11.4865503311
0.0000009900 3.3891453743 2.2973098755
-0.0000023935 6.7782936096 9.1892404556
-0.0000017137 1.6945738792 9.1892404556
1.4675414562 4.2364335060 0.0000000000
0.0000009900 3.3891453743 11.4865503311
1.4675441980 5.9310054779 2.2973098755
1.4675449133 0.8472856879 2.2973098755
1.4675414562 4.2364335060 9.1892404556
2.9350845814 6.7782936096 0.0000000000
2.9350852966 1.6945738792 0.0000000000
1.4675441980 5.9310054779 11.4865503311
1.4675449133 0.8472856879 11.4865503311
2.9350881577 3.3891453743 2.2973098755
2.9350845814 6.7782936096 9.1892404556
2.9350852966 1.6945738792 9.1892404556
4.4026284218 4.2364335060 0.0000000000
2.9350881577 3.3891453743 11.4865503311
4.4026312828 5.9310054779 2.2973098755
4.4026322365 0.8472856879 2.2973098755
4.4026284218 4.2364335060 9.1892404556
5.8701725006 1.6945738792 0.0000000000
4.4026312828 5.9310054779 11.4865503311
4.4026322365 0.8472856879 11.4865503311
5.8701748848 3.3891453743 2.2973098755
5.8701725006 1.6945738792 9.1892404556
5.8701748848 3.3891453743 11.4865503311
7.3377189636 0.8472856879 2.2973098755
7.3377189636 0.8472856879 11.4865503311
-2.9350895882 6.7782936096 4.5946202278
-1.4675455093 4.2364335060 4.5946202278
-1.4675428867 5.9310054779 6.8919301033
-0.0000023935 6.7782936096 4.5946202278
-0.0000017137 1.6945738792 4.5946202278
0.0000009900 3.3891453743 6.8919301033
1.4675414562 4.2364335060 4.5946202278
1.4675441980 5.9310054779 6.8919301033
1.4675449133 0.8472856879 6.8919301033
2.9350845814 6.7782936096 4.5946202278
2.9350852966 1.6945738792 4.5946202278
2.9350881577 3.3891453743 6.8919301033
4.4026284218 4.2364335060 4.5946202278
4.4026312828 5.9310054779 6.8919301033
4.4026322365 0.8472856879 6.8919301033
5.8701725006 1.6945738792 4.5946202278
5.8701748848 3.3891453743 6.8919301033
7.3377189636 0.8472856879 6.8919301033
