VASP @ Device Studio
1.0
8.8052610000	0.0000000000	0.0000000000
-4.4026304996	7.6255797132	0.0000000000
0.0000000000	0.0000000000	18.2888000000
Ti
72
Cartesian
-2.2013520996 7.2018710273 8.8919296265
-0.0000367154 3.3890802720 8.8919296265
2.2012785486 7.2018705639 8.8919296265
4.4025938748 3.3890807355 8.8919296265
2.2012785515 2.1181506383 15.3641777039
-0.0000368327 5.9309406983 15.3641777039
6.6039091996 2.1181506383 15.3641777039
4.4025938734 5.9309406983 15.3641777039
4.4025938763 0.8472208886 16.2887840271
2.2012785500 4.6600108328 16.2887840271
0.0000375575 0.8472207727 16.2887840271
-2.2012778097 4.6600108328 16.2887840271
2.2012784356 2.1181506383 9.8165359497
-0.0000367168 5.9309406983 9.8165359497
6.6039091996 2.1181506383 9.8165359497
4.4025938734 5.9309406983 9.8165359497
4.4025938763 0.8472207727 10.7411422729
2.2012785500 4.6600108328 10.7411422729
0.0000374906 0.8472208886 10.7411422729
-2.2012778097 4.6600108328 10.7411422729
-2.2013518678 7.2018705639 11.6657485962
-0.0000367154 3.3890805038 11.6657485962
2.2012785486 7.2018705639 11.6657485962
4.4025938748 3.3890805038 11.6657485962
2.2012785515 2.1181506383 12.5903549194
-0.0000367168 5.9309406983 12.5903549194
6.6039091996 2.1181506383 12.5903549194
4.4025938734 5.9309406983 12.5903549194
4.4025941080 0.8472207727 13.5149631500
2.2012785500 4.6600108328 13.5149631500
0.0000375575 0.8472207727 13.5149631500
-2.2012778097 4.6600108328 13.5149631500
-2.2013516361 7.2018701004 14.4395694733
-0.0000368312 3.3890805038 14.4395694733
2.2012786644 7.2018705639 14.4395694733
4.4025938748 3.3890805038 14.4395694733
-2.2013565021 6.3547163858 0.0000000000
-2.2013565021 6.3547163858 4.5946202278
-0.7338125650 3.8128566547 0.0000000000
-0.7338099010 5.5074282638 2.2973098755
-0.7338125650 3.8128566547 4.5946202278
0.7337306017 6.3547163858 0.0000000000
0.7337312815 1.2709969237 0.0000000000
-0.7338099040 5.5074282679 6.8919301000
0.7337339853 2.9655683010 2.2973098755
0.7337306017 6.3547163858 4.5946202278
0.7337312815 1.2709969237 4.5946202278
2.2012744951 3.8128566547 0.0000000000
0.7337339853 2.9655683010 6.8919301033
2.2012771591 5.5074282638 2.2973098755
2.2012778573 0.4237086859 2.2973098755
2.2012744951 3.8128566547 4.5946202278
3.6688176182 6.3547163858 0.0000000000
3.6688183164 1.2709969237 0.0000000002
2.2012771591 5.5074282638 6.8919301033
2.2012778573 0.4237086859 6.8919301033
3.6688210962 2.9655683010 2.2973098755
3.6688176182 6.3547163858 4.5946202278
3.6688183164 1.2709969237 4.5946202278
5.1363613235 3.8128566547 0.0000000000
3.6688210962 2.9655683010 6.8919301033
5.1363641033 5.5074282638 2.2973098755
5.1363650333 0.4237086859 2.2973098755
5.1363613235 3.8128566547 4.5946202278
6.6039054923 1.2709969237 0.0000000000
5.1363641033 5.5074282638 6.8919301033
5.1363650333 0.4237086859 6.8919301033
6.6039078087 2.9655683010 2.2973098755
6.6039054923 1.2709969237 4.5946202278
6.6039078087 2.9655683010 6.8919301033
8.0714519775 0.4237086859 2.2973098755
8.0714519775 0.4237086859 6.8919301033
