VASP @ Device Studio
1.0
5.7455902100	0.0000000000	0.0000000000
0.0000000000	9.0727500900	0.0000000000
0.0000000000	0.0000000000	18.1460100000
Ti
56
Cartesian
0.2394014895 7.9386558533 9.3330593109
0.2394016087 3.4022798538 9.3330593109
3.1121966839 7.9386558533 9.3330593109
3.1121962070 3.4022798538 9.3330593109
1.6757991314 5.6704683304 10.1815443039
1.6757992506 1.1340932846 10.1815443039
4.5485939980 5.6704683304 10.1815443039
4.5485939980 1.1340932846 10.1815443039
1.6757990122 7.9386548996 6.7876691818
1.6757991314 3.4022798538 6.7876691818
4.5485939980 7.9386548996 6.7876691818
4.5485939980 3.4022798538 6.7876691818
0.2394015491 5.6704664230 7.6361522675
0.2394016683 1.1340923309 7.6361522675
3.1121966839 5.6704673767 7.6361522675
3.1121962070 1.1340923309 7.6361522675
0.2394014895 7.9386558533 4.2422971725
0.2394016087 3.4022789001 4.2422971725
3.1121966839 7.9386548996 4.2422971725
3.1121962070 3.4022798538 4.2422971725
1.6757991314 5.6704673767 5.0907602310
1.6757992506 1.1340924501 5.0907602310
4.5485939980 5.6704673767 5.0907602310
4.5485939980 1.1340924501 5.0907602310
1.6757990122 7.9386558533 1.6969071627
1.6757991314 3.4022796154 1.6969070435
4.5485939980 7.9386548996 1.6969071627
4.5485939980 3.4022796154 1.6969070435
0.2394015491 5.6704673767 2.5453910828
0.2394016683 1.1340919733 2.5453910828
3.1121966839 5.6704673767 2.5453910828
3.1121962070 1.1340919733 2.5453910828
2.6333935261 5.6704683304 12.8363895416
2.6333935261 1.1340931654 12.8363904953
5.5061888695 5.6704692841 12.8363895416
5.5061888695 1.1340931654 12.8363904953
0.7181989551 5.6704683304 15.4912147522
0.7181986570 1.1340935230 15.4912157059
3.5909941196 5.6704683304 15.4912147522
3.5909938812 1.1340935230 15.4912157059
0.7181988955 7.9386558533 11.5089569092
0.7181985974 3.4022808075 11.5089569092
3.5909938812 7.9386558533 11.5089569092
3.5909936428 3.4022808075 11.5089569092
1.6757990122 7.9386558533 14.1638031006
1.6757991314 3.4022810459 14.1638031006
4.5485939980 7.9386558533 14.1638031006
4.5485939980 3.4022810459 14.1638031006
2.6333935261 7.9386558533 16.8186454773
2.6333935261 3.4022810459 16.8186492920
5.5061888695 7.9386558533 16.8186454773
5.5061888695 3.4022819996 16.8186492920
4.5485939980 1.1340920925 -0.0000001192
1.6757992506 1.1340920925 -0.0000001192
4.5485939980 5.6704673767 0.0000000000
1.6757991314 5.6704673767 0.0000000000
