VASP @ Device Studio
1.0
8.8052610000	0.0000000000	0.0000000000
-4.4026305000	7.6255797100	0.0000000000
0.0000000000	0.0000000000	22.8834200000
Ti
90
Cartesian
0.2445902871 0.4236430502 13.4865493774
-1.9567248774 4.2364327288 13.4865493774
4.6472210931 0.4236430502 13.4865493774
2.4459056901 4.2364327288 13.4865493774
0.2445902856 2.9655029154 19.9587974548
-1.9567251158 6.7782930708 19.9587974548
4.6472210931 2.9655029154 19.9587974548
2.4459056901 6.7782930708 19.9587974548
2.4459056901 1.6945728636 20.8834037781
0.2445902842 5.5073627806 20.8834037781
6.8485360193 1.6945728636 20.8834037781
4.6472210931 5.5073627806 20.8834037781
0.2445902856 2.9655029154 14.4111557007
-1.9567251158 6.7782930708 14.4111557007
4.6472210931 2.9655029154 14.4111557007
2.4459056901 6.7782930708 14.4111557007
2.4459056901 1.6945728636 15.3357620239
0.2445902842 5.5073627806 15.3357620239
6.8485360193 1.6945728636 15.3357620239
4.6472210931 5.5073627806 15.3357620239
0.2445902871 0.4236430502 16.2603683472
-1.9567248774 4.2364327288 16.2603683472
4.6472210931 0.4236430502 16.2603683472
2.4459056901 4.2364327288 16.2603683472
0.2445902856 2.9655029154 17.1849746704
-1.9567251158 6.7782930708 17.1849746704
4.6472210931 2.9655029154 17.1849746704
2.4459056901 6.7782930708 17.1849746704
2.4459056901 1.6945728636 18.1095829010
0.2445902842 5.5073627806 18.1095829010
6.8485360193 1.6945728636 18.1095829010
4.6472210931 5.5073627806 18.1095829010
0.2445902871 0.4236430502 19.0341892242
-1.9567248774 4.2364327288 19.0341892242
4.6472210931 0.4236430502 19.0341892242
2.4459056901 4.2364327288 19.0341892242
-2.6904993010 7.2019366598 0.0000000000
-2.6904993010 7.2019366598 9.1892404556
-1.2229552222 4.6600765562 0.0000000000
-1.2229525996 6.3546485281 2.2973098755
-1.2229552222 4.6600765562 9.1892404556
0.2445878936 7.2019366598 0.0000000000
0.2445885734 2.1182169294 0.0000000000
-1.2229525996 6.3546485281 11.4865503311
0.2445912771 3.8127884245 2.2973098755
0.2445878936 7.2019366598 9.1892404556
0.2445885734 2.1182169294 9.1892404556
1.7121317434 4.6600765562 0.0000000000
0.2445912771 3.8127884245 11.4865503311
1.7121344852 6.3546485281 2.2973098755
1.7121352004 1.2709287381 2.2973098755
1.7121317434 4.6600765562 9.1892404556
3.1796748685 7.2019366598 0.0000000000
3.1796755838 2.1182169294 0.0000000000
1.7121344852 6.3546485281 11.4865503311
1.7121352004 1.2709287381 11.4865503311
3.1796784448 3.8127884245 2.2973098755
3.1796748685 7.2019366598 9.1892404556
3.1796755838 2.1182169294 9.1892404556
4.6472187089 4.6600765562 0.0000000000
3.1796784448 3.8127884245 11.4865503311
4.6472215699 6.3546485281 2.2973098755
4.6472225236 1.2709287381 2.2973098755
4.6472187089 4.6600765562 9.1892404556
6.1147627878 2.1182169294 0.0000000000
4.6472215699 6.3546485281 11.4865503311
4.6472225236 1.2709287381 11.4865503311
6.1147651719 3.8127884245 2.2973098755
6.1147627878 2.1182169294 9.1892404556
6.1147651719 3.8127884245 11.4865503311
7.5823092508 1.2709287381 2.2973098755
7.5823092508 1.2709287381 11.4865503311
-2.6904993010 7.2019366598 4.5946202278
-1.2229552222 4.6600765562 4.5946202278
-1.2229525996 6.3546485281 6.8919301033
0.2445878936 7.2019366598 4.5946202278
0.2445885734 2.1182169294 4.5946202278
0.2445912771 3.8127884245 6.8919301033
1.7121317434 4.6600765562 4.5946202278
1.7121344852 6.3546485281 6.8919301033
1.7121352004 1.2709287381 6.8919301033
3.1796748685 7.2019366598 4.5946202278
3.1796755838 2.1182169294 4.5946202278
3.1796784448 3.8127884245 6.8919301033
4.6472187089 4.6600765562 4.5946202278
4.6472215699 6.3546485281 6.8919301033
4.6472225236 1.2709287381 6.8919301033
6.1147627878 2.1182169294 4.5946202278
6.1147651719 3.8127884245 6.8919301033
7.5823092508 1.2709287381 6.8919301033
