VASP @ Device Studio
1.0
8.8052610000	0.0000000000	0.0000000000
-4.4026305000	7.6255797100	0.0000000000
0.0000000000	0.0000000000	22.8834200000
Ti
90
Cartesian
-2.2013521194 7.2018709183 13.4865493774
-0.0000367154 3.3890802860 13.4865493774
2.2012784481 7.2018704414 13.4865493774
4.4025940895 3.3890807629 13.4865493774
2.2012784481 2.1181507111 19.9587974548
-0.0000368327 5.9309406281 19.9587974548
6.6039090157 2.1181507111 19.9587974548
4.4025940895 5.9309406281 19.9587974548
4.4025940895 0.8472208977 20.8834037781
2.2012784481 4.6600108147 20.8834037781
0.0000375575 0.8472207785 20.8834037781
-2.2012777328 4.6600108147 20.8834037781
2.2012784481 2.1181507111 14.4111557007
-0.0000367168 5.9309406281 14.4111557007
6.6039090157 2.1181507111 14.4111557007
4.4025940895 5.9309406281 14.4111557007
4.4025940895 0.8472207785 15.3357620239
2.2012784481 4.6600108147 15.3357620239
0.0000374906 0.8472208977 15.3357620239
-2.2012777328 4.6600108147 15.3357620239
-2.2013518810 7.2018704414 16.2603683472
-0.0000367154 3.3890805244 16.2603683472
2.2012784481 7.2018704414 16.2603683472
4.4025940895 3.3890805244 16.2603683472
2.2012784481 2.1181507111 17.1849746704
-0.0000367168 5.9309406281 17.1849746704
6.6039090157 2.1181507111 17.1849746704
4.4025940895 5.9309406281 17.1849746704
4.4025940895 0.8472207785 18.1095829010
2.2012784481 4.6600108147 18.1095829010
0.0000375575 0.8472207785 18.1095829010
-2.2012777328 4.6600108147 18.1095829010
-2.2013516426 7.2018699646 19.0341892242
-0.0000368312 3.3890805244 19.0341892242
2.2012786865 7.2018704414 19.0341892242
4.4025940895 3.3890805244 19.0341892242
-2.2013564110 6.3547163010 0.0000000000
-2.2013564110 6.3547163010 9.1892404556
-0.7338125706 3.8128566742 0.0000000000
-0.7338098884 5.5074281693 2.2973098755
-0.7338125706 3.8128566742 9.1892404556
0.7337306142 6.3547163010 0.0000000000
0.7337312698 1.2709969282 0.0000000000
-0.7338098884 5.5074281693 11.4865503311
0.7337340117 2.9655683041 2.2973098755
0.7337306142 6.3547163010 9.1892404556
0.7337312698 1.2709969282 9.1892404556
2.2012743950 3.8128566742 0.0000000000
0.7337340117 2.9655683041 11.4865503311
2.2012772560 5.5074281693 2.2973098755
2.2012779713 0.4237086773 2.2973098755
2.2012743950 3.8128566742 9.1892404556
3.6688175201 6.3547163010 0.0000000000
3.6688182354 1.2709969282 0.0000000000
2.2012772560 5.5074281693 11.4865503311
2.2012779713 0.4237086773 11.4865503311
3.6688210964 2.9655683041 2.2973098755
3.6688175201 6.3547163010 9.1892404556
3.6688182354 1.2709969282 9.1892404556
5.1363611221 3.8128566742 0.0000000000
3.6688210964 2.9655683041 11.4865503311
5.1363639832 5.5074281693 2.2973098755
5.1363649368 0.4237086773 2.2973098755
5.1363611221 3.8128566742 9.1892404556
6.6039056778 1.2709969282 0.0000000000
5.1363639832 5.5074281693 11.4865503311
5.1363649368 0.4237086773 11.4865503311
6.6039075851 2.9655683041 2.2973098755
6.6039056778 1.2709969282 9.1892404556
6.6039075851 2.9655683041 11.4865503311
8.0714521408 0.4237086773 2.2973098755
8.0714521408 0.4237086773 11.4865503311
-2.2013564110 6.3547163010 4.5946202278
-0.7338125706 3.8128566742 4.5946202278
-0.7338098884 5.5074281693 6.8919301033
0.7337306142 6.3547163010 4.5946202278
0.7337312698 1.2709969282 4.5946202278
0.7337340117 2.9655683041 6.8919301033
2.2012743950 3.8128566742 4.5946202278
2.2012772560 5.5074281693 6.8919301033
2.2012779713 0.4237086773 6.8919301033
3.6688175201 6.3547163010 4.5946202278
3.6688182354 1.2709969282 4.5946202278
3.6688210964 2.9655683041 6.8919301033
5.1363611221 3.8128566742 4.5946202278
5.1363639832 5.5074281693 6.8919301033
5.1363649368 0.4237086773 6.8919301033
6.6039056778 1.2709969282 4.5946202278
6.6039075851 2.9655683041 6.8919301033
8.0714521408 0.4237086773 6.8919301033
