VASP @ Device Studio
1.0
6.3097600900	0.0000000000	0.0000000000
0.0000000000	9.4646396600	0.0000000000
0.0000000000	0.0000000000	19.0000000000
Ti
68
Cartesian
5.5210400788 0.3943599858 9.5000000000
2.3661600338 0.3943599858 9.5000000000
5.5210400788 0.3943599858 12.5000000000
2.3661600338 0.3943599858 12.5000000000
5.5210400788 0.3943599858 15.5000000000
2.3661600338 0.3943599858 15.5000000000
5.5210400788 3.5492398725 9.5000000000
2.3661600338 3.5492398725 9.5000000000
5.5210400788 3.5492398725 12.5000000000
2.3661600338 3.5492398725 12.5000000000
5.5210400788 3.5492398725 15.5000000000
2.3661600338 3.5492398725 15.5000000000
5.5210400788 6.7041197592 9.5000000000
2.3661600338 6.7041197592 9.5000000000
5.5210400788 6.7041197592 12.5000000000
2.3661600338 6.7041197592 12.5000000000
5.5210400788 6.7041197592 15.5000000000
2.3661600338 6.7041197592 15.5000000000
0.7887200113 1.9717999292 11.0000000000
3.9436000563 1.9717999292 11.0000000000
0.7887200113 1.9717999292 14.0000000000
3.9436000563 1.9717999292 14.0000000000
0.7887200113 1.9717999292 17.0000000000
3.9436000563 1.9717999292 17.0000000000
0.7887200113 5.1266798158 11.0000000000
3.9436000563 5.1266798158 11.0000000000
0.7887200113 5.1266798158 14.0000000000
3.9436000563 5.1266798158 14.0000000000
0.7887200113 5.1266798158 17.0000000000
3.9436000563 5.1266798158 17.0000000000
0.7887200113 8.2815597025 11.0000000000
3.9436000563 8.2815597025 11.0000000000
0.7887200113 8.2815597025 14.0000000000
3.9436000563 8.2815597025 14.0000000000
0.7887200113 8.2815597025 17.0000000000
3.9436000563 8.2815597025 17.0000000000
0.7887190083 5.9153997875 6.7499980927
3.9435990533 5.9153997875 6.7499980927
0.7887205127 5.9153997875 2.2499980927
3.9436005577 5.9153997875 2.2499980927
0.7887195098 1.1830799575 6.7499980927
3.9435995548 1.1830799575 6.7499980927
0.7887190083 1.1830799575 2.2500000000
3.9435990533 1.1830799575 2.2500000000
0.7887190083 3.5492398725 0.7500000000
3.9435990533 3.5492398725 0.7500000000
0.7887195098 8.2815597025 0.7500000000
3.9435995548 8.2815597025 0.7500000000
0.7887190083 3.5492398725 5.2500019073
3.9435990533 3.5492398725 5.2500019073
0.7887190083 8.2815597025 5.2500019073
3.9435990533 8.2815597025 5.2500019073
2.3661570250 8.2815597025 3.0000000000
5.5210370700 8.2815597025 3.0000000000
2.3661560221 3.5492398725 3.0000000000
5.5210360671 3.5492398725 3.0000000000
2.3661570250 3.5492398725 7.5000019073
5.5210370700 3.5492398725 7.5000019073
2.3661570250 8.2815597025 7.5000000000
5.5210370700 8.2815597025 7.5000000000
2.3661600338 5.9153997875 4.4999980927
5.5210400788 5.9153997875 4.4999980927
2.3661600338 5.9153997875 0.0000000000
5.5210400788 5.9153997875 0.0000000000
2.3661610367 1.1830799575 4.5000000000
5.5210410817 1.1830799575 4.5000000000
2.3661610367 1.1830799575 0.0000000000
5.5210410817 1.1830799575 0.0000000000
