VASP @ Device Studio
1.0
9.5130195618	0.0000000000	0.0000000000
0.0000000000	9.3508596420	0.0000000000
0.0000000000	0.0000000000	20.3442497253
Ti
96
Cartesian
1.5855016065 3.5065723658 7.2045903977
1.5855016065 8.1820021868 7.2045903977
6.3420113874 3.5065723658 7.2045903977
6.3420113874 8.1820021868 7.2045903977
1.5855016065 3.5065723658 4.3227666679
1.5855016065 8.1820021868 4.3227666679
6.3420113874 3.5065723658 4.3227666679
6.3420113874 8.1820021868 4.3227666679
1.5855016065 3.5065723658 1.4409221721
1.5855016065 8.1820021868 1.4409221721
6.3420113874 3.5065723658 1.4409221721
6.3420113874 8.1820021868 1.4409221721
3.9637614584 3.5065723658 5.7636886884
3.9637614584 8.1820021868 5.7636886884
8.7202712393 3.5065723658 5.7636886884
8.7202712393 8.1820021868 5.7636886884
3.9637614584 3.5065723658 2.8818443442
3.9637614584 8.1820021868 2.8818443442
8.7202712393 3.5065723658 2.8818443442
8.7202712393 8.1820021868 2.8818443442
3.9637614584 3.5065723658 0.0000000000
3.9637614584 8.1820021868 0.0000000000
8.7202712393 3.5065723658 0.0000000000
8.7202712393 8.1820021868 0.0000000000
0.7927484643 1.1688574553 5.7636680740
0.7927484643 5.8442872763 5.7636680740
5.5492582452 1.1688574553 5.7636680740
5.5492582452 5.8442872763 5.7636680740
0.7927484643 1.1688574553 2.8818443442
0.7927484643 5.8442872763 2.8818443442
5.5492582452 1.1688574553 2.8818443442
5.5492582452 5.8442872763 2.8818443442
0.7927484643 1.1688574553 0.0000000000
0.7927484643 5.8442872763 0.0000000000
5.5492582452 1.1688574553 0.0000000000
5.5492582452 5.8442872763 0.0000000000
3.1710080326 1.1688574553 7.2045903977
3.1710080326 5.8442872763 7.2045903977
7.9275178135 1.1688574553 7.2045903977
7.9275178135 5.8442872763 7.2045903977
3.1710080326 1.1688574553 4.3227666679
3.1710080326 5.8442872763 4.3227666679
7.9275178135 1.1688574553 4.3227666679
7.9275178135 5.8442872763 4.3227666679
3.1710080326 1.1688574553 1.4409221721
3.1710080326 5.8442872763 1.4409221721
7.9275178135 1.1688574553 1.4409221721
7.9275178135 5.8442872763 1.4409221721
3.5673823002 3.5065723658 17.7780673256
3.5673823002 8.1820021868 17.7780673256
8.3238920811 3.5065723658 17.7780673256
8.3238920811 8.1820021868 17.7780673256
1.1891274807 1.1688574553 17.7780673256
1.1891274807 5.8442872763 17.7780673256
5.9456372616 1.1688574553 17.7780673256
5.9456372616 5.8442872763 17.7780673256
1.1891274807 3.5065723658 16.1766279430
1.1891274807 8.1820021868 16.1766279430
5.9456372616 3.5065723658 16.1766279430
5.9456372616 8.1820021868 16.1766279430
3.5673823002 1.1688574553 16.1766279430
3.5673823002 5.8442872763 16.1766279430
8.3238920811 1.1688574553 16.1766279430
8.3238920811 5.8442872763 16.1766279430
3.5673823002 3.5065723658 14.5751703713
3.5673823002 8.1820021868 14.5751703713
8.3238920811 3.5065723658 14.5751703713
8.3238920811 8.1820021868 14.5751703713
1.1891274807 1.1688574553 14.5751703713
1.1891274807 5.8442872763 14.5751703713
5.9456372616 1.1688574553 14.5751703713
5.9456372616 5.8442872763 14.5751703713
1.1891274807 3.5065723658 12.9737309887
1.1891274807 8.1820021868 12.9737309887
5.9456372616 3.5065723658 12.9737309887
5.9456372616 8.1820021868 12.9737309887
3.5673823002 1.1688574553 12.9737309887
3.5673823002 5.8442872763 12.9737309887
8.3238920811 1.1688574553 12.9737309887
8.3238920811 5.8442872763 12.9737309887
3.5673823002 3.5065723658 11.3722734169
3.5673823002 8.1820021868 11.3722734169
8.3238920811 3.5065723658 11.3722734169
8.3238920811 8.1820021868 11.3722734169
1.1891274807 1.1688574553 11.3722734169
1.1891274807 5.8442872763 11.3722734169
5.9456372616 1.1688574553 11.3722734169
5.9456372616 5.8442872763 11.3722734169
1.1891274807 3.5065723658 9.7708346406
1.1891274807 8.1820021868 9.7708346406
5.9456372616 3.5065723658 9.7708346406
5.9456372616 8.1820021868 9.7708346406
3.5673823002 1.1688574553 9.7708346406
3.5673823002 5.8442872763 9.7708346406
8.3238920811 1.1688574553 9.7708346406
8.3238920811 5.8442872763 9.7708346406
