VASP @ Device Studio
1.0
6.3915400500	0.0000000000	0.0000000000
0.0000000000	9.5873098400	0.0000000000
0.0000000000	0.0000000000	22.7500000000
Ti
84
Cartesian
0.7989424428 0.7989424867 13.2500000000
3.9947125313 0.7989424867 13.2500000000
0.7989424428 0.7989424867 16.2500000000
3.9947125313 0.7989424867 16.2500000000
0.7989424428 0.7989424867 19.2500000000
3.9947125313 0.7989424867 19.2500000000
0.7989424428 3.9947124333 13.2500000000
3.9947125313 3.9947124333 13.2500000000
0.7989424428 3.9947124333 16.2500000000
3.9947125313 3.9947124333 16.2500000000
0.7989424428 3.9947124333 19.2500000000
3.9947125313 3.9947124333 19.2500000000
0.7989424428 7.1904823800 13.2500000000
3.9947125313 7.1904823800 13.2500000000
0.7989424428 7.1904823800 16.2500000000
3.9947125313 7.1904823800 16.2500000000
0.7989424428 7.1904823800 19.2500000000
3.9947125313 7.1904823800 19.2500000000
2.3968275188 2.3968274600 14.7500000000
5.5925975438 2.3968274600 14.7500000000
2.3968275188 2.3968274600 17.7500000000
5.5925975437 2.3968274600 17.7500000000
2.3968275188 2.3968274600 20.7500000000
5.5925975437 2.3968274600 20.7500000000
2.3968275188 5.5925974067 14.7500000000
5.5925975438 5.5925974067 14.7500000000
2.3968275188 5.5925974067 17.7500000000
5.5925975437 5.5925974067 17.7500000000
2.3968275188 5.5925974067 20.7500000000
5.5925975437 5.5925974067 20.7500000000
2.3968275188 8.7883673533 14.7500000000
5.5925975438 8.7883673533 14.7500000000
2.3968275188 8.7883673533 17.7500000000
5.5925975438 8.7883673533 17.7500000000
2.3968275188 8.7883673533 20.7500000000
5.5925975438 8.7883673533 20.7500000000
0.7989414903 1.5978880210 9.0000000000
3.9947115153 1.5978880210 9.0000000000
0.7989430142 6.3915429410 9.0000000000
3.9947130392 6.3915429410 9.0000000000
0.7989419983 1.5978880210 0.0000000000
3.9947120233 1.5978880210 0.0000000000
0.7989414903 6.3915409093 0.0000000000
3.9947115153 6.3915409093 0.0000000000
0.7989414903 7.9894258826 2.2500000000
3.9947115153 7.9894258826 2.2500000000
0.7989419983 7.9894258826 11.2500000000
3.9947120233 7.9894258826 11.2500000000
0.7989414903 3.1957689307 2.2500000000
3.9947115153 3.1957689307 2.2500000000
0.7989414903 3.1957689307 11.2500000000
3.9947115153 3.1957689307 11.2500000000
2.3968244711 5.5925984226 11.2500000000
5.5925944961 5.5925984226 11.2500000000
2.3968234551 5.5925984226 2.2500000000
5.5925934801 5.5925984226 2.2500000000
2.3968244711 0.7989414707 2.2500000000
5.5925944961 0.7989414707 2.2500000000
2.3968244711 0.7989424867 11.2500000000
5.5925944961 0.7989424867 11.2500000000
2.3968275188 3.9947154810 9.0000000000
5.5925975438 3.9947154810 9.0000000000
2.3968275188 8.7883683693 9.0000000000
5.5925975438 8.7883683693 9.0000000000
2.3968285347 3.9947134493 0.0000000000
5.5925985597 3.9947134493 0.0000000000
2.3968285347 8.7883683693 0.0000000000
5.5925985597 8.7883683693 0.0000000000
2.3968244711 0.7989414707 6.7500000000
5.5925944961 0.7989414707 6.7500000000
0.7989419983 1.5978880210 4.5000000000
3.9947120233 1.5978880210 4.5000000000
0.7989414903 3.1957689307 6.7500000000
3.9947115153 3.1957689307 6.7500000000
2.3968285347 3.9947134493 4.5000000000
5.5925985597 3.9947134493 4.5000000000
2.3968234551 5.5925984226 6.7500000000
5.5925934801 5.5925984226 6.7500000000
0.7989414903 6.3915409093 4.5000000000
3.9947115153 6.3915409093 4.5000000000
0.7989414903 7.9894258826 6.7500000000
3.9947115153 7.9894258826 6.7500000000
2.3968285347 8.7883683693 4.5000000000
5.5925985597 8.7883683693 4.5000000000
