VASP @ Device Studio
1.0
5.7455902100	0.0000000000	0.0000000000
0.0000000000	9.0727500916	0.0000000000
0.0000000000	0.0000000000	20.3220005035
Ti
64
Cartesian
0.2394014299 7.9386563301 9.3330612183
0.2394014299 3.4022808075 9.3330612183
3.1121964455 7.9386563301 9.3330612183
3.1121964455 3.4022808075 9.3330612183
1.6757990122 5.6704692841 10.1815452576
1.6757990122 1.1340941191 10.1815452576
4.5485939980 5.6704692841 10.1815452576
4.5485939980 1.1340941191 10.1815452576
1.6757990122 7.9386563301 6.7876701355
1.6757990122 3.4022808075 6.7876701355
4.5485939980 7.9386563301 6.7876701355
4.5485939980 3.4022808075 6.7876701355
0.2394014299 5.6704683304 7.6361536980
0.2394014299 1.1340931654 7.6361536980
3.1121964455 5.6704683304 7.6361536980
3.1121964455 1.1340931654 7.6361536980
0.2394014299 7.9386563301 4.2422981262
0.2394014299 3.4022805691 4.2422981262
3.1121964455 7.9386563301 4.2422981262
3.1121964455 3.4022805691 4.2422981262
1.6757990122 5.6704683304 5.0907611847
1.6757990122 1.1340930462 5.0907611847
4.5485939980 5.6704683304 5.0907611847
4.5485939980 1.1340930462 5.0907611847
1.6757990122 7.9386563301 1.6969070435
1.6757990122 3.4022805691 1.6969070435
4.5485939980 7.9386563301 1.6969070435
4.5485939980 3.4022805691 1.6969070435
0.2394014299 5.6704683304 2.5453910828
0.2394014299 1.1340929270 2.5453910828
3.1121964455 5.6704683304 2.5453910828
3.1121964455 1.1340929270 2.5453910828
2.6333935261 5.6704692841 12.8363914490
2.6333935261 1.1340942383 12.8363914490
5.5061888695 5.6704692841 12.8363914490
5.5061888695 1.1340942383 12.8363914490
0.7181987166 5.6704692841 15.4912166595
0.7181987166 1.1340942383 15.4912166595
3.5909938812 5.6704692841 15.4912166595
3.5909938812 1.1340942383 15.4912166595
1.6757990122 5.6704692841 18.1460609436
1.6757990122 1.1340943575 18.1460628510
4.5485939980 5.6704692841 18.1460609436
4.5485939980 1.1340943575 18.1460628510
0.7181987166 7.9386563301 11.5089588165
0.7181987166 3.4022817612 11.5089588165
3.5909938812 7.9386563301 11.5089588165
3.5909938812 3.4022817612 11.5089588165
1.6757990122 7.9386563301 14.1638050079
1.6757990122 3.4022817612 14.1638050079
4.5485939980 7.9386563301 14.1638050079
4.5485939980 3.4022817612 14.1638050079
2.6333935261 7.9386563301 16.8186473846
2.6333935261 3.4022819996 16.8186492920
5.5061888695 7.9386563301 16.8186473846
5.5061888695 3.4022819996 16.8186492920
0.7181987166 7.9386572838 19.4734745026
0.7181987166 3.4022819996 19.4734745026
3.5909938812 7.9386572838 19.4734745026
3.5909938812 3.4022819996 19.4734745026
4.5485939980 1.1340929270 0.0000000894
1.6757990122 1.1340929270 0.0000000894
4.5485939980 5.6704678535 0.0000000000
1.6757990122 5.6704678535 -0.0000000298
