VASP @ Device Studio
1.0
8.8052610000	0.0000000000	0.0000000000
-4.4026305000	7.6255797100	0.0000000000
0.0000000000	0.0000000000	22.8834200000
Ti
90
Cartesian
-3.3019895554 6.9901437759 13.4865493774
-1.1006743908 3.1773536205 13.4865493774
1.1006411314 6.9901437759 13.4865493774
3.3019561768 3.1773536205 13.4865493774
1.1006408930 1.9064238071 19.9587974548
-1.1006743908 5.7192134857 19.9587974548
5.5032715797 1.9064238071 19.9587974548
3.3019561768 5.7192134857 19.9587974548
3.3019561768 0.6354939342 20.8834037781
1.1006408930 4.4482836723 20.8834037781
7.7045865059 0.6354939342 20.8834037781
5.5032715797 4.4482836723 20.8834037781
1.1006408930 1.9064238071 14.4111557007
-1.1006743908 5.7192134857 14.4111557007
5.5032715797 1.9064238071 14.4111557007
3.3019561768 5.7192134857 14.4111557007
3.3019561768 0.6354939342 15.3357620239
1.1006408930 4.4482836723 15.3357620239
7.7045865059 0.6354939342 15.3357620239
5.5032715797 4.4482836723 15.3357620239
-3.3019895554 6.9901437759 16.2603683472
-1.1006743908 3.1773536205 16.2603683472
1.1006411314 6.9901437759 16.2603683472
3.3019561768 3.1773536205 16.2603683472
1.1006408930 1.9064238071 17.1849746704
-1.1006743908 5.7192134857 17.1849746704
5.5032715797 1.9064238071 17.1849746704
3.3019561768 5.7192134857 17.1849746704
3.3019561768 0.6354939342 18.1095829010
1.1006408930 4.4482836723 18.1095829010
7.7045865059 0.6354939342 18.1095829010
5.5032715797 4.4482836723 18.1095829010
-3.3019895554 6.9901437759 19.0341892242
-1.1006743908 3.1773536205 19.0341892242
1.1006411314 6.9901437759 19.0341892242
3.3019561768 3.1773536205 19.0341892242
-2.5681922436 6.5664439201 0.0000000000
-2.5681922436 6.5664439201 9.1892404556
-1.1006481647 4.0245842934 0.0000000000
-1.1006455421 5.7191557884 2.2973098755
-1.1006481647 4.0245842934 9.1892404556
0.3668949604 6.5664439201 0.0000000000
0.3668956459 1.4827243090 0.0000000000
-1.1006455421 5.7191557884 11.4865503311
0.3668983579 3.1772956848 2.2973098755
0.3668949604 6.5664439201 9.1892404556
0.3668956459 1.4827243090 9.1892404556
1.8344389200 4.0245842934 0.0000000000
0.3668983579 3.1772956848 11.4865503311
1.8344415426 5.7191557884 2.2973098755
1.8344422579 0.6354361176 2.2973098755
1.8344389200 4.0245842934 9.1892404556
3.3019819260 6.5664439201 0.0000000000
3.3019826412 1.4827243090 0.0000000000
1.8344415426 5.7191557884 11.4865503311
1.8344422579 0.6354361176 11.4865503311
3.3019855022 3.1772956848 2.2973098755
3.3019819260 6.5664439201 9.1892404556
3.3019826412 1.4827243090 9.1892404556
4.7695255280 4.0245842934 0.0000000000
3.3019855022 3.1772956848 11.4865503311
4.7695283890 5.7191557884 2.2973098755
4.7695293427 0.6354361176 2.2973098755
4.7695255280 4.0245842934 9.1892404556
6.2370700836 1.4827243090 0.0000000000
4.7695283890 5.7191557884 11.4865503311
4.7695293427 0.6354361176 11.4865503311
6.2370719910 3.1772956848 2.2973098755
6.2370700836 1.4827243090 9.1892404556
6.2370719910 3.1772956848 11.4865503311
7.7046165466 0.6354361176 2.2973098755
7.7046165466 0.6354361176 11.4865503311
-2.5681922436 6.5664439201 4.5946202278
-1.1006481647 4.0245842934 4.5946202278
-1.1006455421 5.7191557884 6.8919301033
0.3668949604 6.5664439201 4.5946202278
0.3668956459 1.4827243090 4.5946202278
0.3668983579 3.1772956848 6.8919301033
1.8344389200 4.0245842934 4.5946202278
1.8344415426 5.7191557884 6.8919301033
1.8344422579 0.6354361176 6.8919301033
3.3019819260 6.5664439201 4.5946202278
3.3019826412 1.4827243090 4.5946202278
3.3019855022 3.1772956848 6.8919301033
4.7695255280 4.0245842934 4.5946202278
4.7695283890 5.7191557884 6.8919301033
4.7695293427 0.6354361176 6.8919301033
6.2370700836 1.4827243090 4.5946202278
6.2370719910 3.1772956848 6.8919301033
7.7046165466 0.6354361176 6.8919301033
