total_structure
1.0
   3.5061499999999999    0.0000000000000000    0.0000000000000002
   0.0000000000000019   12.0001999999999995    0.0000000000000007
   0.0000000000000000    0.0000000000000000   26.3516049620000032
Cr Fe N
16 36 16
Selective dynamics
direct
   0.0000000000000000    0.0000000000000000    0.2385555199034408 F F F Cr
  -0.0000000000000000    0.2500000000000000    0.2385555199034408 F F F Cr
   0.5000000000000000    0.1250000000000000    0.1590336118442606 F F F Cr
   0.5000000000000000    0.3750000000000000    0.1590336118442606 F F F Cr
   0.0000000000000000    0.0000000000000000    0.0795219080591802 F F F Cr
  -0.0000000000000000    0.2500000000000000    0.0795219080591801 F F F Cr
   0.5000000000000000    0.1250000000000000   -0.0000000000000000 F F F Cr
   0.5000000000000000    0.3750000000000000   -0.0000000000000000 F F F Cr
  -0.0000000000000000    0.5000000000000000    0.2385555199034407 F F F Cr
  -0.0000000000000000    0.7500000000000000    0.2385555199034408 F F F Cr
   0.5000000000000000    0.6250000000000000    0.1590336118442606 F F F Cr
   0.4999999999999999    0.8749999999999999    0.1590336118442606 F F F Cr
  -0.0000000000000000    0.5000000000000000    0.0795219080591802 F F F Cr
  -0.0000000000000000    0.7500000000000000    0.0795219080591801 F F F Cr
   0.5000000000000000    0.6250000000000000   -0.0000000000000000 F F F Cr
   0.4999999999999999    0.8749999999999999   -0.0000000000000000 F F F Cr
   0.9933200000000000    0.7184400000000000    0.6205132505052159 F F F Fe
   0.4933200000000000    0.5543100000000000    0.6073395326424672 F F F Fe
   0.4933200000000000    0.7391600000000000    0.5670122414003421 F F F Fe
   0.9933200000000000    0.5750200000000000    0.5538385235375933 F F F Fe
   0.9933200000000001    0.3901700000000000    0.5941556105056186 F F F Fe
   0.4933200000000000    0.2260400000000000    0.5809818926428697 F F F Fe
   0.4933200000000000    0.4108899999999999    0.5406546014007447 F F F Fe
   0.9933200000000001    0.2467500000000000    0.5274808835379959 F F F Fe
   0.9933200000000000    0.0619000000000000    0.5677979705060212 F F F Fe
   0.4933200000000000    0.8977699999999998    0.5546242526432724 F F F Fe
   0.4933200000000000    0.0826200000000000    0.5142969614011474 F F F Fe
   0.9933200000000000    0.9184800000000000    0.5011232435383985 F F F Fe
   0.9933200000000000    0.7598700000000000    0.5135214365695681 F F F Fe
   0.4933200000000000    0.5957300000000000    0.5003375144327196 F F F Fe
   0.4933200000000000    0.7805800000000001    0.4600204274646943 F F F Fe
   0.9933200000000001    0.6164500000000001    0.4468365053278457 F F F Fe
   0.9933200000000001    0.4315999999999999    0.4871637965699707 F F F Fe
   0.4933200000000000    0.2674600000000000    0.4739798744331222 F F F Fe
   0.4933200000000000    0.4523100000000000    0.4336627874650970 F F F Fe
   0.9933200000000001    0.2881800000000000    0.4204788653282484 F F F Fe
   0.9933199999999999    0.1033300000000000    0.4608061565703733 F F F Fe
   0.4933200000000000    0.9391999999999999    0.4476222344335247 F F F Fe
   0.4933200000000000    0.1240400000000000    0.4073051474654995 F F F Fe
   0.9933200000000000    0.9599100000000000    0.3941212253286510 F F F Fe
   0.9933200000000000    0.8013000000000000    0.4065194183598204 F F F Fe
   0.4933200000000000    0.6371599999999998    0.3933457004970716 F F F Fe
   0.4933200000000000    0.8220099999999999    0.3530184092549467 F F F Fe
   0.9933200000000001    0.6578799999999999    0.3398446913921979 F F F Fe
   0.9933200000000001    0.4730300000000000    0.3801617783602230 F F F Fe
   0.4933200000000000    0.3088900000000000    0.3669880604974742 F F F Fe
   0.4933200000000000    0.4937400000000000    0.3266607692553493 F F F Fe
   0.9933200000000000    0.3296100000000000    0.3134870513926005 F F F Fe
   0.9933200000000001    0.1447600000000000    0.3538041383606257 F F F Fe
   0.4933200000000000    0.9806200000000000    0.3406304204978768 F F F Fe
   0.4933200000000000    0.1654700000000000    0.3003031292557519 F F F Fe
   0.9933200000000000    0.0013400000000000    0.2871294113930031 F F F Fe
   0.5000000000000000    0.1250000000000000    0.2385555199034408 F F F N
   0.5000000000000000    0.3750000000000000    0.2385555199034407 F F F N
   0.0000000000000000    0.0000000000000000    0.1590336118442606 F F F N
  -0.0000000000000000    0.2500000000000000    0.1590336118442606 F F F N
   0.5000000000000000    0.1250000000000000    0.0795219080591801 F F F N
   0.5000000000000000    0.3750000000000000    0.0795219080591802 F F F N
   0.0000000000000000    0.0000000000000000    0.0000000000000000 F F F N
  -0.0000000000000000    0.2500000000000000   -0.0000000000000000 F F F N
   0.5000000000000000    0.6250000000000000    0.2385555199034408 F F F N
   0.4999999999999999    0.8749999999999999    0.2385555199034408 F F F N
  -0.0000000000000000    0.5000000000000000    0.1590336118442606 F F F N
  -0.0000000000000000    0.7500000000000000    0.1590336118442606 F F F N
   0.5000000000000000    0.6250000000000000    0.0795219080591801 F F F N
   0.4999999999999999    0.8749999999999999    0.0795219080591802 F F F N
  -0.0000000000000000    0.5000000000000000   -0.0000000000000000 F F F N
  -0.0000000000000000    0.7500000000000000   -0.0000000000000000 F F F N
