Ti96 Al1
1.0
9.513020 0.000000 0.000000
0.000000 9.350860 0.000000
0.000000 0.000000 18.547230
Ti Al
96 1
Selective dynamics
direct
0.141972 0.368355 0.404764 T T T Ti
0.647274 0.349541 0.403039 T T T Ti
0.150667 0.859084 0.395571 T T T Ti
0.677029 0.898080 0.391700 T T T Ti
0.160966 0.375259 0.236120 T T T Ti
0.662842 0.375812 0.233456 T T T Ti
0.164290 0.875334 0.235301 T T T Ti
0.657729 0.871022 0.237222 T T T Ti
0.166663 0.375002 0.077688 F F F Ti
0.666667 0.375001 0.077689 F F F Ti
0.166676 0.874992 0.077702 F F F Ti
0.666668 0.875010 0.077700 F F F Ti
0.407306 0.373668 0.311105 T T T Ti
0.900998 0.373166 0.318785 T T T Ti
0.407669 0.890130 0.325828 T T T Ti
0.915690 0.881267 0.312720 T T T Ti
0.416670 0.374987 0.155327 F F F Ti
0.916662 0.374978 0.155331 F F F Ti
0.416663 0.875019 0.155367 F F F Ti
0.916695 0.874980 0.155341 F F F Ti
0.416668 0.374999 0.000002 F F F Ti
0.916664 0.375000 0.000001 F F F Ti
0.416665 0.874997 0.000016 F F F Ti
0.916673 0.874994 0.000008 F F F Ti
0.099002 0.126834 0.318784 T T T Ti
0.592694 0.126332 0.311104 T T T Ti
0.084310 0.618733 0.312719 T T T Ti
0.592331 0.609870 0.325827 T T T Ti
0.083338 0.125024 0.155331 F F F Ti
0.583330 0.125015 0.155326 F F F Ti
0.083305 0.625022 0.155341 F F F Ti
0.583337 0.624982 0.155367 F F F Ti
0.083336 0.125001 0.000001 F F F Ti
0.583332 0.125002 0.000002 F F F Ti
0.083327 0.625006 0.000008 F F F Ti
0.583335 0.625003 0.000017 F F F Ti
0.352725 0.150459 0.403039 T T T Ti
0.858027 0.131645 0.404764 T T T Ti
0.322970 0.601920 0.391700 T T T Ti
0.849332 0.640916 0.395571 T T T Ti
0.337157 0.124188 0.233456 T T T Ti
0.839033 0.124741 0.236120 T T T Ti
0.342270 0.628978 0.237223 T T T Ti
0.835709 0.624666 0.235301 T T T Ti
0.333332 0.125000 0.077689 F F F Ti
0.833336 0.124998 0.077688 F F F Ti
0.333331 0.624990 0.077700 F F F Ti
0.833323 0.625008 0.077702 F F F Ti
0.375001 0.375004 0.823756 F F F Ti
0.874997 0.374997 0.823755 F F F Ti
0.374998 0.875005 0.823754 F F F Ti
0.875000 0.874993 0.823755 F F F Ti
0.125003 0.125004 0.823755 F F F Ti
0.624999 0.124996 0.823756 F F F Ti
0.125001 0.625007 0.823755 F F F Ti
0.625003 0.624995 0.823754 F F F Ti
0.124999 0.375003 0.910093 F F F Ti
0.625001 0.375001 0.910093 F F F Ti
0.125001 0.874999 0.910098 F F F Ti
0.624997 0.874998 0.910098 F F F Ti
0.375000 0.125000 0.910093 F F F Ti
0.875002 0.124998 0.910093 F F F Ti
0.375003 0.625001 0.910099 F F F Ti
0.875000 0.625000 0.910098 F F F Ti
0.392912 0.396628 0.655562 T T T Ti
0.896731 0.373138 0.647054 T T T Ti
0.387075 0.889836 0.648250 T T T Ti
0.880189 0.883791 0.668591 T T T Ti
0.103269 0.126862 0.647054 T T T Ti
0.607088 0.103372 0.655562 T T T Ti
0.119811 0.616209 0.668591 T T T Ti
0.612925 0.610164 0.648250 T T T Ti
0.153067 0.386964 0.567461 T T T Ti
0.644186 0.336935 0.577504 T T T Ti
0.120431 0.857158 0.584126 T T T Ti
0.652773 0.857840 0.570387 T T T Ti
0.355814 0.163065 0.577504 T T T Ti
0.846933 0.113036 0.567461 T T T Ti
0.347227 0.642160 0.570387 T T T Ti
0.879569 0.642842 0.584126 T T T Ti
0.411076 0.401264 0.488756 T T T Ti
0.897719 0.371732 0.489848 T T T Ti
0.331556 0.934235 0.498017 T T T Ti
0.910358 0.878489 0.482635 T T T Ti
0.102281 0.128268 0.489848 T T T Ti
0.588924 0.098736 0.488756 T T T Ti
0.089642 0.621511 0.482635 T T T Ti
0.668444 0.565765 0.498017 T T T Ti
0.124969 0.875015 0.737451 F F F Ti
0.625036 0.874929 0.737469 F F F Ti
0.374963 0.625069 0.737468 F F F Ti
0.875030 0.624983 0.737451 F F F Ti
0.124965 0.375009 0.737450 F F F Ti
0.625036 0.374928 0.737453 F F F Ti
0.374962 0.125070 0.737453 F F F Ti
0.875035 0.124990 0.737450 F F F Ti
0.500000 0.750000 0.458689 T T T Al

0.000000 0.000000 0.000000
0.000000 0.000000 0.000000
0.000000 0.000000 0.000000
0.000000 0.000000 0.000000
0.000000 0.000000 0.000000
0.000000 0.000000 0.000000
0.000000 0.000000 0.000000
0.000000 0.000000 0.000000
0.000000 0.000000 0.000000
0.000000 0.000000 0.000000
0.000000 0.000000 0.000000
0.000000 0.000000 0.000000
0.000000 0.000000 0.000000
0.000000 0.000000 0.000000
0.000000 0.000000 0.000000
0.000000 0.000000 0.000000
0.000000 0.000000 0.000000
0.000000 0.000000 0.000000
0.000000 0.000000 0.000000
0.000000 0.000000 0.000000
0.000000 0.000000 0.000000
0.000000 0.000000 0.000000
0.000000 0.000000 0.000000
0.000000 0.000000 0.000000
0.000000 0.000000 0.000000
0.000000 0.000000 0.000000
0.000000 0.000000 0.000000
0.000000 0.000000 0.000000
0.000000 0.000000 0.000000
0.000000 0.000000 0.000000
0.000000 0.000000 0.000000
0.000000 0.000000 0.000000
0.000000 0.000000 0.000000
0.000000 0.000000 0.000000
0.000000 0.000000 0.000000
0.000000 0.000000 0.000000
0.000000 0.000000 0.000000
0.000000 0.000000 0.000000
0.000000 0.000000 0.000000
0.000000 0.000000 0.000000
0.000000 0.000000 0.000000
0.000000 0.000000 0.000000
0.000000 0.000000 0.000000
0.000000 0.000000 0.000000
0.000000 0.000000 0.000000
0.000000 0.000000 0.000000
0.000000 0.000000 0.000000
0.000000 0.000000 0.000000
0.000000 0.000000 0.000000
0.000000 0.000000 0.000000
0.000000 0.000000 0.000000
0.000000 0.000000 0.000000
0.000000 0.000000 0.000000
0.000000 0.000000 0.000000
0.000000 0.000000 0.000000
0.000000 0.000000 0.000000
0.000000 0.000000 0.000000
0.000000 0.000000 0.000000
0.000000 0.000000 0.000000
0.000000 0.000000 0.000000
0.000000 0.000000 0.000000
0.000000 0.000000 0.000000
0.000000 0.000000 0.000000
0.000000 0.000000 0.000000
0.000000 0.000000 0.000000
0.000000 0.000000 0.000000
0.000000 0.000000 0.000000
0.000000 0.000000 0.000000
0.000000 0.000000 0.000000
0.000000 0.000000 0.000000
0.000000 0.000000 0.000000
0.000000 0.000000 0.000000
0.000000 0.000000 0.000000
0.000000 0.000000 0.000000
0.000000 0.000000 0.000000
0.000000 0.000000 0.000000
0.000000 0.000000 0.000000
0.000000 0.000000 0.000000
0.000000 0.000000 0.000000
0.000000 0.000000 0.000000
0.000000 0.000000 0.000000
0.000000 0.000000 0.000000
0.000000 0.000000 0.000000
0.000000 0.000000 0.000000
0.000000 0.000000 0.000000
0.000000 0.000000 0.000000
0.000000 0.000000 0.000000
0.000000 0.000000 0.000000
0.000000 0.000000 0.000000
0.000000 0.000000 0.000000
0.000000 0.000000 0.000000
0.000000 0.000000 0.000000
0.000000 0.000000 0.000000
0.000000 0.000000 0.000000
0.000000 0.000000 0.000000
0.000000 0.000000 0.000000
0.000000 0.000000 0.000000
