alpha_Ti
1.0
8.805261 0.000000 0.000000
-4.402631 7.625580 0.000000
0.000000 0.000000 22.183422
Ti
54
direct
0.111111 0.888889 -0.000000 Ti
0.111111 0.888889 0.414239 Ti
0.111111 0.555556 -0.000000 Ti
0.222222 0.777778 0.103560 Ti
0.111111 0.555556 0.414239 Ti
0.444444 0.888889 -0.000000 Ti
0.111111 0.222222 -0.000000 Ti
0.222222 0.777778 0.517799 Ti
0.222222 0.444444 0.103560 Ti
0.444444 0.888889 0.414239 Ti
0.111111 0.222222 0.414239 Ti
0.444444 0.555556 -0.000000 Ti
0.222222 0.444444 0.517799 Ti
0.555556 0.777778 0.103560 Ti
0.222222 0.111111 0.103560 Ti
0.444444 0.555556 0.414239 Ti
0.777778 0.888889 -0.000000 Ti
0.444444 0.222222 -0.000000 Ti
0.555556 0.777778 0.517799 Ti
0.222222 0.111111 0.517799 Ti
0.555556 0.444444 0.103560 Ti
0.777778 0.888889 0.414239 Ti
0.444444 0.222222 0.414239 Ti
0.777778 0.555556 -0.000000 Ti
0.555556 0.444444 0.517799 Ti
0.888889 0.777778 0.103560 Ti
0.555556 0.111111 0.103560 Ti
0.777778 0.555556 0.414239 Ti
0.777778 0.222222 -0.000000 Ti
0.888889 0.777778 0.517799 Ti
0.555556 0.111111 0.517799 Ti
0.888889 0.444444 0.103560 Ti
0.777778 0.222222 0.414239 Ti
0.888889 0.444444 0.517799 Ti
0.888889 0.111111 0.103560 Ti
0.888889 0.111111 0.517799 Ti
0.111111 0.888889 0.207120 Ti
0.111111 0.555556 0.207120 Ti
0.222222 0.777778 0.310679 Ti
0.444444 0.888889 0.207120 Ti
0.111111 0.222222 0.207120 Ti
0.222222 0.444444 0.310679 Ti
0.444444 0.555556 0.207120 Ti
0.555556 0.777778 0.310679 Ti
0.222222 0.111111 0.310679 Ti
0.777778 0.888889 0.207120 Ti
0.444444 0.222222 0.207120 Ti
0.555556 0.444444 0.310679 Ti
0.777778 0.555556 0.207120 Ti
0.888889 0.777778 0.310679 Ti
0.555556 0.111111 0.310679 Ti
0.777778 0.222222 0.207120 Ti
0.888889 0.444444 0.310679 Ti
0.888889 0.111111 0.310679 Ti
