Ti66 Cr1
1.0
6.309760 0.000000 0.000000
0.000000 9.464640 0.000000
0.000000 0.000000 18.918326
Ti Cr
66 1
Selective dynamics
direct
0.125000 0.043953 0.477333 T T T Ti
0.625000 0.049092 0.494691 T T T Ti
0.125000 0.070853 0.646436 T T T Ti
0.625000 0.085768 0.643772 T T T Ti
0.125000 0.041667 0.817153 F F F Ti
0.625000 0.041667 0.817153 F F F Ti
0.625000 0.376145 0.474538 T T T Ti
0.125000 0.382266 0.653649 T T T Ti
0.625000 0.392282 0.635740 T T T Ti
0.125000 0.375000 0.817153 F F F Ti
0.625000 0.375000 0.817153 F F F Ti
0.125000 0.757359 0.486949 T T T Ti
0.625000 0.722883 0.500255 T T T Ti
0.125000 0.692193 0.641349 T T T Ti
0.625000 0.690831 0.647922 T T T Ti
0.125000 0.708333 0.817153 F F F Ti
0.625000 0.708333 0.817153 F F F Ti
0.336746 0.239845 0.550917 T T T Ti
0.913254 0.239845 0.550917 T T T Ti
0.375000 0.208333 0.737865 F F F Ti
0.875000 0.208333 0.737865 F F F Ti
0.375000 0.208333 0.896441 F F F Ti
0.875000 0.208333 0.896441 F F F Ti
0.332757 0.524735 0.538271 T T T Ti
0.917243 0.524735 0.538271 T T T Ti
0.375000 0.541667 0.737865 F F F Ti
0.875000 0.541667 0.737865 F F F Ti
0.375000 0.541667 0.896441 F F F Ti
0.875000 0.541667 0.896441 F F F Ti
0.385200 0.891180 0.582722 T T T Ti
0.864800 0.891180 0.582722 T T T Ti
0.375000 0.875000 0.737865 F F F Ti
0.875000 0.875000 0.737865 F F F Ti
0.375000 0.875000 0.896441 F F F Ti
0.875000 0.875000 0.896441 F F F Ti
0.125000 0.578135 0.381625 T T T Ti
0.625000 0.612861 0.376117 T T T Ti
0.125000 0.625000 0.118932 F F F Ti
0.625000 0.625000 0.118932 F F F Ti
0.625000 0.116515 0.363983 T T T Ti
0.125000 0.125000 0.118932 F F F Ti
0.625000 0.125000 0.118932 F F F Ti
0.125000 0.375000 0.039644 F F F Ti
0.625000 0.375000 0.039644 F F F Ti
0.125000 0.875000 0.039644 F F F Ti
0.625000 0.875000 0.039644 F F F Ti
0.125000 0.369346 0.278623 T T T Ti
0.625000 0.370897 0.289187 T T T Ti
0.125000 0.837931 0.284943 T T T Ti
0.625000 0.871386 0.275347 T T T Ti
0.375000 0.875000 0.158576 F F F Ti
0.875000 0.875000 0.158576 F F F Ti
0.374999 0.375000 0.158576 F F F Ti
0.874999 0.375000 0.158576 F F F Ti
0.322152 0.299314 0.399781 T T T Ti
0.927848 0.299314 0.399781 T T T Ti
0.399525 0.874396 0.394578 T T T Ti
0.850475 0.874396 0.394578 T T T Ti
0.382314 0.614801 0.249208 T T T Ti
0.867686 0.614801 0.249208 T T T Ti
0.375000 0.625000 0.000000 F F F Ti
0.875000 0.625000 0.000000 F F F Ti
0.374525 0.120806 0.249813 T T T Ti
0.875475 0.120806 0.249813 T T T Ti
0.375000 0.125000 0.000000 F F F Ti
0.875000 0.125000 0.000000 F F F Ti
0.125000 0.065006 0.351570 T T T Cr

0.000000 0.000000 0.000000
0.000000 0.000000 0.000000
0.000000 0.000000 0.000000
0.000000 0.000000 0.000000
0.000000 0.000000 0.000000
0.000000 0.000000 0.000000
0.000000 0.000000 0.000000
0.000000 0.000000 0.000000
0.000000 0.000000 0.000000
0.000000 0.000000 0.000000
0.000000 0.000000 0.000000
0.000000 0.000000 0.000000
0.000000 0.000000 0.000000
0.000000 0.000000 0.000000
0.000000 0.000000 0.000000
0.000000 0.000000 0.000000
0.000000 0.000000 0.000000
0.000000 0.000000 0.000000
0.000000 0.000000 0.000000
0.000000 0.000000 0.000000
0.000000 0.000000 0.000000
0.000000 0.000000 0.000000
0.000000 0.000000 0.000000
0.000000 0.000000 0.000000
0.000000 0.000000 0.000000
0.000000 0.000000 0.000000
0.000000 0.000000 0.000000
0.000000 0.000000 0.000000
0.000000 0.000000 0.000000
0.000000 0.000000 0.000000
0.000000 0.000000 0.000000
0.000000 0.000000 0.000000
0.000000 0.000000 0.000000
0.000000 0.000000 0.000000
0.000000 0.000000 0.000000
0.000000 0.000000 0.000000
0.000000 0.000000 0.000000
0.000000 0.000000 0.000000
0.000000 0.000000 0.000000
0.000000 0.000000 0.000000
0.000000 0.000000 0.000000
0.000000 0.000000 0.000000
0.000000 0.000000 0.000000
0.000000 0.000000 0.000000
0.000000 0.000000 0.000000
0.000000 0.000000 0.000000
0.000000 0.000000 0.000000
0.000000 0.000000 0.000000
0.000000 0.000000 0.000000
0.000000 0.000000 0.000000
0.000000 0.000000 0.000000
0.000000 0.000000 0.000000
0.000000 0.000000 0.000000
0.000000 0.000000 0.000000
0.000000 0.000000 0.000000
0.000000 0.000000 0.000000
0.000000 0.000000 0.000000
0.000000 0.000000 0.000000
0.000000 0.000000 0.000000
0.000000 0.000000 0.000000
0.000000 0.000000 0.000000
0.000000 0.000000 0.000000
0.000000 0.000000 0.000000
0.000000 0.000000 0.000000
0.000000 0.000000 0.000000
0.000000 0.000000 0.000000
0.000000 0.000000 0.000000
