Ti66 Cr1
1.0
6.309760 0.000000 0.000000
0.000000 9.464640 0.000000
0.000000 0.000000 18.918326
Ti Cr
66 1
Selective dynamics
direct
0.122359 0.040280 0.497419 F F F Ti
0.624193 0.041425 0.499771 F F F Ti
0.627728 0.041407 0.658770 F F F Ti
0.125614 0.042025 0.817431 F F F Ti
0.625969 0.041565 0.817426 F F F Ti
0.124583 0.375297 0.499824 F F F Ti
0.623254 0.375288 0.499800 F F F Ti
0.123844 0.378566 0.659028 F F F Ti
0.624487 0.375488 0.658703 F F F Ti
0.124846 0.375758 0.817559 F F F Ti
0.626191 0.376071 0.817713 F F F Ti
0.124662 0.707667 0.499652 F F F Ti
0.625939 0.707375 0.499489 F F F Ti
0.125440 0.708757 0.658475 F F F Ti
0.625739 0.708214 0.658685 F F F Ti
0.125030 0.708664 0.817228 F F F Ti
0.625642 0.708634 0.817334 F F F Ti
0.868184 0.211003 0.578069 F F F Ti
0.380815 0.211819 0.740295 F F F Ti
0.874247 0.209548 0.738272 F F F Ti
0.375341 0.208638 0.896819 F F F Ti
0.875117 0.208478 0.896581 F F F Ti
0.375027 0.541416 0.579259 F F F Ti
0.874514 0.542034 0.579195 F F F Ti
0.375399 0.542398 0.738096 F F F Ti
0.874724 0.542351 0.738051 F F F Ti
0.375067 0.542054 0.896611 F F F Ti
0.875144 0.542049 0.896610 F F F Ti
0.380513 0.870061 0.577725 F F F Ti
0.874261 0.874337 0.578769 F F F Ti
0.377387 0.873992 0.738446 F F F Ti
0.876527 0.875598 0.737703 F F F Ti
0.375188 0.875061 0.896608 F F F Ti
0.875290 0.875128 0.896476 F F F Ti
0.124904 0.624945 0.356675 F F F Ti
0.624738 0.624877 0.356621 F F F Ti
0.124973 0.625062 0.118900 F F F Ti
0.624964 0.625056 0.118906 F F F Ti
0.124944 0.125141 0.356296 F F F Ti
0.624660 0.125016 0.356663 F F F Ti
0.124950 0.125019 0.118892 F F F Ti
0.624969 0.125022 0.118896 F F F Ti
0.124944 0.375088 0.039698 F F F Ti
0.625036 0.375094 0.039712 F F F Ti
0.124957 0.875033 0.039657 F F F Ti
0.625049 0.875021 0.039662 F F F Ti
0.124907 0.375082 0.277389 F F F Ti
0.624854 0.374990 0.277416 F F F Ti
0.124923 0.874915 0.277315 F F F Ti
0.624894 0.874978 0.277319 F F F Ti
0.375005 0.874987 0.158512 F F F Ti
0.874933 0.874994 0.158513 F F F Ti
0.375004 0.375036 0.158547 F F F Ti
0.874995 0.375040 0.158548 F F F Ti
0.374694 0.374919 0.396284 F F F Ti
0.874614 0.375077 0.396279 F F F Ti
0.375354 0.874592 0.396018 F F F Ti
0.874272 0.874594 0.396027 F F F Ti
0.374954 0.624982 0.237789 F F F Ti
0.874927 0.624983 0.237795 F F F Ti
0.374987 0.625152 0.000094 F F F Ti
0.874999 0.625172 0.000074 F F F Ti
0.375067 0.125016 0.237735 F F F Ti
0.874805 0.125024 0.237741 F F F Ti
0.375030 0.124971 0.000160 F F F Ti
0.874965 0.125017 0.000060 F F F Ti
0.180793 0.081971 0.637881 T T T Cr

0.000000 0.000000 0.000000
0.000000 0.000000 0.000000
0.000000 0.000000 0.000000
0.000000 0.000000 0.000000
0.000000 0.000000 0.000000
0.000000 0.000000 0.000000
0.000000 0.000000 0.000000
0.000000 0.000000 0.000000
0.000000 0.000000 0.000000
0.000000 0.000000 0.000000
0.000000 0.000000 0.000000
0.000000 0.000000 0.000000
0.000000 0.000000 0.000000
0.000000 0.000000 0.000000
0.000000 0.000000 0.000000
0.000000 0.000000 0.000000
0.000000 0.000000 0.000000
0.000000 0.000000 0.000000
0.000000 0.000000 0.000000
0.000000 0.000000 0.000000
0.000000 0.000000 0.000000
0.000000 0.000000 0.000000
0.000000 0.000000 0.000000
0.000000 0.000000 0.000000
0.000000 0.000000 0.000000
0.000000 0.000000 0.000000
0.000000 0.000000 0.000000
0.000000 0.000000 0.000000
0.000000 0.000000 0.000000
0.000000 0.000000 0.000000
0.000000 0.000000 0.000000
0.000000 0.000000 0.000000
0.000000 0.000000 0.000000
0.000000 0.000000 0.000000
0.000000 0.000000 0.000000
0.000000 0.000000 0.000000
0.000000 0.000000 0.000000
0.000000 0.000000 0.000000
0.000000 0.000000 0.000000
0.000000 0.000000 0.000000
0.000000 0.000000 0.000000
0.000000 0.000000 0.000000
0.000000 0.000000 0.000000
0.000000 0.000000 0.000000
0.000000 0.000000 0.000000
0.000000 0.000000 0.000000
0.000000 0.000000 0.000000
0.000000 0.000000 0.000000
0.000000 0.000000 0.000000
0.000000 0.000000 0.000000
0.000000 0.000000 0.000000
0.000000 0.000000 0.000000
0.000000 0.000000 0.000000
0.000000 0.000000 0.000000
0.000000 0.000000 0.000000
0.000000 0.000000 0.000000
0.000000 0.000000 0.000000
0.000000 0.000000 0.000000
0.000000 0.000000 0.000000
0.000000 0.000000 0.000000
0.000000 0.000000 0.000000
0.000000 0.000000 0.000000
0.000000 0.000000 0.000000
0.000000 0.000000 0.000000
0.000000 0.000000 0.000000
0.000000 0.000000 0.000000
0.000000 0.000000 0.000000
