Ti66 Al1
1.0
6.309760 0.000000 0.000000
0.000000 9.464640 0.000000
0.000000 0.000000 18.918326
Ti Al
66 1
Selective dynamics
direct
0.126784 0.025576 0.505046 F F F Ti
0.629049 0.040379 0.500392 F F F Ti
0.125599 0.039464 0.659557 F F F Ti
0.625179 0.039871 0.659282 F F F Ti
0.125136 0.041027 0.817420 F F F Ti
0.625015 0.041082 0.817424 F F F Ti
0.629755 0.374107 0.500999 F F F Ti
0.125319 0.373431 0.658606 F F F Ti
0.625564 0.373978 0.659016 F F F Ti
0.125180 0.374409 0.817251 F F F Ti
0.625174 0.374466 0.817336 F F F Ti
0.125088 0.702135 0.499690 F F F Ti
0.623108 0.707157 0.500064 F F F Ti
0.125351 0.705838 0.658786 F F F Ti
0.624461 0.706029 0.659125 F F F Ti
0.125082 0.707551 0.817319 F F F Ti
0.624948 0.707544 0.817394 F F F Ti
0.377824 0.205898 0.580175 F F F Ti
0.873480 0.205533 0.581042 F F F Ti
0.375330 0.207485 0.738172 F F F Ti
0.875160 0.207419 0.738305 F F F Ti
0.375072 0.208045 0.896455 F F F Ti
0.875110 0.208030 0.896471 F F F Ti
0.375520 0.539202 0.579313 F F F Ti
0.874785 0.540186 0.579639 F F F Ti
0.375013 0.540411 0.738099 F F F Ti
0.875329 0.540535 0.738158 F F F Ti
0.375025 0.541210 0.896432 F F F Ti
0.875110 0.541231 0.896430 F F F Ti
0.378159 0.871076 0.580442 F F F Ti
0.872763 0.870489 0.580593 F F F Ti
0.375323 0.873617 0.738372 F F F Ti
0.874911 0.873542 0.738374 F F F Ti
0.375072 0.874737 0.896512 F F F Ti
0.875000 0.874736 0.896508 F F F Ti
0.126235 0.628342 0.355680 F F F Ti
0.624039 0.632761 0.355043 F F F Ti
0.125321 0.625996 0.118376 F F F Ti
0.625105 0.625999 0.118280 F F F Ti
0.631212 0.126732 0.356756 F F F Ti
0.125631 0.125660 0.118914 F F F Ti
0.625113 0.125618 0.118852 F F F Ti
0.125328 0.375210 0.039287 F F F Ti
0.625077 0.375185 0.039305 F F F Ti
0.125107 0.875542 0.039476 F F F Ti
0.624983 0.875581 0.039464 F F F Ti
0.125568 0.378358 0.276846 F F F Ti
0.625222 0.376961 0.274638 F F F Ti
0.125238 0.877222 0.277423 F F F Ti
0.625488 0.878200 0.277019 F F F Ti
0.375113 0.876418 0.158348 F F F Ti
0.875385 0.876333 0.158239 F F F Ti
0.374550 0.375836 0.157932 F F F Ti
0.876148 0.375951 0.157710 F F F Ti
0.398788 0.388131 0.393574 F F F Ti
0.844175 0.394878 0.391924 F F F Ti
0.375695 0.876330 0.396580 F F F Ti
0.875403 0.874487 0.396602 F F F Ti
0.375419 0.627331 0.236845 F F F Ti
0.875305 0.627518 0.236766 F F F Ti
0.375058 0.625289 -0.000217 F F F Ti
0.875077 0.625304 -0.000222 F F F Ti
0.374861 0.126774 0.238286 F F F Ti
0.876423 0.126695 0.237699 F F F Ti
0.375082 0.125073 -0.000005 F F F Ti
0.875174 0.125078 0.000017 F F F Ti
0.102902 0.244356 0.435724 T T T Al

0.000000 0.000000 0.000000
0.000000 0.000000 0.000000
0.000000 0.000000 0.000000
0.000000 0.000000 0.000000
0.000000 0.000000 0.000000
0.000000 0.000000 0.000000
0.000000 0.000000 0.000000
0.000000 0.000000 0.000000
0.000000 0.000000 0.000000
0.000000 0.000000 0.000000
0.000000 0.000000 0.000000
0.000000 0.000000 0.000000
0.000000 0.000000 0.000000
0.000000 0.000000 0.000000
0.000000 0.000000 0.000000
0.000000 0.000000 0.000000
0.000000 0.000000 0.000000
0.000000 0.000000 0.000000
0.000000 0.000000 0.000000
0.000000 0.000000 0.000000
0.000000 0.000000 0.000000
0.000000 0.000000 0.000000
0.000000 0.000000 0.000000
0.000000 0.000000 0.000000
0.000000 0.000000 0.000000
0.000000 0.000000 0.000000
0.000000 0.000000 0.000000
0.000000 0.000000 0.000000
0.000000 0.000000 0.000000
0.000000 0.000000 0.000000
0.000000 0.000000 0.000000
0.000000 0.000000 0.000000
0.000000 0.000000 0.000000
0.000000 0.000000 0.000000
0.000000 0.000000 0.000000
0.000000 0.000000 0.000000
0.000000 0.000000 0.000000
0.000000 0.000000 0.000000
0.000000 0.000000 0.000000
0.000000 0.000000 0.000000
0.000000 0.000000 0.000000
0.000000 0.000000 0.000000
0.000000 0.000000 0.000000
0.000000 0.000000 0.000000
0.000000 0.000000 0.000000
0.000000 0.000000 0.000000
0.000000 0.000000 0.000000
0.000000 0.000000 0.000000
0.000000 0.000000 0.000000
0.000000 0.000000 0.000000
0.000000 0.000000 0.000000
0.000000 0.000000 0.000000
0.000000 0.000000 0.000000
0.000000 0.000000 0.000000
0.000000 0.000000 0.000000
0.000000 0.000000 0.000000
0.000000 0.000000 0.000000
0.000000 0.000000 0.000000
0.000000 0.000000 0.000000
0.000000 0.000000 0.000000
0.000000 0.000000 0.000000
0.000000 0.000000 0.000000
0.000000 0.000000 0.000000
0.000000 0.000000 0.000000
0.000000 0.000000 0.000000
0.000000 0.000000 0.000000
0.000000 0.000000 0.000000
