Ti67
1.0
6.309760 0.000000 0.000000
0.000000 9.464640 0.000000
0.000000 0.000000 18.918326
Ti
67
Selective dynamics
direct
0.627709 0.041802 0.499099 F F F Ti
0.630056 0.041745 0.658225 F F F Ti
0.125118 0.041728 0.816463 F F F Ti
0.625295 0.041737 0.816908 F F F Ti
0.125612 0.376058 0.499483 F F F Ti
0.625133 0.378997 0.498329 F F F Ti
0.125712 0.376619 0.658313 F F F Ti
0.625789 0.377668 0.659341 F F F Ti
0.125426 0.374875 0.817109 F F F Ti
0.625100 0.375142 0.817408 F F F Ti
0.125445 0.707190 0.499320 F F F Ti
0.624873 0.705190 0.498127 F F F Ti
0.125523 0.706662 0.658442 F F F Ti
0.625508 0.706196 0.659419 F F F Ti
0.125373 0.708468 0.817231 F F F Ti
0.625099 0.708313 0.817510 F F F Ti
0.389033 0.215433 0.577840 F F F Ti
0.859115 0.218197 0.577362 F F F Ti
0.376249 0.208735 0.737471 F F F Ti
0.874221 0.209627 0.737957 F F F Ti
0.374901 0.208100 0.896188 F F F Ti
0.875347 0.208184 0.896277 F F F Ti
0.375710 0.542168 0.579097 F F F Ti
0.875192 0.542225 0.579059 F F F Ti
0.374917 0.541886 0.738239 F F F Ti
0.875915 0.541830 0.738341 F F F Ti
0.374936 0.541667 0.896516 F F F Ti
0.875348 0.541665 0.896532 F F F Ti
0.388727 0.868166 0.577857 F F F Ti
0.859554 0.865438 0.577458 F F F Ti
0.376260 0.874727 0.737539 F F F Ti
0.874145 0.873843 0.738009 F F F Ti
0.374899 0.875290 0.896224 F F F Ti
0.875320 0.875238 0.896317 F F F Ti
0.124980 0.625048 0.356250 F F F Ti
0.625064 0.625010 0.355836 F F F Ti
0.124939 0.625129 0.118654 F F F Ti
0.624842 0.625103 0.118669 F F F Ti
0.125002 0.124887 0.356892 F F F Ti
0.625205 0.125075 0.356400 F F F Ti
0.125002 0.124944 0.118636 F F F Ti
0.624831 0.124960 0.118669 F F F Ti
0.124978 0.374884 0.039418 F F F Ti
0.624871 0.374897 0.039461 F F F Ti
0.124964 0.875136 0.039382 F F F Ti
0.624828 0.875123 0.039435 F F F Ti
0.124959 0.374862 0.277115 F F F Ti
0.625006 0.374886 0.277010 F F F Ti
0.125037 0.875143 0.277337 F F F Ti
0.624972 0.875114 0.277206 F F F Ti
0.374891 0.875105 0.158399 F F F Ti
0.875040 0.875109 0.158387 F F F Ti
0.374902 0.374915 0.158324 F F F Ti
0.875088 0.374913 0.158299 F F F Ti
0.374658 0.374986 0.395725 F F F Ti
0.875679 0.375161 0.395682 F F F Ti
0.375031 0.875120 0.396230 F F F Ti
0.875319 0.874824 0.396051 F F F Ti
0.374816 0.625071 0.237455 F F F Ti
0.875139 0.625054 0.237436 F F F Ti
0.374928 0.625133 -0.000057 F F F Ti
0.875002 0.625122 -0.000041 F F F Ti
0.374812 0.124953 0.237696 F F F Ti
0.875207 0.124949 0.237661 F F F Ti
0.374920 0.124964 -0.000245 F F F Ti
0.875031 0.124952 -0.000200 F F F Ti
0.112495 0.043764 0.620236 T T T Ti

0.000000 0.000000 0.000000
0.000000 0.000000 0.000000
0.000000 0.000000 0.000000
0.000000 0.000000 0.000000
0.000000 0.000000 0.000000
0.000000 0.000000 0.000000
0.000000 0.000000 0.000000
0.000000 0.000000 0.000000
0.000000 0.000000 0.000000
0.000000 0.000000 0.000000
0.000000 0.000000 0.000000
0.000000 0.000000 0.000000
0.000000 0.000000 0.000000
0.000000 0.000000 0.000000
0.000000 0.000000 0.000000
0.000000 0.000000 0.000000
0.000000 0.000000 0.000000
0.000000 0.000000 0.000000
0.000000 0.000000 0.000000
0.000000 0.000000 0.000000
0.000000 0.000000 0.000000
0.000000 0.000000 0.000000
0.000000 0.000000 0.000000
0.000000 0.000000 0.000000
0.000000 0.000000 0.000000
0.000000 0.000000 0.000000
0.000000 0.000000 0.000000
0.000000 0.000000 0.000000
0.000000 0.000000 0.000000
0.000000 0.000000 0.000000
0.000000 0.000000 0.000000
0.000000 0.000000 0.000000
0.000000 0.000000 0.000000
0.000000 0.000000 0.000000
0.000000 0.000000 0.000000
0.000000 0.000000 0.000000
0.000000 0.000000 0.000000
0.000000 0.000000 0.000000
0.000000 0.000000 0.000000
0.000000 0.000000 0.000000
0.000000 0.000000 0.000000
0.000000 0.000000 0.000000
0.000000 0.000000 0.000000
0.000000 0.000000 0.000000
0.000000 0.000000 0.000000
0.000000 0.000000 0.000000
0.000000 0.000000 0.000000
0.000000 0.000000 0.000000
0.000000 0.000000 0.000000
0.000000 0.000000 0.000000
0.000000 0.000000 0.000000
0.000000 0.000000 0.000000
0.000000 0.000000 0.000000
0.000000 0.000000 0.000000
0.000000 0.000000 0.000000
0.000000 0.000000 0.000000
0.000000 0.000000 0.000000
0.000000 0.000000 0.000000
0.000000 0.000000 0.000000
0.000000 0.000000 0.000000
0.000000 0.000000 0.000000
0.000000 0.000000 0.000000
0.000000 0.000000 0.000000
0.000000 0.000000 0.000000
0.000000 0.000000 0.000000
0.000000 0.000000 0.000000
0.000000 0.000000 0.000000
