total_Ti
1.0
4.756510 0.000000 0.000000
0.000000 4.675430 0.000000
0.000000 0.000000 21.611761
Ti
24
direct
0.333333 0.750000 0.333364 Ti
0.333333 0.750000 0.200019 Ti
0.333333 0.750000 0.066673 Ti
0.833334 0.750000 0.266692 Ti
0.833334 0.750000 0.133346 Ti
0.833334 0.750000 -0.000000 Ti
0.166666 0.250000 0.266691 Ti
0.166666 0.250000 0.133346 Ti
0.166666 0.250000 -0.000000 Ti
0.666667 0.250000 0.333364 Ti
0.666667 0.250000 0.200019 Ti
0.666667 0.250000 0.066673 Ti
0.750000 0.750000 0.851935 Ti
0.250000 0.250000 0.851935 Ti
0.250000 0.750000 0.777835 Ti
0.750000 0.250000 0.777835 Ti
0.750000 0.750000 0.703734 Ti
0.250000 0.250000 0.703734 Ti
0.250000 0.750000 0.629633 Ti
0.750000 0.250000 0.629633 Ti
0.750000 0.750000 0.555532 Ti
0.250000 0.250000 0.555532 Ti
0.250000 0.750000 0.481432 Ti
0.750000 0.250000 0.481432 Ti
