Ti83
1.0
6.391540 0.000000 0.000000
0.000000 9.587310 0.000000
0.000000 0.000000 23.271695
Ti
83
Selective dynamics
direct
0.122514 0.083438 0.580972 F F F Ti
0.623495 0.083546 0.580692 F F F Ti
0.124819 0.083368 0.709558 F F F Ti
0.624714 0.083374 0.709530 F F F Ti
0.124981 0.083344 0.838416 F F F Ti
0.624955 0.083345 0.838413 F F F Ti
0.124581 0.417493 0.581083 F F F Ti
0.624939 0.417051 0.580687 F F F Ti
0.124916 0.416753 0.709604 F F F Ti
0.624816 0.416741 0.709565 F F F Ti
0.124984 0.416677 0.838428 F F F Ti
0.624959 0.416676 0.838425 F F F Ti
0.124663 0.750025 0.580770 F F F Ti
0.624699 0.750101 0.580646 F F F Ti
0.124927 0.750083 0.709573 F F F Ti
0.624793 0.750086 0.709563 F F F Ti
0.124983 0.750023 0.838426 F F F Ti
0.624955 0.750024 0.838425 F F F Ti
0.374658 0.250141 0.645057 F F F Ti
0.874310 0.250176 0.645193 F F F Ti
0.374945 0.250011 0.773970 F F F Ti
0.874894 0.250013 0.773994 F F F Ti
0.374991 0.249993 0.902845 F F F Ti
0.874996 0.249994 0.902849 F F F Ti
0.375079 0.583571 0.645154 F F F Ti
0.874615 0.583577 0.645224 F F F Ti
0.374969 0.583381 0.773998 F F F Ti
0.874919 0.583378 0.774010 F F F Ti
0.374987 0.583331 0.902851 F F F Ti
0.874988 0.583332 0.902853 F F F Ti
0.374641 0.916767 0.645019 F F F Ti
0.874360 0.916629 0.645150 F F F Ti
0.374930 0.916701 0.773964 F F F Ti
0.874901 0.916690 0.773986 F F F Ti
0.374983 0.916677 0.902841 F F F Ti
0.874992 0.916675 0.902844 F F F Ti
0.632535 0.167776 0.385372 F F F Ti
0.124397 0.666055 0.386520 F F F Ti
0.626087 0.665785 0.386505 F F F Ti
0.125011 0.166667 -0.000030 F F F Ti
0.624998 0.166664 -0.000033 F F F Ti
0.125011 0.666662 -0.000040 F F F Ti
0.625003 0.666657 -0.000041 F F F Ti
0.125026 0.833323 0.096595 F F F Ti
0.625028 0.833319 0.096586 F F F Ti
0.121998 0.830948 0.483438 F F F Ti
0.624899 0.832476 0.483349 F F F Ti
0.125038 0.333316 0.096625 F F F Ti
0.625015 0.333340 0.096611 F F F Ti
0.117884 0.339335 0.484025 F F F Ti
0.627210 0.335556 0.483329 F F F Ti
0.375242 0.584016 0.483435 F F F Ti
0.873646 0.584393 0.483486 F F F Ti
0.375005 0.583302 0.096596 F F F Ti
0.875075 0.583298 0.096588 F F F Ti
0.375009 0.083342 0.096617 F F F Ti
0.875077 0.083350 0.096607 F F F Ti
0.866455 0.083042 0.483946 F F F Ti
0.375587 0.417620 0.386530 F F F Ti
0.875048 0.417320 0.386471 F F F Ti
0.378512 0.911137 0.384853 F F F Ti
0.874194 0.915988 0.386578 F F F Ti
0.374986 0.416657 -0.000032 F F F Ti
0.875005 0.416655 -0.000033 F F F Ti
0.374994 0.916667 -0.000033 F F F Ti
0.875002 0.916667 -0.000034 F F F Ti
0.375613 0.083219 0.289791 F F F Ti
0.876002 0.083053 0.289784 F F F Ti
0.125118 0.166671 0.193293 F F F Ti
0.625157 0.166646 0.193213 F F F Ti
0.125255 0.333144 0.290051 F F F Ti
0.625313 0.333650 0.289682 F F F Ti
0.374916 0.416621 0.193255 F F F Ti
0.875213 0.416603 0.193238 F F F Ti
0.375044 0.583220 0.289813 F F F Ti
0.875414 0.583199 0.289792 F F F Ti
0.125033 0.666550 0.193198 F F F Ti
0.625100 0.666489 0.193158 F F F Ti
0.124533 0.833021 0.289750 F F F Ti
0.626255 0.832799 0.289539 F F F Ti
0.375015 0.916593 0.193209 F F F Ti
0.875084 0.916640 0.193182 F F F Ti
0.308716 0.104560 0.458418 T T T Ti

0.000000 0.000000 0.000000
0.000000 0.000000 0.000000
0.000000 0.000000 0.000000
0.000000 0.000000 0.000000
0.000000 0.000000 0.000000
0.000000 0.000000 0.000000
0.000000 0.000000 0.000000
0.000000 0.000000 0.000000
0.000000 0.000000 0.000000
0.000000 0.000000 0.000000
0.000000 0.000000 0.000000
0.000000 0.000000 0.000000
0.000000 0.000000 0.000000
0.000000 0.000000 0.000000
0.000000 0.000000 0.000000
0.000000 0.000000 0.000000
0.000000 0.000000 0.000000
0.000000 0.000000 0.000000
0.000000 0.000000 0.000000
0.000000 0.000000 0.000000
0.000000 0.000000 0.000000
0.000000 0.000000 0.000000
0.000000 0.000000 0.000000
0.000000 0.000000 0.000000
0.000000 0.000000 0.000000
0.000000 0.000000 0.000000
0.000000 0.000000 0.000000
0.000000 0.000000 0.000000
0.000000 0.000000 0.000000
0.000000 0.000000 0.000000
0.000000 0.000000 0.000000
0.000000 0.000000 0.000000
0.000000 0.000000 0.000000
0.000000 0.000000 0.000000
0.000000 0.000000 0.000000
0.000000 0.000000 0.000000
0.000000 0.000000 0.000000
0.000000 0.000000 0.000000
0.000000 0.000000 0.000000
0.000000 0.000000 0.000000
0.000000 0.000000 0.000000
0.000000 0.000000 0.000000
0.000000 0.000000 0.000000
0.000000 0.000000 0.000000
0.000000 0.000000 0.000000
0.000000 0.000000 0.000000
0.000000 0.000000 0.000000
0.000000 0.000000 0.000000
0.000000 0.000000 0.000000
0.000000 0.000000 0.000000
0.000000 0.000000 0.000000
0.000000 0.000000 0.000000
0.000000 0.000000 0.000000
0.000000 0.000000 0.000000
0.000000 0.000000 0.000000
0.000000 0.000000 0.000000
0.000000 0.000000 0.000000
0.000000 0.000000 0.000000
0.000000 0.000000 0.000000
0.000000 0.000000 0.000000
0.000000 0.000000 0.000000
0.000000 0.000000 0.000000
0.000000 0.000000 0.000000
0.000000 0.000000 0.000000
0.000000 0.000000 0.000000
0.000000 0.000000 0.000000
0.000000 0.000000 0.000000
0.000000 0.000000 0.000000
0.000000 0.000000 0.000000
0.000000 0.000000 0.000000
0.000000 0.000000 0.000000
0.000000 0.000000 0.000000
0.000000 0.000000 0.000000
0.000000 0.000000 0.000000
0.000000 0.000000 0.000000
0.000000 0.000000 0.000000
0.000000 0.000000 0.000000
0.000000 0.000000 0.000000
0.000000 0.000000 0.000000
0.000000 0.000000 0.000000
0.000000 0.000000 0.000000
0.000000 0.000000 0.000000
0.000000 0.000000 0.000000
