Ti66 Sn1
1.0
6.309760 0.000000 0.000000
0.000000 9.464640 0.000000
0.000000 0.000000 18.918326
Ti Sn
66 1
Selective dynamics
direct
0.131364 0.036613 0.459317 T T T Ti
0.633168 0.037612 0.524322 T T T Ti
0.115449 0.026649 0.665419 T T T Ti
0.658784 0.006440 0.712033 F F F Ti
0.118686 0.039133 0.820788 F F F Ti
0.440926 0.196815 0.638678 T T T Ti
0.622868 0.368575 0.482131 T T T Ti
0.118846 0.381642 0.657679 T T T Ti
0.623988 0.356320 0.654077 T T T Ti
0.118126 0.388174 0.823198 F F F Ti
0.621702 0.379347 0.819387 F F F Ti
0.112525 0.686975 0.488606 T T T Ti
0.612085 0.705051 0.495570 T T T Ti
0.114007 0.699782 0.645299 T T T Ti
0.609999 0.717063 0.653631 T T T Ti
0.121137 0.705628 0.821700 F F F Ti
0.618316 0.717237 0.817266 F F F Ti
0.328008 0.190060 0.561181 T T T Ti
0.889627 0.185042 0.564338 T T T Ti
0.342147 0.210548 0.760224 F F F Ti
0.882947 0.213935 0.740414 F F F Ti
0.376307 0.212867 0.895461 F F F Ti
0.863719 0.211727 0.893543 F F F Ti
0.390148 0.531754 0.577170 T T T Ti
0.841115 0.532731 0.577870 T T T Ti
0.372818 0.543734 0.742445 F F F Ti
0.868027 0.544303 0.741849 F F F Ti
0.380576 0.548004 0.899021 F F F Ti
0.865009 0.548007 0.898774 F F F Ti
0.322614 0.877660 0.560383 T T T Ti
0.897978 0.881185 0.559345 T T T Ti
0.340030 0.860245 0.739322 F F F Ti
0.885666 0.866412 0.738006 F F F Ti
0.378531 0.883039 0.894874 F F F Ti
0.866515 0.883675 0.894476 F F F Ti
0.118313 0.615724 0.363024 T T T Ti
0.616966 0.613403 0.366631 T T T Ti
0.123922 0.633039 0.118254 F F F Ti
0.623575 0.633542 0.118033 F F F Ti
0.621921 0.103762 0.360230 T T T Ti
0.125460 0.131674 0.117627 F F F Ti
0.624851 0.131620 0.117557 F F F Ti
0.125120 0.381589 0.038826 F F F Ti
0.624912 0.381079 0.038686 F F F Ti
0.125775 0.883090 0.039102 F F F Ti
0.624593 0.884092 0.038450 F F F Ti
0.122933 0.408038 0.265281 T T T Ti
0.617642 0.386605 0.273721 T T T Ti
0.120753 0.892689 0.285615 T T T Ti
0.621784 0.876151 0.273556 T T T Ti
0.374239 0.883708 0.157906 F F F Ti
0.873714 0.883384 0.157797 F F F Ti
0.373268 0.380749 0.156467 F F F Ti
0.874158 0.380972 0.156526 F F F Ti
0.356441 0.327481 0.373367 T T T Ti
0.877457 0.328477 0.369445 T T T Ti
0.397307 0.864684 0.398510 T T T Ti
0.839537 0.866036 0.399411 T T T Ti
0.374901 0.638727 0.244806 T T T Ti
0.866869 0.638424 0.244899 T T T Ti
0.375363 0.634473 0.000678 F F F Ti
0.873819 0.634866 0.000493 F F F Ti
0.360320 0.136104 0.247326 T T T Ti
0.884722 0.136053 0.246877 T T T Ti
0.375621 0.131496 -0.001397 F F F Ti
0.873667 0.131934 -0.002094 F F F Ti
0.090815 0.329153 0.469648 T T T Sn

0.000000 0.000000 0.000000
0.000000 0.000000 0.000000
0.000000 0.000000 0.000000
0.000000 0.000000 0.000000
0.000000 0.000000 0.000000
0.000000 0.000000 0.000000
0.000000 0.000000 0.000000
0.000000 0.000000 0.000000
0.000000 0.000000 0.000000
0.000000 0.000000 0.000000
0.000000 0.000000 0.000000
0.000000 0.000000 0.000000
0.000000 0.000000 0.000000
0.000000 0.000000 0.000000
0.000000 0.000000 0.000000
0.000000 0.000000 0.000000
0.000000 0.000000 0.000000
0.000000 0.000000 0.000000
0.000000 0.000000 0.000000
0.000000 0.000000 0.000000
0.000000 0.000000 0.000000
0.000000 0.000000 0.000000
0.000000 0.000000 0.000000
0.000000 0.000000 0.000000
0.000000 0.000000 0.000000
0.000000 0.000000 0.000000
0.000000 0.000000 0.000000
0.000000 0.000000 0.000000
0.000000 0.000000 0.000000
0.000000 0.000000 0.000000
0.000000 0.000000 0.000000
0.000000 0.000000 0.000000
0.000000 0.000000 0.000000
0.000000 0.000000 0.000000
0.000000 0.000000 0.000000
0.000000 0.000000 0.000000
0.000000 0.000000 0.000000
0.000000 0.000000 0.000000
0.000000 0.000000 0.000000
0.000000 0.000000 0.000000
0.000000 0.000000 0.000000
0.000000 0.000000 0.000000
0.000000 0.000000 0.000000
0.000000 0.000000 0.000000
0.000000 0.000000 0.000000
0.000000 0.000000 0.000000
0.000000 0.000000 0.000000
0.000000 0.000000 0.000000
0.000000 0.000000 0.000000
0.000000 0.000000 0.000000
0.000000 0.000000 0.000000
0.000000 0.000000 0.000000
0.000000 0.000000 0.000000
0.000000 0.000000 0.000000
0.000000 0.000000 0.000000
0.000000 0.000000 0.000000
0.000000 0.000000 0.000000
0.000000 0.000000 0.000000
0.000000 0.000000 0.000000
0.000000 0.000000 0.000000
0.000000 0.000000 0.000000
0.000000 0.000000 0.000000
0.000000 0.000000 0.000000
0.000000 0.000000 0.000000
0.000000 0.000000 0.000000
0.000000 0.000000 0.000000
0.000000 0.000000 0.000000
