Ti66 Cr1
1.0
6.309760 0.000000 0.000000
0.000000 9.464640 0.000000
0.000000 0.000000 18.918326
Ti Cr
66 1
Selective dynamics
direct
0.125061 0.039251 0.500167 F F F Ti
0.626554 0.041134 0.500022 F F F Ti
0.125378 0.041393 0.658831 F F F Ti
0.626173 0.041298 0.658964 F F F Ti
0.125112 0.041672 0.817269 F F F Ti
0.625184 0.041679 0.817298 F F F Ti
0.634818 0.375294 0.500954 F F F Ti
0.126096 0.374977 0.658455 F F F Ti
0.626494 0.375056 0.658915 F F F Ti
0.125125 0.375001 0.817165 F F F Ti
0.625241 0.375016 0.817248 F F F Ti
0.125168 0.710327 0.500159 F F F Ti
0.626187 0.708918 0.500016 F F F Ti
0.125396 0.708541 0.658766 F F F Ti
0.625996 0.708715 0.658919 F F F Ti
0.125094 0.708318 0.817238 F F F Ti
0.625160 0.708325 0.817280 F F F Ti
0.379100 0.206460 0.580378 F F F Ti
0.876502 0.207630 0.579538 F F F Ti
0.375336 0.208311 0.738044 F F F Ti
0.875502 0.208356 0.737946 F F F Ti
0.375035 0.208363 0.896454 F F F Ti
0.875107 0.208361 0.896440 F F F Ti
0.378859 0.543408 0.580293 F F F Ti
0.876641 0.542330 0.579511 F F F Ti
0.375312 0.541698 0.738035 F F F Ti
0.875505 0.541644 0.737940 F F F Ti
0.375027 0.541638 0.896455 F F F Ti
0.875107 0.541634 0.896441 F F F Ti
0.375978 0.875165 0.579523 F F F Ti
0.874977 0.874978 0.579567 F F F Ti
0.375222 0.875005 0.738065 F F F Ti
0.875291 0.874970 0.738085 F F F Ti
0.375047 0.874982 0.896493 F F F Ti
0.875059 0.874978 0.896491 F F F Ti
0.123694 0.626730 0.356042 F F F Ti
0.624455 0.625820 0.356586 F F F Ti
0.124984 0.625047 0.118826 F F F Ti
0.624845 0.625055 0.118795 F F F Ti
0.123694 0.123364 0.356000 F F F Ti
0.624666 0.124355 0.356574 F F F Ti
0.124996 0.124993 0.118815 F F F Ti
0.624849 0.124990 0.118783 F F F Ti
0.124984 0.375008 0.039562 F F F Ti
0.624935 0.375008 0.039549 F F F Ti
0.124984 0.875017 0.039580 F F F Ti
0.624951 0.875019 0.039569 F F F Ti
0.124352 0.375038 0.277071 F F F Ti
0.623100 0.375053 0.276882 F F F Ti
0.124881 0.875136 0.277208 F F F Ti
0.624712 0.875126 0.277315 F F F Ti
0.375038 0.875026 0.158437 F F F Ti
0.874848 0.875043 0.158398 F F F Ti
0.374779 0.375018 0.158397 F F F Ti
0.874765 0.375018 0.158344 F F F Ti
0.863281 0.375025 0.393773 F F F Ti
0.375319 0.875453 0.396345 F F F Ti
0.874580 0.875219 0.396280 F F F Ti
0.374927 0.625115 0.237698 F F F Ti
0.874411 0.625206 0.237529 F F F Ti
0.374974 0.624990 -0.000010 F F F Ti
0.874994 0.624991 -0.000022 F F F Ti
0.374952 0.124966 0.237685 F F F Ti
0.874404 0.124867 0.237512 F F F Ti
0.374965 0.125005 -0.000015 F F F Ti
0.874994 0.125011 -0.000024 F F F Ti
0.189026 0.373462 0.475642 T T T Cr

0.000000 0.000000 0.000000
0.000000 0.000000 0.000000
0.000000 0.000000 0.000000
0.000000 0.000000 0.000000
0.000000 0.000000 0.000000
0.000000 0.000000 0.000000
0.000000 0.000000 0.000000
0.000000 0.000000 0.000000
0.000000 0.000000 0.000000
0.000000 0.000000 0.000000
0.000000 0.000000 0.000000
0.000000 0.000000 0.000000
0.000000 0.000000 0.000000
0.000000 0.000000 0.000000
0.000000 0.000000 0.000000
0.000000 0.000000 0.000000
0.000000 0.000000 0.000000
0.000000 0.000000 0.000000
0.000000 0.000000 0.000000
0.000000 0.000000 0.000000
0.000000 0.000000 0.000000
0.000000 0.000000 0.000000
0.000000 0.000000 0.000000
0.000000 0.000000 0.000000
0.000000 0.000000 0.000000
0.000000 0.000000 0.000000
0.000000 0.000000 0.000000
0.000000 0.000000 0.000000
0.000000 0.000000 0.000000
0.000000 0.000000 0.000000
0.000000 0.000000 0.000000
0.000000 0.000000 0.000000
0.000000 0.000000 0.000000
0.000000 0.000000 0.000000
0.000000 0.000000 0.000000
0.000000 0.000000 0.000000
0.000000 0.000000 0.000000
0.000000 0.000000 0.000000
0.000000 0.000000 0.000000
0.000000 0.000000 0.000000
0.000000 0.000000 0.000000
0.000000 0.000000 0.000000
0.000000 0.000000 0.000000
0.000000 0.000000 0.000000
0.000000 0.000000 0.000000
0.000000 0.000000 0.000000
0.000000 0.000000 0.000000
0.000000 0.000000 0.000000
0.000000 0.000000 0.000000
0.000000 0.000000 0.000000
0.000000 0.000000 0.000000
0.000000 0.000000 0.000000
0.000000 0.000000 0.000000
0.000000 0.000000 0.000000
0.000000 0.000000 0.000000
0.000000 0.000000 0.000000
0.000000 0.000000 0.000000
0.000000 0.000000 0.000000
0.000000 0.000000 0.000000
0.000000 0.000000 0.000000
0.000000 0.000000 0.000000
0.000000 0.000000 0.000000
0.000000 0.000000 0.000000
0.000000 0.000000 0.000000
0.000000 0.000000 0.000000
0.000000 0.000000 0.000000
0.000000 0.000000 0.000000
