total_Ti
1.0
9.588310 0.000000 0.000000
0.000000 9.588310 0.000000
0.000000 0.000000 35.000006
Ti
102
direct
0.083333 0.083333 0.500000 Ti
0.083333 0.083333 0.585714 Ti
0.083333 0.083333 0.671428 Ti
0.083333 0.416667 0.500000 Ti
0.083333 0.416667 0.585714 Ti
0.083333 0.416667 0.671428 Ti
0.083333 0.750000 0.500000 Ti
0.083333 0.750000 0.585714 Ti
0.083333 0.750000 0.671428 Ti
0.416667 0.083333 0.500000 Ti
0.416667 0.083333 0.585714 Ti
0.416667 0.083333 0.671428 Ti
0.416667 0.416667 0.500000 Ti
0.416667 0.416667 0.585714 Ti
0.416667 0.416667 0.671428 Ti
0.416667 0.750000 0.500000 Ti
0.416667 0.750000 0.585714 Ti
0.416667 0.750000 0.671428 Ti
0.750000 0.083333 0.500000 Ti
0.750000 0.083333 0.585714 Ti
0.750000 0.083333 0.671428 Ti
0.750000 0.416667 0.500000 Ti
0.750000 0.416667 0.585714 Ti
0.750000 0.416667 0.671428 Ti
0.750000 0.750000 0.500000 Ti
0.750000 0.750000 0.585714 Ti
0.750000 0.750000 0.671428 Ti
0.250000 0.250000 0.542857 Ti
0.250000 0.250000 0.628571 Ti
0.250000 0.250000 0.714286 Ti
0.250000 0.583333 0.542857 Ti
0.250000 0.583333 0.628571 Ti
0.250000 0.583333 0.714286 Ti
0.250000 0.916667 0.542857 Ti
0.250000 0.916667 0.628571 Ti
0.250000 0.916667 0.714286 Ti
0.583333 0.250000 0.542857 Ti
0.583333 0.250000 0.628571 Ti
0.583333 0.250000 0.714286 Ti
0.583333 0.583333 0.542857 Ti
0.583333 0.583333 0.628571 Ti
0.583333 0.583333 0.714286 Ti
0.583333 0.916667 0.542857 Ti
0.583333 0.916667 0.628571 Ti
0.583333 0.916667 0.714286 Ti
0.916667 0.250000 0.542857 Ti
0.916667 0.250000 0.628571 Ti
0.916667 0.250000 0.714286 Ti
0.916667 0.583333 0.542857 Ti
0.916667 0.583333 0.628571 Ti
0.916667 0.583333 0.714286 Ti
0.916667 0.916667 0.542857 Ti
0.916667 0.916667 0.628571 Ti
0.916667 0.916667 0.714286 Ti
0.125000 0.833333 -0.000000 Ti
0.125000 0.333333 -0.000000 Ti
0.625000 0.833333 -0.000000 Ti
0.625000 0.333333 -0.000000 Ti
0.375000 0.666667 -0.000000 Ti
0.375000 0.166667 -0.000000 Ti
0.875000 0.666667 -0.000000 Ti
0.875000 0.166667 -0.000000 Ti
0.875000 0.416667 0.042857 Ti
0.375000 0.416667 0.042857 Ti
0.875000 0.916667 0.042857 Ti
0.375000 0.916667 0.042857 Ti
0.625000 0.083333 0.042857 Ti
0.125000 0.083333 0.042857 Ti
0.625000 0.583333 0.042857 Ti
0.125000 0.583333 0.042857 Ti
0.125000 0.333333 0.085714 Ti
0.625000 0.333333 0.085714 Ti
0.625000 0.833333 0.085714 Ti
0.125000 0.833333 0.085714 Ti
0.875000 0.666667 0.085714 Ti
0.375000 0.166667 0.085714 Ti
0.875000 0.166667 0.085714 Ti
0.375000 0.666667 0.085714 Ti
0.875000 0.416667 0.128571 Ti
0.375000 0.416667 0.128571 Ti
0.875000 0.916667 0.128571 Ti
0.375000 0.916667 0.128571 Ti
0.125000 0.583333 0.128571 Ti
0.625000 0.083333 0.128571 Ti
0.125000 0.083333 0.128571 Ti
0.625000 0.583333 0.128571 Ti
0.625000 0.833333 0.171428 Ti
0.625000 0.333333 0.171428 Ti
0.125000 0.833333 0.171428 Ti
0.125000 0.333333 0.171428 Ti
0.375000 0.166667 0.171428 Ti
0.875000 0.166667 0.171428 Ti
0.375000 0.666667 0.171428 Ti
0.875000 0.666667 0.171428 Ti
0.875000 0.416667 0.214286 Ti
0.375000 0.416667 0.214286 Ti
0.375000 0.916667 0.214286 Ti
0.875000 0.916667 0.214286 Ti
0.625000 0.583333 0.214286 Ti
0.625000 0.083333 0.214286 Ti
0.125000 0.583333 0.214286 Ti
0.125000 0.083333 0.214286 Ti
