total_Ti
1.0
9.445957 0.000000 0.000000
0.000000 9.093951 0.000000
0.000000 0.000000 19.151864
Ti
96
direct
0.166666 0.375000 0.376182 Ti
0.666666 0.375000 0.376182 Ti
0.166666 0.875000 0.376182 Ti
0.666666 0.875000 0.376182 Ti
0.166666 0.375000 0.225710 Ti
0.666666 0.375000 0.225710 Ti
0.166666 0.875000 0.225710 Ti
0.666666 0.875000 0.225710 Ti
0.166666 0.375000 0.075237 Ti
0.666666 0.375000 0.075237 Ti
0.166666 0.875000 0.075237 Ti
0.666666 0.875000 0.075237 Ti
0.416667 0.375000 0.300947 Ti
0.916667 0.375000 0.300947 Ti
0.416667 0.875000 0.300947 Ti
0.916667 0.875000 0.300947 Ti
0.416667 0.375000 0.150473 Ti
0.916667 0.375000 0.150473 Ti
0.416667 0.875000 0.150473 Ti
0.916667 0.875000 0.150473 Ti
0.416667 0.375000 -0.000000 Ti
0.916667 0.375000 -0.000000 Ti
0.416667 0.875000 -0.000000 Ti
0.916667 0.875000 -0.000000 Ti
0.083333 0.125000 0.300946 Ti
0.583333 0.125000 0.300946 Ti
0.083333 0.625000 0.300946 Ti
0.583333 0.625000 0.300946 Ti
0.083333 0.125000 0.150473 Ti
0.583333 0.125000 0.150473 Ti
0.083333 0.625000 0.150473 Ti
0.583333 0.625000 0.150473 Ti
0.083333 0.125000 -0.000000 Ti
0.583333 0.125000 -0.000000 Ti
0.083333 0.625000 -0.000000 Ti
0.583333 0.625000 -0.000000 Ti
0.333333 0.125000 0.376182 Ti
0.833333 0.125000 0.376182 Ti
0.333333 0.625000 0.376182 Ti
0.833333 0.625000 0.376182 Ti
0.333333 0.125000 0.225710 Ti
0.833333 0.125000 0.225710 Ti
0.333333 0.625000 0.225710 Ti
0.833333 0.625000 0.225710 Ti
0.333333 0.125000 0.075237 Ti
0.833333 0.125000 0.075237 Ti
0.333333 0.625000 0.075237 Ti
0.833333 0.625000 0.075237 Ti
0.375000 0.375000 0.813518 Ti
0.875000 0.375000 0.813518 Ti
0.375000 0.875000 0.813518 Ti
0.875000 0.875000 0.813518 Ti
0.125000 0.125000 0.813518 Ti
0.625000 0.125000 0.813518 Ti
0.125000 0.625000 0.813518 Ti
0.625000 0.625000 0.813518 Ti
0.125000 0.375000 0.897137 Ti
0.625000 0.375000 0.897137 Ti
0.125000 0.875000 0.897137 Ti
0.625000 0.875000 0.897137 Ti
0.375000 0.125000 0.897137 Ti
0.875000 0.125000 0.897137 Ti
0.375000 0.625000 0.897137 Ti
0.875000 0.625000 0.897137 Ti
0.375000 0.375000 0.646281 Ti
0.875000 0.375000 0.646281 Ti
0.375000 0.875000 0.646281 Ti
0.875000 0.875000 0.646281 Ti
0.125000 0.125000 0.646281 Ti
0.625000 0.125000 0.646281 Ti
0.125000 0.625000 0.646281 Ti
0.625000 0.625000 0.646281 Ti
0.125000 0.375000 0.562663 Ti
0.625000 0.375000 0.562663 Ti
0.125000 0.875000 0.562663 Ti
0.625000 0.875000 0.562663 Ti
0.375000 0.125000 0.562663 Ti
0.875000 0.125000 0.562663 Ti
0.375000 0.625000 0.562663 Ti
0.875000 0.625000 0.562663 Ti
0.375000 0.375000 0.479044 Ti
0.875000 0.375000 0.479044 Ti
0.375000 0.875000 0.479044 Ti
0.875000 0.875000 0.479044 Ti
0.125000 0.125000 0.479044 Ti
0.625000 0.125000 0.479044 Ti
0.125000 0.625000 0.479044 Ti
0.625000 0.625000 0.479044 Ti
0.125000 0.875000 0.729900 Ti
0.625000 0.875000 0.729900 Ti
0.375000 0.625000 0.729900 Ti
0.875000 0.625000 0.729900 Ti
0.125000 0.375000 0.729900 Ti
0.625000 0.375000 0.729900 Ti
0.375000 0.125000 0.729900 Ti
0.875000 0.125000 0.729900 Ti
