beta_Ti
1.0
5.745590 0.000000 0.000000
0.000000 9.072750 0.000000
0.000000 0.000000 33.625032
Ti
32
direct
0.291667 0.625000 0.500611 Ti
0.291667 0.125000 0.500611 Ti
0.791667 0.625000 0.500611 Ti
0.791667 0.125000 0.500611 Ti
0.458333 0.625000 0.579565 Ti
0.458333 0.125000 0.579565 Ti
0.958333 0.625000 0.579565 Ti
0.958333 0.125000 0.579565 Ti
0.125000 0.625000 0.658519 Ti
0.125000 0.125000 0.658519 Ti
0.625000 0.625000 0.658519 Ti
0.625000 0.125000 0.658519 Ti
0.291667 0.625000 0.737474 Ti
0.291667 0.125000 0.737474 Ti
0.791667 0.625000 0.737474 Ti
0.791667 0.125000 0.737474 Ti
0.125000 0.875000 0.540088 Ti
0.125000 0.375000 0.540088 Ti
0.625000 0.875000 0.540088 Ti
0.625000 0.375000 0.540088 Ti
0.291667 0.875000 0.619042 Ti
0.291667 0.375000 0.619042 Ti
0.791667 0.875000 0.619042 Ti
0.791667 0.375000 0.619042 Ti
0.458333 0.875000 0.697997 Ti
0.458333 0.375000 0.697997 Ti
0.958333 0.875000 0.697997 Ti
0.958333 0.375000 0.697997 Ti
0.125000 0.875000 0.776951 Ti
0.125000 0.375000 0.776951 Ti
0.625000 0.875000 0.776951 Ti
0.625000 0.375000 0.776951 Ti
