alpha_Ti
1.0
9.588310 0.000000 0.000000
0.000000 9.588310 0.000000
0.000000 0.000000 19.100006
Ti
48
direct
0.125000 0.833333 -0.000000 Ti
0.125000 0.333333 -0.000000 Ti
0.625000 0.833333 -0.000000 Ti
0.625000 0.333333 -0.000000 Ti
0.375000 0.666667 -0.000000 Ti
0.375000 0.166667 -0.000000 Ti
0.875000 0.666667 -0.000000 Ti
0.875000 0.166667 -0.000000 Ti
0.875000 0.416667 0.078534 Ti
0.375000 0.416667 0.078534 Ti
0.875000 0.916667 0.078534 Ti
0.375000 0.916667 0.078534 Ti
0.625000 0.083333 0.078534 Ti
0.125000 0.083333 0.078534 Ti
0.625000 0.583333 0.078534 Ti
0.125000 0.583333 0.078534 Ti
0.125000 0.333333 0.157068 Ti
0.625000 0.333333 0.157068 Ti
0.625000 0.833333 0.157068 Ti
0.125000 0.833333 0.157068 Ti
0.875000 0.666667 0.157068 Ti
0.375000 0.166667 0.157068 Ti
0.875000 0.166667 0.157068 Ti
0.375000 0.666667 0.157068 Ti
0.875000 0.416667 0.235602 Ti
0.375000 0.416667 0.235602 Ti
0.875000 0.916667 0.235602 Ti
0.375000 0.916667 0.235602 Ti
0.125000 0.583333 0.235602 Ti
0.625000 0.083333 0.235602 Ti
0.125000 0.083333 0.235602 Ti
0.625000 0.583333 0.235602 Ti
0.625000 0.833333 0.314136 Ti
0.625000 0.333333 0.314136 Ti
0.125000 0.833333 0.314136 Ti
0.125000 0.333333 0.314136 Ti
0.375000 0.166667 0.314136 Ti
0.875000 0.166667 0.314136 Ti
0.375000 0.666667 0.314136 Ti
0.875000 0.666667 0.314136 Ti
0.875000 0.416667 0.392670 Ti
0.375000 0.416667 0.392670 Ti
0.375000 0.916667 0.392670 Ti
0.875000 0.916667 0.392670 Ti
0.625000 0.583333 0.392670 Ti
0.625000 0.083333 0.392670 Ti
0.125000 0.583333 0.392670 Ti
0.125000 0.083333 0.392670 Ti
