Ti83
1.0
6.391540 0.000000 0.000000
0.000000 9.587310 0.000000
0.000000 0.000000 23.271695
Ti
83
Selective dynamics
direct
0.631637 0.083340 0.581133 F F F Ti
0.125360 0.083339 0.709465 F F F Ti
0.625592 0.083344 0.709646 F F F Ti
0.125029 0.083339 0.838412 F F F Ti
0.625074 0.083340 0.838443 F F F Ti
0.125049 0.417511 0.580609 F F F Ti
0.625662 0.417016 0.580601 F F F Ti
0.125170 0.416770 0.709558 F F F Ti
0.625391 0.416874 0.709614 F F F Ti
0.125035 0.416668 0.838434 F F F Ti
0.625053 0.416681 0.838448 F F F Ti
0.124889 0.749063 0.580612 F F F Ti
0.625651 0.749687 0.580599 F F F Ti
0.125113 0.749906 0.709570 F F F Ti
0.625396 0.749835 0.709626 F F F Ti
0.125020 0.750008 0.838437 F F F Ti
0.625053 0.750000 0.838452 F F F Ti
0.376597 0.250749 0.645414 F F F Ti
0.875734 0.250437 0.645171 F F F Ti
0.375097 0.250026 0.774008 F F F Ti
0.875171 0.250022 0.773993 F F F Ti
0.375006 0.249997 0.902871 F F F Ti
0.875031 0.249997 0.902872 F F F Ti
0.375315 0.583448 0.645105 F F F Ti
0.875019 0.583336 0.645143 F F F Ti
0.375052 0.583350 0.774010 F F F Ti
0.875129 0.583328 0.774025 F F F Ti
0.375001 0.583334 0.902877 F F F Ti
0.875025 0.583331 0.902881 F F F Ti
0.376599 0.915909 0.645431 F F F Ti
0.875734 0.916249 0.645177 F F F Ti
0.375090 0.916660 0.774009 F F F Ti
0.875165 0.916663 0.773991 F F F Ti
0.374999 0.916672 0.902868 F F F Ti
0.875024 0.916672 0.902869 F F F Ti
0.124614 0.166771 0.386614 F F F Ti
0.624194 0.166831 0.386570 F F F Ti
0.124979 0.666414 0.386518 F F F Ti
0.624993 0.666639 0.386631 F F F Ti
0.125000 0.166662 -0.000005 F F F Ti
0.624995 0.166664 -0.000002 F F F Ti
0.125000 0.666675 -0.000001 F F F Ti
0.624996 0.666673 0.000001 F F F Ti
0.124998 0.833338 0.096666 F F F Ti
0.624994 0.833339 0.096666 F F F Ti
0.123203 0.830928 0.482924 F F F Ti
0.625233 0.832847 0.483369 F F F Ti
0.124998 0.333331 0.096666 F F F Ti
0.624992 0.333333 0.096665 F F F Ti
0.123270 0.335731 0.482916 F F F Ti
0.625086 0.333864 0.483368 F F F Ti
0.375411 0.583538 0.483357 F F F Ti
0.874271 0.583419 0.483333 F F F Ti
0.375001 0.583334 0.096665 F F F Ti
0.875003 0.583334 0.096664 F F F Ti
0.374997 0.083336 0.096669 F F F Ti
0.874996 0.083337 0.096667 F F F Ti
0.869138 0.083335 0.482475 F F F Ti
0.375063 0.416785 0.386615 F F F Ti
0.874488 0.416830 0.386528 F F F Ti
0.374725 0.916554 0.386679 F F F Ti
0.874581 0.916458 0.386485 F F F Ti
0.374989 0.416664 -0.000002 F F F Ti
0.875000 0.416663 -0.000001 F F F Ti
0.374990 0.916670 -0.000001 F F F Ti
0.875001 0.916669 -0.000000 F F F Ti
0.374848 0.083317 0.289998 F F F Ti
0.874882 0.083352 0.289966 F F F Ti
0.124986 0.166664 0.193333 F F F Ti
0.624954 0.166660 0.193328 F F F Ti
0.124958 0.333357 0.289974 F F F Ti
0.624866 0.333344 0.289958 F F F Ti
0.374968 0.416669 0.193322 F F F Ti
0.874969 0.416665 0.193319 F F F Ti
0.375047 0.583347 0.289972 F F F Ti
0.874915 0.583350 0.289942 F F F Ti
0.124995 0.666663 0.193323 F F F Ti
0.624962 0.666666 0.193319 F F F Ti
0.124992 0.833323 0.289974 F F F Ti
0.624849 0.833319 0.289973 F F F Ti
0.374962 0.916667 0.193331 F F F Ti
0.874969 0.916659 0.193326 F F F Ti
0.218775 0.082775 0.546383 T T T Ti

0.000000 0.000000 0.000000
0.000000 0.000000 0.000000
0.000000 0.000000 0.000000
0.000000 0.000000 0.000000
0.000000 0.000000 0.000000
0.000000 0.000000 0.000000
0.000000 0.000000 0.000000
0.000000 0.000000 0.000000
0.000000 0.000000 0.000000
0.000000 0.000000 0.000000
0.000000 0.000000 0.000000
0.000000 0.000000 0.000000
0.000000 0.000000 0.000000
0.000000 0.000000 0.000000
0.000000 0.000000 0.000000
0.000000 0.000000 0.000000
0.000000 0.000000 0.000000
0.000000 0.000000 0.000000
0.000000 0.000000 0.000000
0.000000 0.000000 0.000000
0.000000 0.000000 0.000000
0.000000 0.000000 0.000000
0.000000 0.000000 0.000000
0.000000 0.000000 0.000000
0.000000 0.000000 0.000000
0.000000 0.000000 0.000000
0.000000 0.000000 0.000000
0.000000 0.000000 0.000000
0.000000 0.000000 0.000000
0.000000 0.000000 0.000000
0.000000 0.000000 0.000000
0.000000 0.000000 0.000000
0.000000 0.000000 0.000000
0.000000 0.000000 0.000000
0.000000 0.000000 0.000000
0.000000 0.000000 0.000000
0.000000 0.000000 0.000000
0.000000 0.000000 0.000000
0.000000 0.000000 0.000000
0.000000 0.000000 0.000000
0.000000 0.000000 0.000000
0.000000 0.000000 0.000000
0.000000 0.000000 0.000000
0.000000 0.000000 0.000000
0.000000 0.000000 0.000000
0.000000 0.000000 0.000000
0.000000 0.000000 0.000000
0.000000 0.000000 0.000000
0.000000 0.000000 0.000000
0.000000 0.000000 0.000000
0.000000 0.000000 0.000000
0.000000 0.000000 0.000000
0.000000 0.000000 0.000000
0.000000 0.000000 0.000000
0.000000 0.000000 0.000000
0.000000 0.000000 0.000000
0.000000 0.000000 0.000000
0.000000 0.000000 0.000000
0.000000 0.000000 0.000000
0.000000 0.000000 0.000000
0.000000 0.000000 0.000000
0.000000 0.000000 0.000000
0.000000 0.000000 0.000000
0.000000 0.000000 0.000000
0.000000 0.000000 0.000000
0.000000 0.000000 0.000000
0.000000 0.000000 0.000000
0.000000 0.000000 0.000000
0.000000 0.000000 0.000000
0.000000 0.000000 0.000000
0.000000 0.000000 0.000000
0.000000 0.000000 0.000000
0.000000 0.000000 0.000000
0.000000 0.000000 0.000000
0.000000 0.000000 0.000000
0.000000 0.000000 0.000000
0.000000 0.000000 0.000000
0.000000 0.000000 0.000000
0.000000 0.000000 0.000000
0.000000 0.000000 0.000000
0.000000 0.000000 0.000000
0.000000 0.000000 0.000000
0.000000 0.000000 0.000000
