Ti67
1.0
6.309760 0.000000 0.000000
0.000000 9.464640 0.000000
0.000000 0.000000 18.918326
Ti
67
Selective dynamics
direct
0.125088 0.041892 0.500010 F F F Ti
0.625145 0.041554 0.500141 F F F Ti
0.125063 0.041566 0.658686 F F F Ti
0.625036 0.041534 0.658709 F F F Ti
0.125039 0.041607 0.817194 F F F Ti
0.624976 0.041596 0.817186 F F F Ti
0.125293 0.375258 0.500653 F F F Ti
0.624921 0.375048 0.501759 F F F Ti
0.124960 0.375022 0.658825 F F F Ti
0.625015 0.375004 0.658952 F F F Ti
0.124999 0.375003 0.817240 F F F Ti
0.624948 0.375005 0.817242 F F F Ti
0.125096 0.708259 0.500026 F F F Ti
0.624742 0.708726 0.500164 F F F Ti
0.124995 0.708495 0.658691 F F F Ti
0.624952 0.708551 0.658728 F F F Ti
0.125005 0.708303 0.817221 F F F Ti
0.624947 0.708315 0.817215 F F F Ti
0.374892 0.208074 0.579595 F F F Ti
0.875225 0.208074 0.579637 F F F Ti
0.374992 0.208260 0.737975 F F F Ti
0.875019 0.208254 0.737986 F F F Ti
0.374996 0.208295 0.896361 F F F Ti
0.875004 0.208301 0.896340 F F F Ti
0.374967 0.542070 0.579697 F F F Ti
0.875081 0.542128 0.579728 F F F Ti
0.374983 0.541745 0.738002 F F F Ti
0.874995 0.541757 0.738013 F F F Ti
0.374973 0.541636 0.896439 F F F Ti
0.874994 0.541642 0.896426 F F F Ti
0.374897 0.875109 0.579341 F F F Ti
0.875142 0.875073 0.579348 F F F Ti
0.374978 0.874994 0.737931 F F F Ti
0.875009 0.874993 0.737935 F F F Ti
0.375013 0.874880 0.896392 F F F Ti
0.875017 0.874872 0.896377 F F F Ti
0.125257 0.625568 0.357202 F F F Ti
0.625547 0.625820 0.356789 F F F Ti
0.125227 0.624290 0.118969 F F F Ti
0.624948 0.624617 0.118899 F F F Ti
0.627410 0.124739 0.356920 F F F Ti
0.125255 0.124104 0.118553 F F F Ti
0.625190 0.124334 0.117947 F F F Ti
0.125202 0.374722 0.039532 F F F Ti
0.624907 0.374923 0.039306 F F F Ti
0.125058 0.874501 0.039451 F F F Ti
0.624993 0.874461 0.039347 F F F Ti
0.629508 0.374485 0.277607 F F F Ti
0.125266 0.874481 0.277346 F F F Ti
0.625078 0.873463 0.277567 F F F Ti
0.375287 0.873719 0.158277 F F F Ti
0.874928 0.873485 0.158163 F F F Ti
0.376495 0.374265 0.158327 F F F Ti
0.873383 0.374574 0.157702 F F F Ti
0.383587 0.377498 0.398856 F F F Ti
0.865710 0.378388 0.399695 F F F Ti
0.374901 0.875585 0.396418 F F F Ti
0.875476 0.875252 0.396472 F F F Ti
0.374991 0.623942 0.238030 F F F Ti
0.875417 0.624596 0.237868 F F F Ti
0.374920 0.624792 -0.000018 F F F Ti
0.875094 0.624803 -0.000033 F F F Ti
0.382355 0.120891 0.236591 F F F Ti
0.867226 0.119779 0.235970 F F F Ti
0.374936 0.124725 -0.000228 F F F Ti
0.875190 0.124722 -0.000256 F F F Ti
0.115858 0.313876 0.298356 T T T Ti

0.000000 0.000000 0.000000
0.000000 0.000000 0.000000
0.000000 0.000000 0.000000
0.000000 0.000000 0.000000
0.000000 0.000000 0.000000
0.000000 0.000000 0.000000
0.000000 0.000000 0.000000
0.000000 0.000000 0.000000
0.000000 0.000000 0.000000
0.000000 0.000000 0.000000
0.000000 0.000000 0.000000
0.000000 0.000000 0.000000
0.000000 0.000000 0.000000
0.000000 0.000000 0.000000
0.000000 0.000000 0.000000
0.000000 0.000000 0.000000
0.000000 0.000000 0.000000
0.000000 0.000000 0.000000
0.000000 0.000000 0.000000
0.000000 0.000000 0.000000
0.000000 0.000000 0.000000
0.000000 0.000000 0.000000
0.000000 0.000000 0.000000
0.000000 0.000000 0.000000
0.000000 0.000000 0.000000
0.000000 0.000000 0.000000
0.000000 0.000000 0.000000
0.000000 0.000000 0.000000
0.000000 0.000000 0.000000
0.000000 0.000000 0.000000
0.000000 0.000000 0.000000
0.000000 0.000000 0.000000
0.000000 0.000000 0.000000
0.000000 0.000000 0.000000
0.000000 0.000000 0.000000
0.000000 0.000000 0.000000
0.000000 0.000000 0.000000
0.000000 0.000000 0.000000
0.000000 0.000000 0.000000
0.000000 0.000000 0.000000
0.000000 0.000000 0.000000
0.000000 0.000000 0.000000
0.000000 0.000000 0.000000
0.000000 0.000000 0.000000
0.000000 0.000000 0.000000
0.000000 0.000000 0.000000
0.000000 0.000000 0.000000
0.000000 0.000000 0.000000
0.000000 0.000000 0.000000
0.000000 0.000000 0.000000
0.000000 0.000000 0.000000
0.000000 0.000000 0.000000
0.000000 0.000000 0.000000
0.000000 0.000000 0.000000
0.000000 0.000000 0.000000
0.000000 0.000000 0.000000
0.000000 0.000000 0.000000
0.000000 0.000000 0.000000
0.000000 0.000000 0.000000
0.000000 0.000000 0.000000
0.000000 0.000000 0.000000
0.000000 0.000000 0.000000
0.000000 0.000000 0.000000
0.000000 0.000000 0.000000
0.000000 0.000000 0.000000
0.000000 0.000000 0.000000
0.000000 0.000000 0.000000
