Ti66 Cr1
1.0
6.309760 0.000000 0.000000
0.000000 9.464640 0.000000
0.000000 0.000000 18.918326
Ti Cr
66 1
Selective dynamics
direct
0.629485 0.041401 0.499994 F F F Ti
0.125291 0.041969 0.658510 F F F Ti
0.625315 0.041699 0.658620 F F F Ti
0.125138 0.041715 0.817131 F F F Ti
0.625088 0.041687 0.817167 F F F Ti
0.126105 0.380005 0.500790 F F F Ti
0.626655 0.375420 0.500354 F F F Ti
0.125554 0.375507 0.658951 F F F Ti
0.625259 0.375489 0.658969 F F F Ti
0.125125 0.375042 0.817245 F F F Ti
0.625068 0.375034 0.817265 F F F Ti
0.125287 0.708639 0.500005 F F F Ti
0.624500 0.707317 0.500571 F F F Ti
0.125351 0.708786 0.658669 F F F Ti
0.624897 0.708770 0.658792 F F F Ti
0.125094 0.708482 0.817187 F F F Ti
0.625026 0.708498 0.817214 F F F Ti
0.376739 0.209209 0.579686 F F F Ti
0.874375 0.209859 0.580240 F F F Ti
0.375258 0.208376 0.737957 F F F Ti
0.875144 0.208423 0.738041 F F F Ti
0.375008 0.208227 0.896377 F F F Ti
0.875123 0.208234 0.896389 F F F Ti
0.375785 0.542133 0.579697 F F F Ti
0.875025 0.542283 0.579776 F F F Ti
0.375168 0.541928 0.738039 F F F Ti
0.875143 0.541942 0.738053 F F F Ti
0.375029 0.541597 0.896378 F F F Ti
0.875087 0.541600 0.896378 F F F Ti
0.375153 0.875638 0.578997 F F F Ti
0.875278 0.874778 0.579434 F F F Ti
0.375037 0.875229 0.737831 F F F Ti
0.875194 0.875169 0.737908 F F F Ti
0.374987 0.875068 0.896326 F F F Ti
0.875132 0.875065 0.896339 F F F Ti
0.126143 0.623918 0.356375 F F F Ti
0.624213 0.622633 0.356060 F F F Ti
0.125203 0.624677 0.118679 F F F Ti
0.625016 0.624668 0.118631 F F F Ti
0.630784 0.124294 0.356715 F F F Ti
0.125395 0.124752 0.118971 F F F Ti
0.624934 0.124783 0.118922 F F F Ti
0.125113 0.374781 0.039577 F F F Ti
0.624982 0.374785 0.039564 F F F Ti
0.125146 0.874925 0.039502 F F F Ti
0.625002 0.874938 0.039493 F F F Ti
0.125323 0.374559 0.277540 F F F Ti
0.625620 0.374074 0.277226 F F F Ti
0.125260 0.873392 0.277271 F F F Ti
0.625142 0.874328 0.276449 F F F Ti
0.374873 0.874798 0.158355 F F F Ti
0.875424 0.874636 0.158247 F F F Ti
0.375050 0.374423 0.158525 F F F Ti
0.875256 0.374564 0.158396 F F F Ti
0.378151 0.377284 0.396549 F F F Ti
0.872884 0.379642 0.396486 F F F Ti
0.383922 0.868286 0.395581 F F F Ti
0.862742 0.863167 0.395102 F F F Ti
0.375246 0.624261 0.237384 F F F Ti
0.875153 0.624112 0.237353 F F F Ti
0.375023 0.624906 -0.000120 F F F Ti
0.875069 0.624908 -0.000115 F F F Ti
0.375028 0.124393 0.238282 F F F Ti
0.875807 0.124405 0.237643 F F F Ti
0.375030 0.124911 -0.000038 F F F Ti
0.875111 0.124908 -0.000029 F F F Ti
0.104050 0.077403 0.423892 T T T Cr
