Zr1 Ti96
1.0
9.513020 0.000000 0.000000
0.000000 9.350860 0.000000
0.000000 0.000000 18.547230
Ti Zr
96 1
Selective dynamics
direct
0.147582 0.379797 0.403885 T T T Ti
0.646004 0.332661 0.408172 T T T Ti
0.129945 0.850798 0.415124 T T T Ti
0.672329 0.878109 0.411548 T T T Ti
0.150063 0.366199 0.240628 T T T Ti
0.651105 0.362750 0.238417 T T T Ti
0.159707 0.866868 0.231699 T T T Ti
0.678891 0.894134 0.231119 T T T Ti
0.166695 0.375108 0.077464 F F F Ti
0.666739 0.374988 0.077386 F F F Ti
0.166737 0.875004 0.077449 F F F Ti
0.666594 0.874927 0.077497 F F F Ti
0.411387 0.394336 0.324447 T T T Ti
0.898045 0.375524 0.325678 T T T Ti
0.334296 0.935408 0.335950 T T T Ti
0.912335 0.875391 0.316713 T T T Ti
0.416739 0.375245 0.154959 F F F Ti
0.916805 0.374872 0.154971 F F F Ti
0.416593 0.875011 0.155280 F F F Ti
0.916701 0.875057 0.154900 F F F Ti
0.416671 0.375043 -0.000129 F F F Ti
0.916668 0.374985 -0.000156 F F F Ti
0.416666 0.874972 -0.000058 F F F Ti
0.916663 0.874983 -0.000159 F F F Ti
0.101955 0.124477 0.325677 T T T Ti
0.588613 0.105666 0.324446 T T T Ti
0.087665 0.624610 0.316712 T T T Ti
0.665704 0.564593 0.335949 T T T Ti
0.083194 0.125152 0.154970 F F F Ti
0.583260 0.124780 0.154962 F F F Ti
0.083299 0.624969 0.154900 F F F Ti
0.583408 0.624999 0.155279 F F F Ti
0.083333 0.125016 -0.000156 F F F Ti
0.583331 0.124964 -0.000128 F F F Ti
0.083338 0.625022 -0.000159 F F F Ti
0.583336 0.625026 -0.000060 F F F Ti
0.353995 0.167340 0.408172 T T T Ti
0.852417 0.120204 0.403885 T T T Ti
0.327670 0.621891 0.411548 T T T Ti
0.870054 0.649202 0.415124 T T T Ti
0.348894 0.137255 0.238417 T T T Ti
0.849937 0.133806 0.240628 T T T Ti
0.321108 0.605870 0.231119 T T T Ti
0.840292 0.633137 0.231699 T T T Ti
0.333261 0.125030 0.077386 F F F Ti
0.833304 0.124906 0.077465 F F F Ti
0.333405 0.625088 0.077495 F F F Ti
0.833263 0.625012 0.077448 F F F Ti
0.375035 0.375087 0.823754 F F F Ti
0.874933 0.374954 0.823731 F F F Ti
0.375035 0.874987 0.823678 F F F Ti
0.874925 0.874945 0.823716 F F F Ti
0.125065 0.125031 0.823730 F F F Ti
0.624971 0.124907 0.823755 F F F Ti
0.125079 0.625047 0.823716 F F F Ti
0.624967 0.625003 0.823678 F F F Ti
0.125027 0.375083 0.910040 F F F Ti
0.624998 0.375078 0.910085 F F F Ti
0.125058 0.874964 0.910043 F F F Ti
0.624957 0.874913 0.910119 F F F Ti
0.375006 0.124910 0.910087 F F F Ti
0.874980 0.124908 0.910041 F F F Ti
0.375044 0.625070 0.910118 F F F Ti
0.874948 0.625025 0.910042 F F F Ti
0.394919 0.386217 0.654478 T T T Ti
0.897847 0.380280 0.653932 T T T Ti
0.397616 0.886392 0.651279 T T T Ti
0.888965 0.885734 0.660118 T T T Ti
0.102152 0.119717 0.653932 T T T Ti
0.605079 0.113779 0.654478 T T T Ti
0.111032 0.614262 0.660118 T T T Ti
0.602384 0.613604 0.651279 T T T Ti
0.149387 0.366198 0.573822 T T T Ti
0.651021 0.356980 0.576734 T T T Ti
0.142908 0.866399 0.581586 T T T Ti
0.651141 0.861692 0.573123 T T T Ti
0.348979 0.143018 0.576734 T T T Ti
0.850613 0.133801 0.573822 T T T Ti
0.348858 0.638306 0.573123 T T T Ti
0.857092 0.633600 0.581586 T T T Ti
0.402726 0.391024 0.495920 T T T Ti
0.896785 0.372493 0.486428 T T T Ti
0.377639 0.907352 0.490550 T T T Ti
0.908312 0.889733 0.499369 T T T Ti
0.103215 0.127507 0.486428 T T T Ti
0.597274 0.108976 0.495920 T T T Ti
0.091688 0.610266 0.499369 T T T Ti
0.622361 0.592648 0.490550 T T T Ti
0.125130 0.875208 0.737535 F F F Ti
0.624869 0.874835 0.737518 F F F Ti
0.375124 0.625147 0.737513 F F F Ti
0.874865 0.624774 0.737540 F F F Ti
0.124946 0.374996 0.737516 F F F Ti
0.625010 0.374915 0.737573 F F F Ti
0.374981 0.125063 0.737573 F F F Ti
0.875050 0.124988 0.737516 F F F Ti
0.500000 0.750000 0.336036 T T T Zr

0.000000 0.000000 0.000000
0.000000 0.000000 0.000000
0.000000 0.000000 0.000000
0.000000 0.000000 0.000000
0.000000 0.000000 0.000000
0.000000 0.000000 0.000000
0.000000 0.000000 0.000000
0.000000 0.000000 0.000000
0.000000 0.000000 0.000000
0.000000 0.000000 0.000000
0.000000 0.000000 0.000000
0.000000 0.000000 0.000000
0.000000 0.000000 0.000000
0.000000 0.000000 0.000000
0.000000 0.000000 0.000000
0.000000 0.000000 0.000000
0.000000 0.000000 0.000000
0.000000 0.000000 0.000000
0.000000 0.000000 0.000000
0.000000 0.000000 0.000000
0.000000 0.000000 0.000000
0.000000 0.000000 0.000000
0.000000 0.000000 0.000000
0.000000 0.000000 0.000000
0.000000 0.000000 0.000000
0.000000 0.000000 0.000000
0.000000 0.000000 0.000000
0.000000 0.000000 0.000000
0.000000 0.000000 0.000000
0.000000 0.000000 0.000000
0.000000 0.000000 0.000000
0.000000 0.000000 0.000000
0.000000 0.000000 0.000000
0.000000 0.000000 0.000000
0.000000 0.000000 0.000000
0.000000 0.000000 0.000000
0.000000 0.000000 0.000000
0.000000 0.000000 0.000000
0.000000 0.000000 0.000000
0.000000 0.000000 0.000000
0.000000 0.000000 0.000000
0.000000 0.000000 0.000000
0.000000 0.000000 0.000000
0.000000 0.000000 0.000000
0.000000 0.000000 0.000000
0.000000 0.000000 0.000000
0.000000 0.000000 0.000000
0.000000 0.000000 0.000000
0.000000 0.000000 0.000000
0.000000 0.000000 0.000000
0.000000 0.000000 0.000000
0.000000 0.000000 0.000000
0.000000 0.000000 0.000000
0.000000 0.000000 0.000000
0.000000 0.000000 0.000000
0.000000 0.000000 0.000000
0.000000 0.000000 0.000000
0.000000 0.000000 0.000000
0.000000 0.000000 0.000000
0.000000 0.000000 0.000000
0.000000 0.000000 0.000000
0.000000 0.000000 0.000000
0.000000 0.000000 0.000000
0.000000 0.000000 0.000000
0.000000 0.000000 0.000000
0.000000 0.000000 0.000000
0.000000 0.000000 0.000000
0.000000 0.000000 0.000000
0.000000 0.000000 0.000000
0.000000 0.000000 0.000000
0.000000 0.000000 0.000000
0.000000 0.000000 0.000000
0.000000 0.000000 0.000000
0.000000 0.000000 0.000000
0.000000 0.000000 0.000000
0.000000 0.000000 0.000000
0.000000 0.000000 0.000000
0.000000 0.000000 0.000000
0.000000 0.000000 0.000000
0.000000 0.000000 0.000000
0.000000 0.000000 0.000000
0.000000 0.000000 0.000000
0.000000 0.000000 0.000000
0.000000 0.000000 0.000000
0.000000 0.000000 0.000000
0.000000 0.000000 0.000000
0.000000 0.000000 0.000000
0.000000 0.000000 0.000000
0.000000 0.000000 0.000000
0.000000 0.000000 0.000000
0.000000 0.000000 0.000000
0.000000 0.000000 0.000000
0.000000 0.000000 0.000000
0.000000 0.000000 0.000000
0.000000 0.000000 0.000000
0.000000 0.000000 0.000000
0.000000 0.000000 0.000000
