total_Ti
1.0
4.756512 0.000000 0.000000
0.000000 4.675432 0.000000
0.000000 0.000000 33.211800
Ti
24
direct
0.333333 0.750000 0.216929 Ti
0.333333 0.750000 0.130157 Ti
0.333333 0.750000 0.043386 Ti
0.833334 0.750000 0.173543 Ti
0.833334 0.750000 0.086772 Ti
0.833334 0.750000 -0.000000 Ti
0.166666 0.250000 0.173543 Ti
0.166666 0.250000 0.086772 Ti
0.166666 0.250000 -0.000000 Ti
0.666667 0.250000 0.216929 Ti
0.666667 0.250000 0.130157 Ti
0.666667 0.250000 0.043386 Ti
0.666667 0.750000 0.729013 Ti
0.166667 0.250000 0.729013 Ti
0.166667 0.750000 0.680794 Ti
0.666667 0.250000 0.680794 Ti
0.666667 0.750000 0.632575 Ti
0.166667 0.250000 0.632575 Ti
0.166667 0.750000 0.584356 Ti
0.666667 0.250000 0.584356 Ti
0.666667 0.750000 0.536136 Ti
0.166667 0.250000 0.536136 Ti
0.166667 0.750000 0.487917 Ti
0.666667 0.250000 0.487917 Ti
