Zr1 Ti66
1.0
6.309760 0.000000 0.000000
0.000000 9.464640 0.000000
0.000000 0.000000 18.918326
Ti Zr
66 1
Selective dynamics
direct
0.124933 0.041490 0.500027 F F F Ti
0.625092 0.041593 0.500013 F F F Ti
0.124993 0.041650 0.658591 F F F Ti
0.625032 0.041645 0.658594 F F F Ti
0.125000 0.041666 0.817157 F F F Ti
0.625003 0.041666 0.817158 F F F Ti
0.626339 0.375015 0.500210 F F F Ti
0.125004 0.375000 0.658582 F F F Ti
0.625051 0.375001 0.658609 F F F Ti
0.124998 0.375000 0.817155 F F F Ti
0.625004 0.375000 0.817159 F F F Ti
0.124937 0.708495 0.500026 F F F Ti
0.625080 0.708407 0.500013 F F F Ti
0.124992 0.708348 0.658588 F F F Ti
0.625027 0.708357 0.658593 F F F Ti
0.124999 0.708334 0.817156 F F F Ti
0.625002 0.708335 0.817157 F F F Ti
0.375154 0.208190 0.579402 F F F Ti
0.875050 0.208289 0.579310 F F F Ti
0.375002 0.208330 0.737877 F F F Ti
0.875004 0.208330 0.737871 F F F Ti
0.375000 0.208333 0.896443 F F F Ti
0.875000 0.208333 0.896442 F F F Ti
0.375151 0.541809 0.579400 F F F Ti
0.875052 0.541711 0.579310 F F F Ti
0.375002 0.541671 0.737876 F F F Ti
0.875004 0.541670 0.737871 F F F Ti
0.375000 0.541667 0.896443 F F F Ti
0.875000 0.541667 0.896442 F F F Ti
0.375018 0.875018 0.579299 F F F Ti
0.874985 0.875004 0.579302 F F F Ti
0.375001 0.875002 0.737872 F F F Ti
0.875000 0.875000 0.737871 F F F Ti
0.375000 0.875000 0.896443 F F F Ti
0.874999 0.875000 0.896442 F F F Ti
0.124788 0.625312 0.356690 F F F Ti
0.625033 0.625065 0.356781 F F F Ti
0.124999 0.625004 0.118926 F F F Ti
0.624997 0.625002 0.118928 F F F Ti
0.124784 0.124689 0.356688 F F F Ti
0.625042 0.124938 0.356780 F F F Ti
0.124999 0.124998 0.118926 F F F Ti
0.624997 0.124999 0.118927 F F F Ti
0.125000 0.375000 0.039641 F F F Ti
0.624999 0.375000 0.039642 F F F Ti
0.125000 0.875001 0.039642 F F F Ti
0.624999 0.875001 0.039642 F F F Ti
0.124891 0.375001 0.277425 F F F Ti
0.624942 0.375001 0.277489 F F F Ti
0.124995 0.875014 0.277490 F F F Ti
0.624989 0.875008 0.277502 F F F Ti
0.375004 0.875002 0.158571 F F F Ti
0.874993 0.875003 0.158569 F F F Ti
0.375004 0.375000 0.158569 F F F Ti
0.874977 0.375000 0.158562 F F F Ti
0.873814 0.375000 0.396272 F F F Ti
0.375020 0.875044 0.396439 F F F Ti
0.874960 0.875022 0.396438 F F F Ti
0.375009 0.625011 0.237852 F F F Ti
0.874957 0.625018 0.237841 F F F Ti
0.375001 0.625001 -0.000001 F F F Ti
0.874998 0.625001 -0.000002 F F F Ti
0.375009 0.124991 0.237853 F F F Ti
0.874957 0.124983 0.237841 F F F Ti
0.375000 0.124999 -0.000001 F F F Ti
0.874998 0.124999 -0.000002 F F F Ti
0.259938 0.374869 0.445332 T T T Zr

0.000000 0.000000 0.000000
0.000000 0.000000 0.000000
0.000000 0.000000 0.000000
0.000000 0.000000 0.000000
0.000000 0.000000 0.000000
0.000000 0.000000 0.000000
0.000000 0.000000 0.000000
0.000000 0.000000 0.000000
0.000000 0.000000 0.000000
0.000000 0.000000 0.000000
0.000000 0.000000 0.000000
0.000000 0.000000 0.000000
0.000000 0.000000 0.000000
0.000000 0.000000 0.000000
0.000000 0.000000 0.000000
0.000000 0.000000 0.000000
0.000000 0.000000 0.000000
0.000000 0.000000 0.000000
0.000000 0.000000 0.000000
0.000000 0.000000 0.000000
0.000000 0.000000 0.000000
0.000000 0.000000 0.000000
0.000000 0.000000 0.000000
0.000000 0.000000 0.000000
0.000000 0.000000 0.000000
0.000000 0.000000 0.000000
0.000000 0.000000 0.000000
0.000000 0.000000 0.000000
0.000000 0.000000 0.000000
0.000000 0.000000 0.000000
0.000000 0.000000 0.000000
0.000000 0.000000 0.000000
0.000000 0.000000 0.000000
0.000000 0.000000 0.000000
0.000000 0.000000 0.000000
0.000000 0.000000 0.000000
0.000000 0.000000 0.000000
0.000000 0.000000 0.000000
0.000000 0.000000 0.000000
0.000000 0.000000 0.000000
0.000000 0.000000 0.000000
0.000000 0.000000 0.000000
0.000000 0.000000 0.000000
0.000000 0.000000 0.000000
0.000000 0.000000 0.000000
0.000000 0.000000 0.000000
0.000000 0.000000 0.000000
0.000000 0.000000 0.000000
0.000000 0.000000 0.000000
0.000000 0.000000 0.000000
0.000000 0.000000 0.000000
0.000000 0.000000 0.000000
0.000000 0.000000 0.000000
0.000000 0.000000 0.000000
0.000000 0.000000 0.000000
0.000000 0.000000 0.000000
0.000000 0.000000 0.000000
0.000000 0.000000 0.000000
0.000000 0.000000 0.000000
0.000000 0.000000 0.000000
0.000000 0.000000 0.000000
0.000000 0.000000 0.000000
0.000000 0.000000 0.000000
0.000000 0.000000 0.000000
0.000000 0.000000 0.000000
0.000000 0.000000 0.000000
0.000000 0.000000 0.000000
