Ti36
1.0
8.805261 0.000000 0.000000
-4.402630 7.625580 0.000000
0.000000 0.000000 26.288801
Ti
36
direct
0.222214 0.944436 0.490396 Ti
0.222214 0.444436 0.490396 Ti
0.722214 0.944436 0.490396 Ti
0.722214 0.444436 0.490396 Ti
0.388880 0.277769 0.736594 Ti
0.388880 0.777769 0.736594 Ti
0.888880 0.277769 0.736594 Ti
0.888880 0.777769 0.736594 Ti
0.555547 0.111102 0.771765 Ti
0.555547 0.611103 0.771765 Ti
0.055556 0.111102 0.771765 Ti
0.055556 0.611103 0.771765 Ti
0.388880 0.277769 0.525567 Ti
0.388880 0.777769 0.525567 Ti
0.888880 0.277769 0.525567 Ti
0.888880 0.777769 0.525567 Ti
0.555547 0.111102 0.560738 Ti
0.555547 0.611103 0.560738 Ti
0.055556 0.111102 0.560738 Ti
0.055556 0.611103 0.560738 Ti
0.222214 0.944436 0.595910 Ti
0.222214 0.444436 0.595910 Ti
0.722214 0.944436 0.595910 Ti
0.722214 0.444436 0.595910 Ti
0.388880 0.277769 0.631081 Ti
0.388880 0.777769 0.631081 Ti
0.888880 0.277769 0.631081 Ti
0.888880 0.777769 0.631081 Ti
0.555547 0.111102 0.666252 Ti
0.555547 0.611103 0.666252 Ti
0.055556 0.111102 0.666252 Ti
0.055556 0.611103 0.666252 Ti
0.222214 0.944436 0.701423 Ti
0.222214 0.444436 0.701423 Ti
0.722214 0.944436 0.701423 Ti
0.722214 0.444436 0.701423 Ti
