Ti72
1.0
8.805261 0.000000 0.000000
-4.402630 7.625580 0.000000
0.000000 0.000000 29.288801
Ti
72
direct
0.967272 0.027818 0.491380 Ti
0.967272 0.527818 0.491380 Ti
0.467272 0.027818 0.491380 Ti
0.467272 0.527818 0.491380 Ti
0.133938 0.361151 0.712360 Ti
0.133938 0.861151 0.712360 Ti
0.633938 0.361151 0.712360 Ti
0.633938 0.861151 0.712360 Ti
0.300605 0.194485 0.743929 Ti
0.300605 0.694485 0.743929 Ti
0.800605 0.194485 0.743929 Ti
0.800605 0.694485 0.743929 Ti
0.133938 0.361151 0.522949 Ti
0.133938 0.861151 0.522949 Ti
0.633938 0.361151 0.522949 Ti
0.633938 0.861151 0.522949 Ti
0.300605 0.194485 0.554517 Ti
0.300605 0.694485 0.554517 Ti
0.800605 0.194485 0.554517 Ti
0.800605 0.694485 0.554517 Ti
0.967272 0.027818 0.586086 Ti
0.967272 0.527818 0.586086 Ti
0.467272 0.027818 0.586086 Ti
0.467272 0.527818 0.586086 Ti
0.133938 0.361151 0.617654 Ti
0.133938 0.861151 0.617654 Ti
0.633938 0.361151 0.617654 Ti
0.633938 0.861151 0.617654 Ti
0.300605 0.194485 0.649223 Ti
0.300605 0.694485 0.649223 Ti
0.800605 0.194485 0.649223 Ti
0.800605 0.694485 0.649223 Ti
0.967272 0.027818 0.680792 Ti
0.967272 0.527818 0.680792 Ti
0.467272 0.027818 0.680792 Ti
0.467272 0.527818 0.680792 Ti
0.111111 0.888889 -0.000000 Ti
0.111111 0.888889 0.156873 Ti
0.111111 0.555556 -0.000000 Ti
0.222222 0.777778 0.078436 Ti
0.111111 0.555556 0.156873 Ti
0.444444 0.888889 -0.000000 Ti
0.111111 0.222222 -0.000000 Ti
0.222222 0.777778 0.235309 Ti
0.222222 0.444444 0.078436 Ti
0.444444 0.888889 0.156873 Ti
0.111111 0.222222 0.156873 Ti
0.444444 0.555556 -0.000000 Ti
0.222222 0.444444 0.235309 Ti
0.555556 0.777778 0.078436 Ti
0.222222 0.111111 0.078436 Ti
0.444444 0.555556 0.156873 Ti
0.777778 0.888889 -0.000000 Ti
0.444444 0.222222 -0.000000 Ti
0.555556 0.777778 0.235309 Ti
0.222222 0.111111 0.235309 Ti
0.555556 0.444444 0.078436 Ti
0.777778 0.888889 0.156873 Ti
0.444444 0.222222 0.156873 Ti
0.777778 0.555556 -0.000000 Ti
0.555556 0.444444 0.235309 Ti
0.888889 0.777778 0.078436 Ti
0.555556 0.111111 0.078436 Ti
0.777778 0.555556 0.156873 Ti
0.777778 0.222222 -0.000000 Ti
0.888889 0.777778 0.235309 Ti
0.555556 0.111111 0.235309 Ti
0.888889 0.444444 0.078436 Ti
0.777778 0.222222 0.156873 Ti
0.888889 0.444444 0.235309 Ti
0.888889 0.111111 0.078436 Ti
0.888889 0.111111 0.235309 Ti
