total_structure
1.0
   3.5061499999999999    0.0000000000000000    0.0000000000000002
   0.0000000000000019   12.0001999999999995    0.0000000000000007
   0.0000000000000000    0.0000000000000000   26.1116049620000048
Cr Fe N
16 36 16
Selective dynamics
direct
   0.0000000000000000    0.0000000000000000    0.2407481589564651 F F F Cr
  -0.0000000000000000    0.2500000000000000    0.2407481589564651 F F F Cr
   0.5000000000000000    0.1250000000000000    0.1604953399493758 F F F Cr
   0.5000000000000000    0.3750000000000000    0.1604953399493758 F F F Cr
   0.0000000000000000    0.0000000000000000    0.0802528190070892 F F F Cr
  -0.0000000000000000    0.2500000000000000    0.0802528190070892 F F F Cr
   0.5000000000000000    0.1250000000000000   -0.0000000000000000 F F F Cr
   0.5000000000000000    0.3750000000000000   -0.0000000000000000 F F F Cr
  -0.0000000000000000    0.5000000000000000    0.2407481589564650 F F F Cr
  -0.0000000000000000    0.7500000000000000    0.2407481589564651 F F F Cr
   0.5000000000000000    0.6250000000000000    0.1604953399493758 F F F Cr
   0.4999999999999999    0.8749999999999999    0.1604953399493758 F F F Cr
  -0.0000000000000000    0.5000000000000000    0.0802528190070892 F F F Cr
  -0.0000000000000000    0.7500000000000000    0.0802528190070892 F F F Cr
   0.5000000000000000    0.6250000000000000   -0.0000000000000000 F F F Cr
   0.4999999999999999    0.8749999999999999   -0.0000000000000000 F F F Cr
   0.9933200000000000    0.7184400000000000    0.6170252680540685 F F F Fe
   0.4933200000000000    0.5543100000000000    0.6037304663938411 F F F Fe
   0.4933200000000000    0.7391600000000000    0.5630325142937490 F F F Fe
   0.9933200000000000    0.5750200000000000    0.5497377126335217 F F F Fe
   0.9933200000000001    0.3901700000000000    0.5904253666688111 F F F Fe
   0.4933200000000000    0.2260400000000000    0.5771305650085835 F F F Fe
   0.4933200000000000    0.4108899999999999    0.5364326129084916 F F F Fe
   0.9933200000000001    0.2467500000000000    0.5231378112482642 F F F Fe
   0.9933200000000000    0.0619000000000000    0.5638254652835536 F F F Fe
   0.4933200000000000    0.8977699999999998    0.5505306636233261 F F F Fe
   0.4933200000000000    0.0826200000000000    0.5098327115232342 F F F Fe
   0.9933200000000000    0.9184800000000000    0.4965379098630067 F F F Fe
   0.9933200000000000    0.7598700000000000    0.5090500585982323 F F F Fe
   0.4933200000000000    0.5957300000000000    0.4957449588732024 F F F Fe
   0.4933200000000000    0.7805800000000001    0.4550573048379130 F F F Fe
   0.9933200000000001    0.6164500000000001    0.4417522051128829 F F F Fe
   0.9933200000000001    0.4315999999999999    0.4824501572129749 F F F Fe
   0.4933200000000000    0.2674600000000000    0.4691450574879448 F F F Fe
   0.4933200000000000    0.4523100000000000    0.4284574034526556 F F F Fe
   0.9933200000000001    0.2881800000000000    0.4151523037276255 F F F Fe
   0.9933199999999999    0.1033300000000000    0.4558502558277174 F F F Fe
   0.4933200000000000    0.9391999999999999    0.4425451561026872 F F F Fe
   0.4933200000000000    0.1240400000000000    0.4018575020673981 F F F Fe
   0.9933200000000000    0.9599100000000000    0.3885524023423679 F F F Fe
   0.9933200000000000    0.8013000000000000    0.4010645510775936 F F F Fe
   0.4933200000000000    0.6371599999999998    0.3877697494173662 F F F Fe
   0.4933200000000000    0.8220099999999999    0.3470717973172742 F F F Fe
   0.9933200000000001    0.6578799999999999    0.3337769956570469 F F F Fe
   0.9933200000000001    0.4730300000000000    0.3744646496923361 F F F Fe
   0.4933200000000000    0.3088900000000000    0.3611698480321087 F F F Fe
   0.4933200000000000    0.4937400000000000    0.3204718959320168 F F F Fe
   0.9933200000000000    0.3296100000000000    0.3071770942717895 F F F Fe
   0.9933200000000001    0.1447600000000000    0.3478647483070787 F F F Fe
   0.4933200000000000    0.9806200000000000    0.3345699466468512 F F F Fe
   0.4933200000000000    0.1654700000000000    0.2938719945467593 F F F Fe
   0.9933200000000000    0.0013400000000000    0.2805771928865319 F F F Fe
   0.5000000000000000    0.1250000000000000    0.2407481589564651 F F F N
   0.5000000000000000    0.3750000000000000    0.2407481589564650 F F F N
   0.0000000000000000    0.0000000000000000    0.1604953399493758 F F F N
  -0.0000000000000000    0.2500000000000000    0.1604953399493758 F F F N
   0.5000000000000000    0.1250000000000000    0.0802528190070892 F F F N
   0.5000000000000000    0.3750000000000000    0.0802528190070892 F F F N
   0.0000000000000000    0.0000000000000000    0.0000000000000000 F F F N
  -0.0000000000000000    0.2500000000000000   -0.0000000000000000 F F F N
   0.5000000000000000    0.6250000000000000    0.2407481589564651 F F F N
   0.4999999999999999    0.8749999999999999    0.2407481589564651 F F F N
  -0.0000000000000000    0.5000000000000000    0.1604953399493758 F F F N
  -0.0000000000000000    0.7500000000000000    0.1604953399493758 F F F N
   0.5000000000000000    0.6250000000000000    0.0802528190070892 F F F N
   0.4999999999999999    0.8749999999999999    0.0802528190070892 F F F N
  -0.0000000000000000    0.5000000000000000   -0.0000000000000000 F F F N
  -0.0000000000000000    0.7500000000000000   -0.0000000000000000 F F F N
