Zr1 Ti82
1.0
6.391540 0.000000 0.000000
0.000000 9.587310 0.000000
0.000000 0.000000 23.271695
Ti Zr
82 1
Selective dynamics
direct
0.626890 0.083319 0.580835 F F F Ti
0.125012 0.083334 0.709486 F F F Ti
0.625065 0.083333 0.709523 F F F Ti
0.124998 0.083333 0.838398 F F F Ti
0.625005 0.083333 0.838402 F F F Ti
0.124927 0.416853 0.580597 F F F Ti
0.625112 0.416764 0.580587 F F F Ti
0.124996 0.416688 0.709497 F F F Ti
0.625040 0.416702 0.709503 F F F Ti
0.124999 0.416669 0.838399 F F F Ti
0.625003 0.416671 0.838401 F F F Ti
0.124923 0.749833 0.580595 F F F Ti
0.625109 0.749906 0.580586 F F F Ti
0.124992 0.749984 0.709497 F F F Ti
0.625038 0.749973 0.709504 F F F Ti
0.124998 0.750000 0.838399 F F F Ti
0.625003 0.749998 0.838401 F F F Ti
0.375175 0.250156 0.645131 F F F Ti
0.875106 0.250080 0.645058 F F F Ti
0.375001 0.250006 0.773952 F F F Ti
0.875010 0.250005 0.773948 F F F Ti
0.374999 0.250001 0.902853 F F F Ti
0.875001 0.250000 0.902853 F F F Ti
0.375023 0.583358 0.645040 F F F Ti
0.874986 0.583338 0.645047 F F F Ti
0.375000 0.583336 0.773947 F F F Ti
0.875005 0.583333 0.773948 F F F Ti
0.374999 0.583333 0.902853 F F F Ti
0.875001 0.583333 0.902853 F F F Ti
0.375161 0.916522 0.645123 F F F Ti
0.875116 0.916591 0.645057 F F F Ti
0.375000 0.916663 0.773951 F F F Ti
0.875010 0.916663 0.773947 F F F Ti
0.374999 0.916666 0.902853 F F F Ti
0.875001 0.916666 0.902853 F F F Ti
0.124873 0.166709 0.386680 F F F Ti
0.624912 0.166685 0.386723 F F F Ti
0.124991 0.666618 0.386699 F F F Ti
0.625009 0.666652 0.386722 F F F Ti
0.125000 0.166667 0.000001 F F F Ti
0.625000 0.166667 0.000001 F F F Ti
0.125000 0.666667 0.000001 F F F Ti
0.625000 0.666667 0.000001 F F F Ti
0.125000 0.833333 0.096683 F F F Ti
0.625000 0.833333 0.096683 F F F Ti
0.124422 0.832615 0.483308 F F F Ti
0.625149 0.833180 0.483408 F F F Ti
0.125000 0.333333 0.096683 F F F Ti
0.624999 0.333333 0.096683 F F F Ti
0.124383 0.334093 0.483296 F F F Ti
0.625105 0.333471 0.483411 F F F Ti
0.375063 0.583384 0.483414 F F F Ti
0.874868 0.583358 0.483411 F F F Ti
0.375000 0.583333 0.096683 F F F Ti
0.874999 0.583333 0.096682 F F F Ti
0.375000 0.083333 0.096683 F F F Ti
0.874999 0.083333 0.096683 F F F Ti
0.873735 0.083325 0.483285 F F F Ti
0.375019 0.416695 0.386716 F F F Ti
0.874906 0.416705 0.386700 F F F Ti
0.374981 0.916623 0.386711 F F F Ti
0.874902 0.916632 0.386696 F F F Ti
0.375000 0.416667 0.000001 F F F Ti
0.875000 0.416667 0.000001 F F F Ti
0.374999 0.916667 0.000001 F F F Ti
0.875000 0.916667 0.000001 F F F Ti
0.374994 0.083332 0.290045 F F F Ti
0.874974 0.083333 0.290039 F F F Ti
0.124999 0.166667 0.193364 F F F Ti
0.624996 0.166667 0.193364 F F F Ti
0.124995 0.333342 0.290039 F F F Ti
0.624986 0.333334 0.290043 F F F Ti
0.375000 0.416668 0.193364 F F F Ti
0.874995 0.416668 0.193363 F F F Ti
0.375006 0.583337 0.290043 F F F Ti
0.874988 0.583337 0.290039 F F F Ti
0.125000 0.666666 0.193363 F F F Ti
0.624997 0.666666 0.193364 F F F Ti
0.124995 0.833329 0.290041 F F F Ti
0.624990 0.833328 0.290042 F F F Ti
0.374998 0.916666 0.193365 F F F Ti
0.874996 0.916666 0.193363 F F F Ti
0.283947 0.086691 0.527649 T T T Zr

0.000000 0.000000 0.000000
0.000000 0.000000 0.000000
0.000000 0.000000 0.000000
0.000000 0.000000 0.000000
0.000000 0.000000 0.000000
0.000000 0.000000 0.000000
0.000000 0.000000 0.000000
0.000000 0.000000 0.000000
0.000000 0.000000 0.000000
0.000000 0.000000 0.000000
0.000000 0.000000 0.000000
0.000000 0.000000 0.000000
0.000000 0.000000 0.000000
0.000000 0.000000 0.000000
0.000000 0.000000 0.000000
0.000000 0.000000 0.000000
0.000000 0.000000 0.000000
0.000000 0.000000 0.000000
0.000000 0.000000 0.000000
0.000000 0.000000 0.000000
0.000000 0.000000 0.000000
0.000000 0.000000 0.000000
0.000000 0.000000 0.000000
0.000000 0.000000 0.000000
0.000000 0.000000 0.000000
0.000000 0.000000 0.000000
0.000000 0.000000 0.000000
0.000000 0.000000 0.000000
0.000000 0.000000 0.000000
0.000000 0.000000 0.000000
0.000000 0.000000 0.000000
0.000000 0.000000 0.000000
0.000000 0.000000 0.000000
0.000000 0.000000 0.000000
0.000000 0.000000 0.000000
0.000000 0.000000 0.000000
0.000000 0.000000 0.000000
0.000000 0.000000 0.000000
0.000000 0.000000 0.000000
0.000000 0.000000 0.000000
0.000000 0.000000 0.000000
0.000000 0.000000 0.000000
0.000000 0.000000 0.000000
0.000000 0.000000 0.000000
0.000000 0.000000 0.000000
0.000000 0.000000 0.000000
0.000000 0.000000 0.000000
0.000000 0.000000 0.000000
0.000000 0.000000 0.000000
0.000000 0.000000 0.000000
0.000000 0.000000 0.000000
0.000000 0.000000 0.000000
0.000000 0.000000 0.000000
0.000000 0.000000 0.000000
0.000000 0.000000 0.000000
0.000000 0.000000 0.000000
0.000000 0.000000 0.000000
0.000000 0.000000 0.000000
0.000000 0.000000 0.000000
0.000000 0.000000 0.000000
0.000000 0.000000 0.000000
0.000000 0.000000 0.000000
0.000000 0.000000 0.000000
0.000000 0.000000 0.000000
0.000000 0.000000 0.000000
0.000000 0.000000 0.000000
0.000000 0.000000 0.000000
0.000000 0.000000 0.000000
0.000000 0.000000 0.000000
0.000000 0.000000 0.000000
0.000000 0.000000 0.000000
0.000000 0.000000 0.000000
0.000000 0.000000 0.000000
0.000000 0.000000 0.000000
0.000000 0.000000 0.000000
0.000000 0.000000 0.000000
0.000000 0.000000 0.000000
0.000000 0.000000 0.000000
0.000000 0.000000 0.000000
0.000000 0.000000 0.000000
0.000000 0.000000 0.000000
0.000000 0.000000 0.000000
0.000000 0.000000 0.000000
