substance_bottem
1.0
   2.9630000000000001    0.0000000000000000    0.0000000000000002
   0.0000000000000025   15.3989999999999991    0.0000000000000009
   0.0000000000000000    0.0000000000000000   49.6920000000000002
Cr N
36 36
Selective dynamics
direct
   0.3179800000000000    0.8541699999999999    0.1782278837639861 T T T Cr
   0.3171400000000000    0.9636600000000000    0.2272699830958705 T T T Cr
   0.8244300000000000    0.7978400000000000    0.2269077517507848 T T T Cr
   0.3310200000000000    0.7398700000000000    0.2752555743379216 T T T Cr
   0.8235799999999999    0.9073299999999999    0.2759498510826693 T T T Cr
   0.3327500000000000    0.5208500000000000    0.1782278837639862 T T T Cr
   0.3319100000000000    0.6303400000000000    0.2272699830958705 T T T Cr
   0.8252700000000001    0.6883500000000000    0.1778757144007083 T T T Cr
   0.8391900000000002    0.4645200000000000    0.2269077517507848 T T T Cr
   0.3457900000000000    0.4065500000000000    0.2752555743379216 T T T Cr
   0.8383500000000000    0.5740100000000000    0.2759498510826692 T T T Cr
   0.3475200000000000    0.1875300000000000    0.1782278837639862 T T T Cr
   0.3466800000000000    0.2970200000000000    0.2272699830958705 T T T Cr
   0.8400400000000001    0.3550300000000000    0.1778656524189004 T T T Cr
   0.8539600000000001    0.1311900000000000    0.2269077517507848 T T T Cr
   0.3605600000000000    0.0732200000000000    0.2752555743379216 T T T Cr
   0.8531200000000000    0.2406800000000000    0.2759498510826692 T T T Cr
   0.3190500000000000    0.8541799999999999    0.0321480318763584 F F F Cr
   0.3182000000000000    0.9636700000000000    0.0811901312082428 F F F Cr
   0.8254899999999999    0.7978400000000000    0.0808278998631570 F F F Cr
   0.3320900000000001    0.7398700000000000    0.1291757224502938 F F F Cr
   0.8246500000000000    0.9073299999999999    0.1298699991950414 F F F Cr
   0.3338200000000001    0.5208600000000000    0.0321480318763584 F F F Cr
   0.3329700000000000    0.6303500000000000    0.0811901312082428 F F F Cr
   0.8263400000000001    0.6883500000000000    0.0317958625130806 F F F Cr
   0.8402600000000001    0.4645200000000000    0.0808278998631570 F F F Cr
   0.3468600000000001    0.4065500000000000    0.1291757224502938 F F F Cr
   0.8394100000000000    0.5740100000000000    0.1298699991950414 F F F Cr
   0.3485900000000000    0.1875400000000000    0.0321480318763584 F F F Cr
   0.3477400000000000    0.2970300000000000    0.0811901312082428 F F F Cr
   0.8411000000000000    0.3550300000000000    0.0317858005312726 F F F Cr
   0.8550300000000001    0.1312000000000000    0.0808278998631570 F F F Cr
   0.3616200000000001    0.0732300000000000    0.1291757224502938 F F F Cr
   0.8541799999999999    0.2406900000000000    0.1298699991950414 F F F Cr
   0.8400400000000001    0.0233600000000000    0.1778656524189004 T T T Cr
   0.8411000000000001    0.0233700000000000    0.0317858005312726 F F F Cr
   0.8174800000000000    0.9097299999999999    0.2029199871206633 T T T N
   0.3249200000000000    0.7422700000000000    0.2022156483941077 T T T N
   0.3240800000000000    0.8517599999999999    0.2512577477259921 T T T N
   0.8315900000000001    0.7954300000000000    0.1538678258069709 T T T N
   0.3243000000000000    0.9612600000000000    0.1542199951702487 T T T N
   0.8322500000000000    0.5764100000000000    0.2029199871206632 T T T N
   0.8313700000000002    0.6859400000000000    0.2509055783627143 T T T N
   0.3396900000000000    0.4089500000000000    0.2022156483941077 T T T N
   0.3388500000000000    0.5184400000000000    0.2512577477259921 T T T N
   0.8463600000000002    0.4621100000000000    0.1538678258069709 T T T N
   0.3390700000000000    0.6279400000000001    0.1542199951702487 T T T N
   0.8470199999999999    0.2430900000000000    0.2029199871206633 T T T N
   0.8461400000000000    0.3526200000000000    0.2509055783627143 T T T N
   0.3544600000000001    0.0756300000000000    0.2022156483941077 T T T N
   0.3536199999999999    0.1851200000000000    0.2512577477259921 T T T N
   0.8611300000000001    0.1287900000000000    0.1538678258069709 T T T N
   0.3538400000000000    0.2946199999999999    0.1542199951702487 T T T N
   0.8185500000000000    0.9097399999999999    0.0568401352330355 F F F N
   0.3259900000000001    0.7422800000000001    0.0561357965064799 F F F N
   0.3251400000000000    0.8517699999999999    0.1051778958383643 F F F N
   0.8326500000000000    0.7954400000000000    0.0077879739193432 F F F N
   0.3253600000000000    0.9612699999999998    0.0081401432826209 F F F N
   0.8333199999999999    0.5764200000000000    0.0568401352330355 F F F N
   0.8324300000000001    0.6859400000000000    0.1048257264750865 F F F N
   0.3407600000000001    0.4089600000000000    0.0561357965064799 F F F N
   0.3399100000000000    0.5184500000000000    0.1051778958383643 F F F N
   0.8474200000000002    0.4621199999999999    0.0077879739193432 F F F N
   0.3401300000000000    0.6279400000000001    0.0081401432826209 F F F N
   0.8480899999999999    0.2431000000000000    0.0568401352330355 F F F N
   0.8472000000000000    0.3526200000000000    0.1048257264750865 F F F N
   0.3555300000000000    0.0756400000000000    0.0561357965064799 F F F N
   0.3546800000000000    0.1851300000000000    0.1051778958383643 F F F N
   0.8621900000000001    0.1288000000000000    0.0077879739193432 F F F N
   0.3549000000000000    0.2946199999999999    0.0081401432826209 F F F N
   0.8461400000000001    0.0209600000000000    0.2509055783627143 T T T N
   0.8472000000000000    0.0209600000000000    0.1048257264750865 F F F N
