total_structure
1.0
   3.5062000000000002    0.0000000000000000    0.0000000000000002
   0.0000000000000019   12.0001999999999995    0.0000000000000007
   0.0000000000000000    0.0000000000000000   29.3249410620000006
Cr Fe N
24 36 24
Selective dynamics
direct
   0.1485400000000000    0.0029600000000000    0.3843410406578774 T T T Cr
   0.6485400000000000    0.3779600000000000    0.3073245718702682 T T T Cr
   0.6485400000000000    0.1279600000000000    0.3073245718702682 T T T Cr
   0.1485400000000000    0.2529600000000000    0.3843410406578774 T T T Cr
   0.1485400000000000    0.0029600000000000    0.2302982190389236 F F F Cr
   0.6485400000000000    0.3779600000000000    0.1532718662075788 F F F Cr
   0.6485400000000000    0.1279600000000000    0.1532718662075789 F F F Cr
   0.1485400000000000    0.2529600000000000    0.2302982190389236 F F F Cr
   0.1485400000000000    0.5029600000000000    0.3843410406578774 T T T Cr
   0.6485400000000000    0.8779600000000000    0.3073245718702682 T T T Cr
   0.6485400000000000    0.6279599999999999    0.3073245718702682 T T T Cr
   0.1485400000000000    0.7529599999999999    0.3843410406578774 T T T Cr
   0.1485400000000000    0.5029600000000000    0.2302982190389236 F F F Cr
   0.6485400000000000    0.8779600000000000    0.1532718662075789 F F F Cr
   0.6485400000000000    0.6279599999999999    0.1532718662075789 F F F Cr
   0.1485400000000000    0.7529599999999999    0.2302982190389236 F F F Cr
   0.1320800000000000    0.0046100000000000    0.0763641219010611 F F F Cr
   0.6320800000000000    0.3796100000000000    0.9993476531134520 F F F Cr
   0.6320800000000000    0.1296100000000000    0.9993476531134520 F F F Cr
   0.1320800000000000    0.2546100000000000    0.0763641219010611 F F F Cr
   0.1320800000000000    0.5046100000000000    0.0763641219010611 F F F Cr
   0.6320800000000000    0.8796100000000000    0.9993476531134520 F F F Cr
   0.6320800000000000    0.6296100000000000    0.9993476531134520 F F F Cr
   0.1320800000000000    0.7546100000000000    0.0763641219010611 F F F Cr
   0.1418600000000000    0.7213999999999999    0.7857040477689743 F F F Fe
   0.6418599999999999    0.5572600000000000    0.7729338632626098 F F F Fe
   0.6418599999999999    0.7421100000000000    0.7338820064633486 F F F Fe
   0.1418600000000000    0.5779800000000000    0.7211118219569843 F F F Fe
   0.1418600000000000    0.3931299999999999    0.7601636787562455 F F F Fe
   0.6418600000000000    0.2289900000000000    0.7474033782936167 F F F Fe
   0.6418600000000000    0.4138399999999999    0.7083515214943554 F F F Fe
   0.1418600000000000    0.2497100000000000    0.6955813369879911 F F F Fe
   0.1418600000000000    0.0648600000000000    0.7346331937872523 F F F Fe
   0.6418600000000000    0.9007199999999999    0.7218728933246236 F F F Fe
   0.6418600000000000    0.0855700000000000    0.6828210365253624 F F F Fe
   0.1418600000000000    0.9214400000000000    0.6700508520189979 F F F Fe
   0.1418600000000000    0.7628300000000000    0.6820599651577230 F F F Fe
   0.6418600000000000    0.5986900000000001    0.6692897806513586 F F F Fe
   0.6418599999999999    0.7835399999999999    0.6302379238520974 F F F Fe
   0.1418600000000000    0.6194100000000000    0.6174776233894687 F F F Fe
   0.1418600000000000    0.4345600000000000    0.6565294801887298 F F F Fe
   0.6418600000000000    0.2704200000000000    0.6437592956823656 F F F Fe
   0.6418600000000000    0.4552700000000000    0.6047074388831043 F F F Fe
   0.1418600000000000    0.2911400000000000    0.5919471384204756 F F F Fe
   0.1418600000000000    0.1062900000000000    0.6309989952197367 F F F Fe
   0.6418599999999999    0.9421499999999999    0.6182288107133724 F F F Fe
   0.6418600000000000    0.1270000000000000    0.5791769539141112 T T T Fe
   0.1418600000000000    0.9628699999999999    0.5664166534514824 T T T Fe
   0.1418600000000000    0.8042500000000000    0.5784158825464719 T T T Fe
   0.6418600000000000    0.6401200000000000    0.5656555820838430 T T T Fe
   0.6418600000000000    0.8249700000000000    0.5266037252845818 T T T Fe
   0.1418600000000000    0.6608299999999999    0.5138335407782174 T T T Fe
   0.1418600000000000    0.4759800000000000    0.5528853975774787 T T T Fe
   0.6418599999999999    0.3118500000000000    0.5401250971148499 T T T Fe
   0.6418600000000000    0.4966999999999999    0.5010732403155888 T T T Fe
   0.1418600000000000    0.3325600000000000    0.4883030558092244 T T T Fe
   0.1418600000000000    0.1477100000000000    0.5273549126084855 T T T Fe
   0.6418599999999999    0.9835800000000000    0.5145946121458569 T T T Fe
   0.6418600000000000    0.1684300000000000    0.4755427553465956 T T T Fe
   0.1418600000000000    0.0042900000000000    0.4627725708402312 T T T Fe
   0.6485400000000000    0.3779600000000000    0.3843410406578774 T T T N
   0.1485400000000000    0.0029600000000000    0.3073245718702682 T T T N
   0.1485400000000000    0.2529600000000000    0.3073245718702682 T T T N
   0.6485400000000000    0.1279600000000000    0.3843410406578774 T T T N
   0.6485400000000000    0.3779600000000000    0.2302982190389235 F F F N
   0.1485400000000000    0.0029600000000000    0.1532718662075789 F F F N
   0.1485400000000000    0.2529600000000000    0.1532718662075789 F F F N
   0.6485400000000000    0.1279600000000000    0.2302982190389236 F F F N
   0.6485400000000000    0.8779600000000000    0.3843410406578774 T T T N
   0.1485400000000000    0.5029600000000000    0.3073245718702682 T T T N
   0.1485400000000000    0.7529599999999999    0.3073245718702682 T T T N
   0.6485400000000000    0.6279599999999999    0.3843410406578774 T T T N
   0.6485400000000000    0.8779600000000000    0.2302982190389236 F F F N
   0.1485400000000000    0.5029600000000000    0.1532718662075789 F F F N
   0.1485400000000000    0.7529599999999999    0.1532718662075789 F F F N
   0.6485400000000000    0.6279599999999999    0.2302982190389236 F F F N
   0.6320800000000000    0.3796100000000000    0.0763641219010611 F F F N
   0.1320800000000000    0.0046100000000000    0.9993476531134520 F F F N
   0.1320800000000000    0.2546100000000000    0.9993476531134520 F F F N
   0.6320800000000000    0.1296100000000000    0.0763641219010611 F F F N
   0.6320800000000000    0.8796100000000000    0.0763641219010611 F F F N
   0.1320800000000000    0.5046100000000000    0.9993476531134520 F F F N
   0.1320800000000000    0.7546100000000000    0.9993476531134520 F F F N
   0.6320800000000000    0.6296100000000000    0.0763641219010611 F F F N
