substance_bottem
1.0
   3.5062000000000002    0.0000000000000000    0.0000000000000002
   0.0000000000000019   12.0001999999999995    0.0000000000000007
   0.0000000000000000    0.0000000000000000   29.3249410620000006
Cr Mo N
20 4 24
Selective dynamics
direct
   0.6482100000000000    0.3787300000000000    0.3243646632704015 T T T Cr
   0.6482100000000000    0.1287300000000000    0.3243646632704015 T T T Cr
   0.1482100000000000    0.0037300000000000    0.2473481944827924 T T T Cr
   0.6482100000000000    0.3787300000000000    0.1703218416514477 F F F Cr
   0.6482100000000000    0.1287300000000000    0.1703218416514477 F F F Cr
   0.1482100000000000    0.2537300000000000    0.2473481944827924 T T T Cr
   0.6482100000000000    0.8787300000000000    0.3243646632704015 T T T Cr
   0.6482100000000000    0.6287300000000000    0.3243646632704015 T T T Cr
   0.1482100000000000    0.5037300000000000    0.2473481944827924 T T T Cr
   0.6482100000000000    0.8787300000000000    0.1703218416514477 F F F Cr
   0.6482100000000000    0.6287300000000000    0.1703218416514477 F F F Cr
   0.1482100000000000    0.7537299999999999    0.2473481944827924 T T T Cr
   0.1317400000000000    0.0053800000000000    0.0934140973449299 F F F Cr
   0.6317400000000001    0.3803800000000000    0.0163877445135852 F F F Cr
   0.6317400000000000    0.1303800000000000    0.0163877445135852 F F F Cr
   0.1317400000000000    0.2553800000000000    0.0934140973449299 F F F Cr
   0.1317400000000000    0.5053800000000001    0.0934140973449299 F F F Cr
   0.6317400000000001    0.8803800000000001    0.0163877445135852 F F F Cr
   0.6317400000000001    0.6303800000000001    0.0163877445135852 F F F Cr
   0.1317400000000000    0.7553800000000001    0.0934140973449299 F F F Cr
   0.1482100000000000    0.0037300000000000    0.4013910161017462 T T T Mo
   0.1482100000000000    0.2537300000000000    0.4013910161017462 T T T Mo
   0.1482100000000000    0.5037300000000000    0.4013910161017462 T T T Mo
   0.1482100000000000    0.7537299999999999    0.4013910161017462 T T T Mo
   0.6482100000000000    0.3787300000000000    0.4013910161017462 T T T N
   0.1482100000000000    0.0037300000000000    0.3243646632704015 T T T N
   0.1482100000000000    0.2537300000000000    0.3243646632704015 T T T N
   0.6482100000000000    0.1287300000000000    0.4013910161017462 T T T N
   0.6482100000000000    0.3787300000000000    0.2473481944827923 T T T N
   0.1482100000000000    0.0037300000000000    0.1703218416514477 F F F N
   0.1482100000000000    0.2537300000000000    0.1703218416514477 F F F N
   0.6482100000000000    0.1287300000000000    0.2473481944827924 T T T N
   0.6482100000000000    0.8787300000000000    0.4013910161017462 T T T N
   0.1482100000000000    0.5037300000000000    0.3243646632704015 T T T N
   0.1482100000000000    0.7537299999999999    0.3243646632704015 T T T N
   0.6482100000000000    0.6287300000000000    0.4013910161017462 T T T N
   0.6482100000000000    0.8787300000000000    0.2473481944827924 T T T N
   0.1482100000000000    0.5037300000000000    0.1703218416514477 F F F N
   0.1482100000000000    0.7537299999999999    0.1703218416514477 F F F N
   0.6482100000000000    0.6287300000000000    0.2473481944827924 T T T N
   0.6317400000000001    0.3803800000000000    0.0934140973449299 F F F N
   0.1317400000000000    0.0053800000000000    0.0163877445135852 F F F N
   0.1317400000000000    0.2553800000000000    0.0163877445135852 F F F N
   0.6317400000000000    0.1303800000000000    0.0934140973449299 F F F N
   0.6317400000000001    0.8803800000000001    0.0934140973449299 F F F N
   0.1317400000000000    0.5053800000000001    0.0163877445135852 F F F N
   0.1317400000000000    0.7553800000000001    0.0163877445135852 F F F N
   0.6317400000000001    0.6303800000000001    0.0934140973449299 F F F N
