substance_top
1.0
   3.5062000000000002    0.0000000000000000    0.0000000000000002
   0.0000000000000019   12.0001999999999995    0.0000000000000007
   0.0000000000000000    0.0000000000000000   29.3249410620000006
Fe
36
Selective dynamics
direct
   0.1373800000000000    0.7201700000000000    0.8027342551253719 F F F Fe
   0.6373799999999998    0.5560300000000000    0.7899640706190075 F F F Fe
   0.6373799999999998    0.7408799999999999    0.7509122138197463 F F F Fe
   0.1373800000000000    0.5767400000000000    0.7381519133571175 F F F Fe
   0.1373800000000000    0.3919000000000000    0.7772037701563786 F F F Fe
   0.6373799999999999    0.2277600000000000    0.7644335856500144 F F F Fe
   0.6373799999999999    0.4126100000000000    0.7253817288507531 F F F Fe
   0.1373800000000000    0.2484800000000000    0.7126214283881244 F F F Fe
   0.1373800000000000    0.0636300000000000    0.7516732851873855 F F F Fe
   0.6373799999999999    0.8994900000000000    0.7389031006810214 F F F Fe
   0.6373799999999999    0.0843400000000000    0.6998512438817600 F F F Fe
   0.1373800000000000    0.9202099999999999    0.6870909434191312 F F F Fe
   0.1373800000000000    0.7615900000000000    0.6990901725141205 F F F Fe
   0.6373799999999999    0.5974600000000000    0.6863298720514919 F F F Fe
   0.6373799999999998    0.7823099999999999    0.6472780152522306 F F F Fe
   0.1373800000000000    0.6181700000000000    0.6345078307458663 F F F Fe
   0.1373800000000000    0.4333199999999999    0.6735596875451275 F F F Fe
   0.6373799999999999    0.2691900000000000    0.6607993870824987 F F F Fe
   0.6373799999999999    0.4540399999999999    0.6217475302832376 F F F Fe
   0.1373800000000000    0.2899000000000000    0.6089773457768731 F F F Fe
   0.1373800000000000    0.1050500000000000    0.6480292025761344 F F F Fe
   0.6373799999999998    0.9409200000000000    0.6352689021135057 F F F Fe
   0.6373799999999999    0.1257700000000000    0.5962170453142445 F F F Fe
   0.1373800000000000    0.9616299999999999    0.5834468608078800 T T T Fe
   0.1373800000000000    0.8030199999999998    0.5954559739466051 F F F Fe
   0.6373799999999999    0.6388900000000000    0.5826857894402407 T T T Fe
   0.6373799999999999    0.8237400000000000    0.5436339326409795 T T T Fe
   0.1373800000000000    0.6595999999999999    0.5308736321783507 T T T Fe
   0.1373800000000000    0.4747499999999999    0.5699254889776120 T T T Fe
   0.6373799999999998    0.3106200000000000    0.5571553044712476 T T T Fe
   0.6373799999999999    0.4954700000000000    0.5181034476719864 T T T Fe
   0.1373800000000000    0.3313300000000000    0.5053431472093576 T T T Fe
   0.1373800000000000    0.1464800000000000    0.5443950040086188 T T T Fe
   0.6373799999999998    0.9823499999999998    0.5316248195022545 T T T Fe
   0.6373799999999999    0.1672000000000000    0.4925729627029932 T T T Fe
   0.1373800000000000    0.0030600000000000    0.4798126622403645 T T T Fe
