total_Ti
1.0
9.588310 0.000000 0.000000
0.000000 9.588310 0.000000
0.000000 0.000000 26.000006
Ti
102
direct
0.083333 0.083333 0.500000 Ti
0.083333 0.083333 0.615385 Ti
0.083333 0.083333 0.730769 Ti
0.083333 0.416667 0.500000 Ti
0.083333 0.416667 0.615385 Ti
0.083333 0.416667 0.730769 Ti
0.083333 0.750000 0.500000 Ti
0.083333 0.750000 0.615385 Ti
0.083333 0.750000 0.730769 Ti
0.416667 0.083333 0.500000 Ti
0.416667 0.083333 0.615385 Ti
0.416667 0.083333 0.730769 Ti
0.416667 0.416667 0.500000 Ti
0.416667 0.416667 0.615385 Ti
0.416667 0.416667 0.730769 Ti
0.416667 0.750000 0.500000 Ti
0.416667 0.750000 0.615385 Ti
0.416667 0.750000 0.730769 Ti
0.750000 0.083333 0.500000 Ti
0.750000 0.083333 0.615385 Ti
0.750000 0.083333 0.730769 Ti
0.750000 0.416667 0.500000 Ti
0.750000 0.416667 0.615385 Ti
0.750000 0.416667 0.730769 Ti
0.750000 0.750000 0.500000 Ti
0.750000 0.750000 0.615385 Ti
0.750000 0.750000 0.730769 Ti
0.250000 0.250000 0.557692 Ti
0.250000 0.250000 0.673077 Ti
0.250000 0.250000 0.788462 Ti
0.250000 0.583333 0.557692 Ti
0.250000 0.583333 0.673077 Ti
0.250000 0.583333 0.788462 Ti
0.250000 0.916667 0.557692 Ti
0.250000 0.916667 0.673077 Ti
0.250000 0.916667 0.788462 Ti
0.583333 0.250000 0.557692 Ti
0.583333 0.250000 0.673077 Ti
0.583333 0.250000 0.788462 Ti
0.583333 0.583333 0.557692 Ti
0.583333 0.583333 0.673077 Ti
0.583333 0.583333 0.788462 Ti
0.583333 0.916667 0.557692 Ti
0.583333 0.916667 0.673077 Ti
0.583333 0.916667 0.788462 Ti
0.916667 0.250000 0.557692 Ti
0.916667 0.250000 0.673077 Ti
0.916667 0.250000 0.788462 Ti
0.916667 0.583333 0.557692 Ti
0.916667 0.583333 0.673077 Ti
0.916667 0.583333 0.788462 Ti
0.916667 0.916667 0.557692 Ti
0.916667 0.916667 0.673077 Ti
0.916667 0.916667 0.788462 Ti
0.125000 0.833333 -0.000000 Ti
0.125000 0.333333 -0.000000 Ti
0.625000 0.833333 -0.000000 Ti
0.625000 0.333333 -0.000000 Ti
0.375000 0.666667 -0.000000 Ti
0.375000 0.166667 -0.000000 Ti
0.875000 0.666667 -0.000000 Ti
0.875000 0.166667 -0.000000 Ti
0.875000 0.416667 0.057692 Ti
0.375000 0.416667 0.057692 Ti
0.875000 0.916667 0.057692 Ti
0.375000 0.916667 0.057692 Ti
0.625000 0.083333 0.057692 Ti
0.125000 0.083333 0.057692 Ti
0.625000 0.583333 0.057692 Ti
0.125000 0.583333 0.057692 Ti
0.125000 0.333333 0.115385 Ti
0.625000 0.333333 0.115385 Ti
0.625000 0.833333 0.115385 Ti
0.125000 0.833333 0.115385 Ti
0.875000 0.666667 0.115385 Ti
0.375000 0.166667 0.115385 Ti
0.875000 0.166667 0.115385 Ti
0.375000 0.666667 0.115385 Ti
0.875000 0.416667 0.173077 Ti
0.375000 0.416667 0.173077 Ti
0.875000 0.916667 0.173077 Ti
0.375000 0.916667 0.173077 Ti
0.125000 0.583333 0.173077 Ti
0.625000 0.083333 0.173077 Ti
0.125000 0.083333 0.173077 Ti
0.625000 0.583333 0.173077 Ti
0.625000 0.833333 0.230769 Ti
0.625000 0.333333 0.230769 Ti
0.125000 0.833333 0.230769 Ti
0.125000 0.333333 0.230769 Ti
0.375000 0.166667 0.230769 Ti
0.875000 0.166667 0.230769 Ti
0.375000 0.666667 0.230769 Ti
0.875000 0.666667 0.230769 Ti
0.875000 0.416667 0.288462 Ti
0.375000 0.416667 0.288462 Ti
0.375000 0.916667 0.288462 Ti
0.875000 0.916667 0.288462 Ti
0.625000 0.583333 0.288462 Ti
0.625000 0.083333 0.288462 Ti
0.125000 0.583333 0.288462 Ti
0.125000 0.083333 0.288462 Ti
