Ti66 Nb1
1.0
6.309760 0.000000 0.000000
0.000000 9.464640 0.000000
0.000000 0.000000 18.918326
Ti Nb
66 1
Selective dynamics
direct
0.125093 0.041879 0.500001 F F F Ti
0.625160 0.041532 0.500141 F F F Ti
0.125067 0.041554 0.658692 F F F Ti
0.625039 0.041523 0.658717 F F F Ti
0.125041 0.041601 0.817203 F F F Ti
0.624973 0.041590 0.817195 F F F Ti
0.125303 0.375275 0.500693 F F F Ti
0.624951 0.375036 0.501837 F F F Ti
0.124959 0.375017 0.658843 F F F Ti
0.625019 0.374995 0.658975 F F F Ti
0.124998 0.374996 0.817253 F F F Ti
0.624943 0.374998 0.817254 F F F Ti
0.125104 0.708231 0.500030 F F F Ti
0.624722 0.708724 0.500184 F F F Ti
0.124996 0.708498 0.658703 F F F Ti
0.624949 0.708557 0.658744 F F F Ti
0.125005 0.708290 0.817231 F F F Ti
0.624943 0.708303 0.817226 F F F Ti
0.374889 0.208051 0.579610 F F F Ti
0.875241 0.208051 0.579654 F F F Ti
0.374991 0.208251 0.737984 F F F Ti
0.875021 0.208244 0.737997 F F F Ti
0.374995 0.208288 0.896368 F F F Ti
0.875006 0.208294 0.896346 F F F Ti
0.374974 0.542081 0.579727 F F F Ti
0.875080 0.542145 0.579759 F F F Ti
0.374983 0.541742 0.738016 F F F Ti
0.874995 0.541755 0.738027 F F F Ti
0.374972 0.541620 0.896450 F F F Ti
0.874994 0.541627 0.896436 F F F Ti
0.374893 0.875100 0.579349 F F F Ti
0.875148 0.875060 0.579357 F F F Ti
0.374976 0.874989 0.737940 F F F Ti
0.875010 0.874988 0.737944 F F F Ti
0.375013 0.874860 0.896394 F F F Ti
0.875021 0.874852 0.896378 F F F Ti
0.125286 0.625271 0.357187 F F F Ti
0.625473 0.625788 0.356783 F F F Ti
0.125232 0.624150 0.118993 F F F Ti
0.624915 0.624487 0.118924 F F F Ti
0.627624 0.124671 0.356929 F F F Ti
0.125256 0.124026 0.118576 F F F Ti
0.625152 0.124274 0.117896 F F F Ti
0.125197 0.374668 0.039560 F F F Ti
0.624886 0.374892 0.039336 F F F Ti
0.125067 0.874432 0.039441 F F F Ti
0.625005 0.874382 0.039327 F F F Ti
0.629503 0.374386 0.277627 F F F Ti
0.125290 0.874160 0.277320 F F F Ti
0.625163 0.873244 0.277561 F F F Ti
0.375338 0.873536 0.158253 F F F Ti
0.874898 0.873280 0.158128 F F F Ti
0.376327 0.374123 0.158410 F F F Ti
0.873537 0.374461 0.157777 F F F Ti
0.383951 0.377683 0.398952 F F F Ti
0.865358 0.378675 0.399794 F F F Ti
0.374929 0.875458 0.396421 F F F Ti
0.875487 0.875080 0.396482 F F F Ti
0.374874 0.623682 0.238054 F F F Ti
0.875534 0.624329 0.237898 F F F Ti
0.374910 0.624733 -0.000002 F F F Ti
0.875103 0.624743 -0.000017 F F F Ti
0.382741 0.120644 0.236528 F F F Ti
0.866718 0.119486 0.235850 F F F Ti
0.374908 0.124700 -0.000226 F F F Ti
0.875218 0.124698 -0.000255 F F F Ti
0.115651 0.308559 0.299143 T T T Nb

0.000000 0.000000 0.000000
0.000000 0.000000 0.000000
0.000000 0.000000 0.000000
0.000000 0.000000 0.000000
0.000000 0.000000 0.000000
0.000000 0.000000 0.000000
0.000000 0.000000 0.000000
0.000000 0.000000 0.000000
0.000000 0.000000 0.000000
0.000000 0.000000 0.000000
0.000000 0.000000 0.000000
0.000000 0.000000 0.000000
0.000000 0.000000 0.000000
0.000000 0.000000 0.000000
0.000000 0.000000 0.000000
0.000000 0.000000 0.000000
0.000000 0.000000 0.000000
0.000000 0.000000 0.000000
0.000000 0.000000 0.000000
0.000000 0.000000 0.000000
0.000000 0.000000 0.000000
0.000000 0.000000 0.000000
0.000000 0.000000 0.000000
0.000000 0.000000 0.000000
0.000000 0.000000 0.000000
0.000000 0.000000 0.000000
0.000000 0.000000 0.000000
0.000000 0.000000 0.000000
0.000000 0.000000 0.000000
0.000000 0.000000 0.000000
0.000000 0.000000 0.000000
0.000000 0.000000 0.000000
0.000000 0.000000 0.000000
0.000000 0.000000 0.000000
0.000000 0.000000 0.000000
0.000000 0.000000 0.000000
0.000000 0.000000 0.000000
0.000000 0.000000 0.000000
0.000000 0.000000 0.000000
0.000000 0.000000 0.000000
0.000000 0.000000 0.000000
0.000000 0.000000 0.000000
0.000000 0.000000 0.000000
0.000000 0.000000 0.000000
0.000000 0.000000 0.000000
0.000000 0.000000 0.000000
0.000000 0.000000 0.000000
0.000000 0.000000 0.000000
0.000000 0.000000 0.000000
0.000000 0.000000 0.000000
0.000000 0.000000 0.000000
0.000000 0.000000 0.000000
0.000000 0.000000 0.000000
0.000000 0.000000 0.000000
0.000000 0.000000 0.000000
0.000000 0.000000 0.000000
0.000000 0.000000 0.000000
0.000000 0.000000 0.000000
0.000000 0.000000 0.000000
0.000000 0.000000 0.000000
0.000000 0.000000 0.000000
0.000000 0.000000 0.000000
0.000000 0.000000 0.000000
0.000000 0.000000 0.000000
0.000000 0.000000 0.000000
0.000000 0.000000 0.000000
0.000000 0.000000 0.000000
