Optimistic_Structure                    
   1.00000000000000     
     6.3097599999999998    0.0000000000000000    0.0000000000000000
     0.0000000000000000    9.4646399999999993    0.0000000000000000
     0.0000000000000000    0.0000000000000000   18.9183260000000004
   Ti   Nb
    66     1
Selective dynamics
Direct
  0.1478355809266634  0.0201038663231566  0.4932773675385056   T   T   T
  0.6021644190733365  0.0201038663231566  0.4932773675385056   T   T   T
  0.1020024595645705  0.0662435204650627  0.6454480509838347   T   T   T
  0.6479975404354297  0.0662435204650627  0.6454480509838347   T   T   T
  0.1250000000000000  0.0416669999999968  0.8171529999999976   F   F   F
  0.6250000000000000  0.0416669999999968  0.8171529999999976   F   F   F
  0.1844472975740561  0.3738459685182369  0.4529586763375434   T   T   T
  0.5655527024259436  0.3738459685182369  0.4529586763375434   T   T   T
  0.1047731328083050  0.3746339272367828  0.6423655795009977   T   T   T
  0.6452268671916948  0.3746339272367828  0.6423655795009977   T   T   T
  0.1250000000000000  0.3750000000000000  0.8171529999999976   F   F   F
  0.6250000000000000  0.3750000000000000  0.8171529999999976   F   F   F
  0.1527161855267173  0.7227400687049997  0.4927007384085434   T   T   T
  0.5972838144732823  0.7227400687049997  0.4927007384085434   T   T   T
  0.1027839896982927  0.6809892152164082  0.6456127308514703   T   T   T
  0.6472160103017077  0.6809892152164082  0.6456127308514703   T   T   T
  0.1250000000000000  0.7083330000000032  0.8171529999999976   F   F   F
  0.6250000000000000  0.7083330000000032  0.8171529999999976   F   F   F
  0.8750000000000000  0.2293797690094816  0.5315469671537536   T   T   T
  0.3750000000000000  0.2083330000000032  0.7378649999999993   F   F   F
  0.8750000000000000  0.2083330000000032  0.7378649999999993   F   F   F
  0.3750000000000000  0.2083330000000032  0.8964410000000029   F   F   F
  0.8750000000000000  0.2083330000000032  0.8964410000000029   F   F   F
  0.3750000000000000  0.5197602414006207  0.5610458721486329   T   T   T
  0.8750000000000000  0.5191641050952739  0.5339937144713134   T   T   T
  0.3750000000000000  0.5416669999999968  0.7378649999999993   F   F   F
  0.8750000000000000  0.5416669999999968  0.7378649999999993   F   F   F
  0.3750000000000000  0.5416669999999968  0.8964410000000029   F   F   F
  0.8750000000000000  0.5416669999999968  0.8964410000000029   F   F   F
  0.3750000000000000  0.8743244300621923  0.5931972617855148   T   T   T
  0.8750000000000000  0.8686037784636990  0.5663958473047933   T   T   T
  0.3750000000000000  0.8750000000000000  0.7378649999999993   F   F   F
  0.8750000000000000  0.8750000000000000  0.7378649999999993   F   F   F
  0.3750000000000000  0.8750000000000000  0.8964410000000029   F   F   F
  0.8750000000000000  0.8750000000000000  0.8964410000000029   F   F   F
  0.1456199147925230  0.6209290276139436  0.3670218020202315   T   T   T
  0.6043800852074771  0.6209290276139436  0.3670218020202315   T   T   T
  0.1250000000000000  0.6250000000000000  0.1189320000000009   F   F   F
  0.6250000000000000  0.6250000000000000  0.1189320000000009   F   F   F
  0.1349394558553891  0.1298514190845401  0.3687243722035962   T   T   T
  0.6150605441446105  0.1298514190845401  0.3687243722035962   T   T   T
  0.1250000000000000  0.1250000000000000  0.1189320000000009   F   F   F
  0.6250000000000000  0.1250000000000000  0.1189320000000009   F   F   F
  0.1250000000000000  0.3750000000000000  0.0396440000000027   F   F   F
  0.6250000000000000  0.3750000000000000  0.0396440000000027   F   F   F
  0.1250000000000000  0.8750000000000000  0.0396440000000027   F   F   F
  0.6250000000000000  0.8750000000000000  0.0396440000000027   F   F   F
  0.1568356504884336  0.3769104923851737  0.2851756257860104   T   T   T
  0.5931643495115665  0.3769104923851737  0.2851756257860104   T   T   T
  0.0990622330162289  0.8794462028097427  0.2787149726738834   T   T   T
  0.6509377669837710  0.8794462028097427  0.2787149726738835   T   T   T
  0.3750000000000000  0.8750000000000000  0.1585759999999965   F   F   F
  0.8750000000000000  0.8750000000000000  0.1585759999999965   F   F   F
  0.3749990000000025  0.3750000000000000  0.1585759999999965   F   F   F
  0.8749990000000025  0.3750000000000000  0.1585759999999965   F   F   F
  0.8750000000000000  0.3905618225605129  0.3895998764882726   T   T   T
  0.3750000000000000  0.8757199508997415  0.3853330072443514   T   T   T
  0.8750000000000000  0.8713809995126059  0.4070877926631654   T   T   T
  0.3750000000000000  0.6399952682045011  0.2450923863235978   T   T   T
  0.8750000000000000  0.6145258793414552  0.2513205833438786   T   T   T
  0.3750000000000000  0.6250000000000000  0.0000000000000000   F   F   F
  0.8750000000000000  0.6250000000000000  0.0000000000000000   F   F   F
  0.3750000000000000  0.1142960834659209  0.2462971959631711   T   T   T
  0.8750000000000000  0.1415547825716467  0.2496560895023735   T   T   T
  0.3750000000000000  0.1250000000000000  0.0000000000000000   F   F   F
  0.8750000000000000  0.1250000000000000  0.0000000000000000   F   F   F
  0.3750000000000000  0.2206718100769698  0.5594708673013248   T   T   T
 
  0.00000000E+00  0.00000000E+00  0.00000000E+00
  0.00000000E+00  0.00000000E+00  0.00000000E+00
  0.00000000E+00  0.00000000E+00  0.00000000E+00
  0.00000000E+00  0.00000000E+00  0.00000000E+00
  0.00000000E+00  0.00000000E+00  0.00000000E+00
  0.00000000E+00  0.00000000E+00  0.00000000E+00
  0.00000000E+00  0.00000000E+00  0.00000000E+00
  0.00000000E+00  0.00000000E+00  0.00000000E+00
  0.00000000E+00  0.00000000E+00  0.00000000E+00
  0.00000000E+00  0.00000000E+00  0.00000000E+00
  0.00000000E+00  0.00000000E+00  0.00000000E+00
  0.00000000E+00  0.00000000E+00  0.00000000E+00
  0.00000000E+00  0.00000000E+00  0.00000000E+00
  0.00000000E+00  0.00000000E+00  0.00000000E+00
  0.00000000E+00  0.00000000E+00  0.00000000E+00
  0.00000000E+00  0.00000000E+00  0.00000000E+00
  0.00000000E+00  0.00000000E+00  0.00000000E+00
  0.00000000E+00  0.00000000E+00  0.00000000E+00
  0.00000000E+00  0.00000000E+00  0.00000000E+00
  0.00000000E+00  0.00000000E+00  0.00000000E+00
  0.00000000E+00  0.00000000E+00  0.00000000E+00
  0.00000000E+00  0.00000000E+00  0.00000000E+00
  0.00000000E+00  0.00000000E+00  0.00000000E+00
  0.00000000E+00  0.00000000E+00  0.00000000E+00
  0.00000000E+00  0.00000000E+00  0.00000000E+00
  0.00000000E+00  0.00000000E+00  0.00000000E+00
  0.00000000E+00  0.00000000E+00  0.00000000E+00
  0.00000000E+00  0.00000000E+00  0.00000000E+00
  0.00000000E+00  0.00000000E+00  0.00000000E+00
  0.00000000E+00  0.00000000E+00  0.00000000E+00
  0.00000000E+00  0.00000000E+00  0.00000000E+00
  0.00000000E+00  0.00000000E+00  0.00000000E+00
  0.00000000E+00  0.00000000E+00  0.00000000E+00
  0.00000000E+00  0.00000000E+00  0.00000000E+00
  0.00000000E+00  0.00000000E+00  0.00000000E+00
  0.00000000E+00  0.00000000E+00  0.00000000E+00
  0.00000000E+00  0.00000000E+00  0.00000000E+00
  0.00000000E+00  0.00000000E+00  0.00000000E+00
  0.00000000E+00  0.00000000E+00  0.00000000E+00
  0.00000000E+00  0.00000000E+00  0.00000000E+00
  0.00000000E+00  0.00000000E+00  0.00000000E+00
  0.00000000E+00  0.00000000E+00  0.00000000E+00
  0.00000000E+00  0.00000000E+00  0.00000000E+00
  0.00000000E+00  0.00000000E+00  0.00000000E+00
  0.00000000E+00  0.00000000E+00  0.00000000E+00
  0.00000000E+00  0.00000000E+00  0.00000000E+00
  0.00000000E+00  0.00000000E+00  0.00000000E+00
  0.00000000E+00  0.00000000E+00  0.00000000E+00
  0.00000000E+00  0.00000000E+00  0.00000000E+00
  0.00000000E+00  0.00000000E+00  0.00000000E+00
  0.00000000E+00  0.00000000E+00  0.00000000E+00
  0.00000000E+00  0.00000000E+00  0.00000000E+00
  0.00000000E+00  0.00000000E+00  0.00000000E+00
  0.00000000E+00  0.00000000E+00  0.00000000E+00
  0.00000000E+00  0.00000000E+00  0.00000000E+00
  0.00000000E+00  0.00000000E+00  0.00000000E+00
  0.00000000E+00  0.00000000E+00  0.00000000E+00
  0.00000000E+00  0.00000000E+00  0.00000000E+00
  0.00000000E+00  0.00000000E+00  0.00000000E+00
  0.00000000E+00  0.00000000E+00  0.00000000E+00
  0.00000000E+00  0.00000000E+00  0.00000000E+00
  0.00000000E+00  0.00000000E+00  0.00000000E+00
  0.00000000E+00  0.00000000E+00  0.00000000E+00
  0.00000000E+00  0.00000000E+00  0.00000000E+00
  0.00000000E+00  0.00000000E+00  0.00000000E+00
  0.00000000E+00  0.00000000E+00  0.00000000E+00
  0.00000000E+00  0.00000000E+00  0.00000000E+00
