Ti66 Nb1
1.0
6.309760 0.000000 0.000000
0.000000 9.464640 0.000000
0.000000 0.000000 18.918326
Ti Nb
66 1
Selective dynamics
direct
0.125117 0.042257 0.500166 F F F Ti
0.625516 0.042199 0.499928 F F F Ti
0.125075 0.041852 0.658620 F F F Ti
0.625060 0.041836 0.658607 F F F Ti
0.125039 0.041710 0.817067 F F F Ti
0.624974 0.041703 0.817074 F F F Ti
0.125242 0.376705 0.500560 F F F Ti
0.625315 0.375579 0.501211 F F F Ti
0.124984 0.375325 0.658708 F F F Ti
0.625022 0.375273 0.658786 F F F Ti
0.124997 0.375109 0.817093 F F F Ti
0.624947 0.375110 0.817110 F F F Ti
0.125114 0.710111 0.499772 F F F Ti
0.624236 0.709718 0.500027 F F F Ti
0.125003 0.708833 0.658553 F F F Ti
0.624858 0.708811 0.658624 F F F Ti
0.125001 0.708437 0.817073 F F F Ti
0.624934 0.708428 0.817092 F F F Ti
0.375021 0.208603 0.579430 F F F Ti
0.875192 0.208636 0.579518 F F F Ti
0.375018 0.208429 0.737871 F F F Ti
0.875005 0.208428 0.737889 F F F Ti
0.375011 0.208415 0.896269 F F F Ti
0.875022 0.208419 0.896250 F F F Ti
0.375028 0.542533 0.579531 F F F Ti
0.874987 0.542672 0.579558 F F F Ti
0.374985 0.541887 0.737897 F F F Ti
0.874978 0.541908 0.737905 F F F Ti
0.374979 0.541709 0.896355 F F F Ti
0.875010 0.541720 0.896341 F F F Ti
0.375079 0.875562 0.579304 F F F Ti
0.874937 0.875424 0.579332 F F F Ti
0.374995 0.875142 0.737857 F F F Ti
0.874977 0.875129 0.737862 F F F Ti
0.375004 0.874949 0.896306 F F F Ti
0.875033 0.874943 0.896290 F F F Ti
0.125474 0.625189 0.356725 F F F Ti
0.624820 0.626746 0.356532 F F F Ti
0.125212 0.624564 0.118840 F F F Ti
0.624938 0.624720 0.118810 F F F Ti
0.630538 0.125738 0.356554 F F F Ti
0.125317 0.124689 0.118437 F F F Ti
0.624938 0.124803 0.117608 F F F Ti
0.125116 0.374945 0.039474 F F F Ti
0.624930 0.375162 0.039353 F F F Ti
0.125079 0.874679 0.039340 F F F Ti
0.625018 0.874542 0.039211 F F F Ti
0.626925 0.375328 0.277337 F F F Ti
0.125264 0.874029 0.276794 F F F Ti
0.625615 0.874345 0.277266 F F F Ti
0.375471 0.874119 0.158097 F F F Ti
0.874792 0.873856 0.157956 F F F Ti
0.375260 0.374751 0.158469 F F F Ti
0.875025 0.375152 0.158137 F F F Ti
0.382445 0.380443 0.397807 F F F Ti
0.867111 0.382546 0.398222 F F F Ti
0.375099 0.876109 0.396137 F F F Ti
0.875241 0.874948 0.396295 F F F Ti
0.374885 0.624273 0.237817 F F F Ti
0.875478 0.624476 0.237770 F F F Ti
0.374944 0.624850 -0.000097 F F F Ti
0.875084 0.624861 -0.000108 F F F Ti
0.382583 0.123180 0.235792 F F F Ti
0.866679 0.122852 0.234733 F F F Ti
0.374882 0.124905 -0.000334 F F F Ti
0.875253 0.124909 -0.000353 F F F Ti
0.114890 0.180105 0.344675 T T T Nb

0.000000 0.000000 0.000000
0.000000 0.000000 0.000000
0.000000 0.000000 0.000000
0.000000 0.000000 0.000000
0.000000 0.000000 0.000000
0.000000 0.000000 0.000000
0.000000 0.000000 0.000000
0.000000 0.000000 0.000000
0.000000 0.000000 0.000000
0.000000 0.000000 0.000000
0.000000 0.000000 0.000000
0.000000 0.000000 0.000000
0.000000 0.000000 0.000000
0.000000 0.000000 0.000000
0.000000 0.000000 0.000000
0.000000 0.000000 0.000000
0.000000 0.000000 0.000000
0.000000 0.000000 0.000000
0.000000 0.000000 0.000000
0.000000 0.000000 0.000000
0.000000 0.000000 0.000000
0.000000 0.000000 0.000000
0.000000 0.000000 0.000000
0.000000 0.000000 0.000000
0.000000 0.000000 0.000000
0.000000 0.000000 0.000000
0.000000 0.000000 0.000000
0.000000 0.000000 0.000000
0.000000 0.000000 0.000000
0.000000 0.000000 0.000000
0.000000 0.000000 0.000000
0.000000 0.000000 0.000000
0.000000 0.000000 0.000000
0.000000 0.000000 0.000000
0.000000 0.000000 0.000000
0.000000 0.000000 0.000000
0.000000 0.000000 0.000000
0.000000 0.000000 0.000000
0.000000 0.000000 0.000000
0.000000 0.000000 0.000000
0.000000 0.000000 0.000000
0.000000 0.000000 0.000000
0.000000 0.000000 0.000000
0.000000 0.000000 0.000000
0.000000 0.000000 0.000000
0.000000 0.000000 0.000000
0.000000 0.000000 0.000000
0.000000 0.000000 0.000000
0.000000 0.000000 0.000000
0.000000 0.000000 0.000000
0.000000 0.000000 0.000000
0.000000 0.000000 0.000000
0.000000 0.000000 0.000000
0.000000 0.000000 0.000000
0.000000 0.000000 0.000000
0.000000 0.000000 0.000000
0.000000 0.000000 0.000000
0.000000 0.000000 0.000000
0.000000 0.000000 0.000000
0.000000 0.000000 0.000000
0.000000 0.000000 0.000000
0.000000 0.000000 0.000000
0.000000 0.000000 0.000000
0.000000 0.000000 0.000000
0.000000 0.000000 0.000000
0.000000 0.000000 0.000000
0.000000 0.000000 0.000000
