Ti66 Al1
1.0
6.309760 0.000000 0.000000
0.000000 9.464640 0.000000
0.000000 0.000000 18.918326
Ti Al
66 1
Selective dynamics
direct
0.124127 0.039964 0.501869 F F F Ti
0.626721 0.041593 0.500326 F F F Ti
0.124935 0.041685 0.658967 F F F Ti
0.624967 0.041742 0.658845 F F F Ti
0.124995 0.041700 0.817248 F F F Ti
0.624983 0.041708 0.817241 F F F Ti
0.122658 0.376921 0.501071 F F F Ti
0.624334 0.375247 0.500444 F F F Ti
0.124839 0.375293 0.658836 F F F Ti
0.624819 0.375264 0.658800 F F F Ti
0.124987 0.375112 0.817220 F F F Ti
0.624961 0.375112 0.817220 F F F Ti
0.125282 0.709631 0.499904 F F F Ti
0.624108 0.709045 0.499988 F F F Ti
0.125017 0.708528 0.658683 F F F Ti
0.624633 0.708462 0.658754 F F F Ti
0.124990 0.708396 0.817198 F F F Ti
0.624925 0.708389 0.817212 F F F Ti
0.375109 0.208512 0.579690 F F F Ti
0.874367 0.208632 0.579779 F F F Ti
0.375023 0.208441 0.738018 F F F Ti
0.874868 0.208449 0.738042 F F F Ti
0.375028 0.208410 0.896400 F F F Ti
0.874993 0.208416 0.896395 F F F Ti
0.374929 0.542078 0.579448 F F F Ti
0.874246 0.542447 0.579562 F F F Ti
0.374966 0.541777 0.737976 F F F Ti
0.874901 0.541814 0.737994 F F F Ti
0.375005 0.541727 0.896409 F F F Ti
0.874971 0.541733 0.896403 F F F Ti
0.375692 0.874905 0.579678 F F F Ti
0.874330 0.874608 0.579736 F F F Ti
0.375031 0.875021 0.738038 F F F Ti
0.874869 0.874981 0.738041 F F F Ti
0.375037 0.875030 0.896431 F F F Ti
0.874983 0.875025 0.896425 F F F Ti
0.125092 0.625831 0.356689 F F F Ti
0.624260 0.625520 0.356626 F F F Ti
0.125096 0.625370 0.118700 F F F Ti
0.625123 0.625298 0.118695 F F F Ti
0.637337 0.123840 0.356143 F F F Ti
0.125405 0.125198 0.118661 F F F Ti
0.625883 0.125074 0.118461 F F F Ti
0.125109 0.375143 0.039434 F F F Ti
0.625032 0.375156 0.039354 F F F Ti
0.125080 0.875129 0.039494 F F F Ti
0.625163 0.875043 0.039458 F F F Ti
0.122501 0.379088 0.275707 F F F Ti
0.625797 0.375403 0.277108 F F F Ti
0.126019 0.875526 0.277400 F F F Ti
0.626341 0.874849 0.277249 F F F Ti
0.375394 0.874984 0.158337 F F F Ti
0.875455 0.875235 0.158372 F F F Ti
0.375615 0.375418 0.158177 F F F Ti
0.874383 0.375506 0.157980 F F F Ti
0.869453 0.379653 0.396824 F F F Ti
0.377295 0.874159 0.396532 F F F Ti
0.876150 0.874610 0.396532 F F F Ti
0.375464 0.625624 0.237643 F F F Ti
0.874450 0.625980 0.237568 F F F Ti
0.375019 0.625156 -0.000109 F F F Ti
0.875007 0.625150 -0.000118 F F F Ti
0.378922 0.124907 0.236637 F F F Ti
0.876404 0.125470 0.237165 F F F Ti
0.375109 0.125010 -0.000131 F F F Ti
0.875174 0.125018 -0.000145 F F F Ti
0.195100 0.185414 0.371929 T T T Al

0.000000 0.000000 0.000000
0.000000 0.000000 0.000000
0.000000 0.000000 0.000000
0.000000 0.000000 0.000000
0.000000 0.000000 0.000000
0.000000 0.000000 0.000000
0.000000 0.000000 0.000000
0.000000 0.000000 0.000000
0.000000 0.000000 0.000000
0.000000 0.000000 0.000000
0.000000 0.000000 0.000000
0.000000 0.000000 0.000000
0.000000 0.000000 0.000000
0.000000 0.000000 0.000000
0.000000 0.000000 0.000000
0.000000 0.000000 0.000000
0.000000 0.000000 0.000000
0.000000 0.000000 0.000000
0.000000 0.000000 0.000000
0.000000 0.000000 0.000000
0.000000 0.000000 0.000000
0.000000 0.000000 0.000000
0.000000 0.000000 0.000000
0.000000 0.000000 0.000000
0.000000 0.000000 0.000000
0.000000 0.000000 0.000000
0.000000 0.000000 0.000000
0.000000 0.000000 0.000000
0.000000 0.000000 0.000000
0.000000 0.000000 0.000000
0.000000 0.000000 0.000000
0.000000 0.000000 0.000000
0.000000 0.000000 0.000000
0.000000 0.000000 0.000000
0.000000 0.000000 0.000000
0.000000 0.000000 0.000000
0.000000 0.000000 0.000000
0.000000 0.000000 0.000000
0.000000 0.000000 0.000000
0.000000 0.000000 0.000000
0.000000 0.000000 0.000000
0.000000 0.000000 0.000000
0.000000 0.000000 0.000000
0.000000 0.000000 0.000000
0.000000 0.000000 0.000000
0.000000 0.000000 0.000000
0.000000 0.000000 0.000000
0.000000 0.000000 0.000000
0.000000 0.000000 0.000000
0.000000 0.000000 0.000000
0.000000 0.000000 0.000000
0.000000 0.000000 0.000000
0.000000 0.000000 0.000000
0.000000 0.000000 0.000000
0.000000 0.000000 0.000000
0.000000 0.000000 0.000000
0.000000 0.000000 0.000000
0.000000 0.000000 0.000000
0.000000 0.000000 0.000000
0.000000 0.000000 0.000000
0.000000 0.000000 0.000000
0.000000 0.000000 0.000000
0.000000 0.000000 0.000000
0.000000 0.000000 0.000000
0.000000 0.000000 0.000000
0.000000 0.000000 0.000000
0.000000 0.000000 0.000000
