beta_Ti
1.0
9.588310 0.000000 0.000000
0.000000 9.588310 0.000000
0.000000 0.000000 27.000006
Ti
54
direct
0.083333 0.083333 0.500000 Ti
0.083333 0.083333 0.611111 Ti
0.083333 0.083333 0.722222 Ti
0.083333 0.416667 0.500000 Ti
0.083333 0.416667 0.611111 Ti
0.083333 0.416667 0.722222 Ti
0.083333 0.750000 0.500000 Ti
0.083333 0.750000 0.611111 Ti
0.083333 0.750000 0.722222 Ti
0.416667 0.083333 0.500000 Ti
0.416667 0.083333 0.611111 Ti
0.416667 0.083333 0.722222 Ti
0.416667 0.416667 0.500000 Ti
0.416667 0.416667 0.611111 Ti
0.416667 0.416667 0.722222 Ti
0.416667 0.750000 0.500000 Ti
0.416667 0.750000 0.611111 Ti
0.416667 0.750000 0.722222 Ti
0.750000 0.083333 0.500000 Ti
0.750000 0.083333 0.611111 Ti
0.750000 0.083333 0.722222 Ti
0.750000 0.416667 0.500000 Ti
0.750000 0.416667 0.611111 Ti
0.750000 0.416667 0.722222 Ti
0.750000 0.750000 0.500000 Ti
0.750000 0.750000 0.611111 Ti
0.750000 0.750000 0.722222 Ti
0.250000 0.250000 0.555555 Ti
0.250000 0.250000 0.666667 Ti
0.250000 0.250000 0.777778 Ti
0.250000 0.583333 0.555555 Ti
0.250000 0.583333 0.666667 Ti
0.250000 0.583333 0.777778 Ti
0.250000 0.916667 0.555555 Ti
0.250000 0.916667 0.666667 Ti
0.250000 0.916667 0.777778 Ti
0.583333 0.250000 0.555555 Ti
0.583333 0.250000 0.666667 Ti
0.583333 0.250000 0.777778 Ti
0.583333 0.583333 0.555555 Ti
0.583333 0.583333 0.666667 Ti
0.583333 0.583333 0.777778 Ti
0.583333 0.916667 0.555555 Ti
0.583333 0.916667 0.666667 Ti
0.583333 0.916667 0.777778 Ti
0.916667 0.250000 0.555555 Ti
0.916667 0.250000 0.666667 Ti
0.916667 0.250000 0.777778 Ti
0.916667 0.583333 0.555555 Ti
0.916667 0.583333 0.666667 Ti
0.916667 0.583333 0.777778 Ti
0.916667 0.916667 0.555555 Ti
0.916667 0.916667 0.666667 Ti
0.916667 0.916667 0.777778 Ti
