Ti66 Sn1
1.0
6.309760 0.000000 0.000000
0.000000 9.464640 0.000000
0.000000 0.000000 18.918326
Ti Sn
66 1
Selective dynamics
direct
0.628632 0.999743 0.486833 T T T Ti
0.125481 0.038595 0.656429 T T T Ti
0.625037 0.049119 0.646468 T T T Ti
0.125041 0.041629 0.818061 F F F Ti
0.624956 0.041348 0.817784 F F F Ti
0.126063 0.385038 0.484133 T T T Ti
0.626814 0.343202 0.487032 T T T Ti
0.125074 0.356972 0.641119 T T T Ti
0.624594 0.354782 0.654590 T T T Ti
0.124952 0.375216 0.817792 F F F Ti
0.624894 0.375333 0.817711 F F F Ti
0.125907 0.687238 0.489976 T T T Ti
0.624504 0.687910 0.484898 T T T Ti
0.125026 0.704783 0.652989 T T T Ti
0.624479 0.708878 0.648064 T T T Ti
0.124863 0.708260 0.817689 F F F Ti
0.624835 0.708522 0.817530 F F F Ti
0.358148 0.180780 0.549288 T T T Ti
0.891800 0.181709 0.550258 T T T Ti
0.375943 0.208300 0.739097 F F F Ti
0.874059 0.208321 0.739132 F F F Ti
0.375290 0.208529 0.896582 F F F Ti
0.874617 0.208525 0.896584 F F F Ti
0.395150 0.525447 0.569715 T T T Ti
0.855232 0.525763 0.569764 T T T Ti
0.375320 0.541815 0.738563 F F F Ti
0.874528 0.541843 0.738556 F F F Ti
0.375104 0.541837 0.896485 F F F Ti
0.874714 0.541838 0.896480 F F F Ti
0.353736 0.865081 0.566974 T T T Ti
0.896863 0.864365 0.567273 T T T Ti
0.374288 0.874828 0.738772 F F F Ti
0.875687 0.874814 0.738784 F F F Ti
0.375127 0.875033 0.896690 F F F Ti
0.874765 0.875039 0.896688 F F F Ti
0.126284 0.627012 0.363419 T T T Ti
0.623643 0.613997 0.360887 T T T Ti
0.125059 0.626207 0.117884 F F F Ti
0.625146 0.626128 0.118095 F F F Ti
0.630548 0.103959 0.356356 T T T Ti
0.125409 0.125059 0.117647 F F F Ti
0.625161 0.125147 0.118513 F F F Ti
0.124918 0.375444 0.038755 F F F Ti
0.625031 0.375386 0.038964 F F F Ti
0.124850 0.875302 0.039127 F F F Ti
0.624895 0.875397 0.039398 F F F Ti
0.125114 0.390916 0.276906 T T T Ti
0.624189 0.383960 0.275816 T T T Ti
0.126206 0.885991 0.277832 T T T Ti
0.624569 0.859660 0.281696 T T T Ti
0.374055 0.875897 0.157749 F F F Ti
0.876167 0.875828 0.157795 F F F Ti
0.375175 0.376136 0.156725 F F F Ti
0.875180 0.376264 0.156728 F F F Ti
0.362174 0.307997 0.384385 T T T Ti
0.888080 0.311008 0.384062 T T T Ti
0.353385 0.877170 0.397302 T T T Ti
0.896499 0.874130 0.396893 T T T Ti
0.363225 0.628954 0.242844 T T T Ti
0.886823 0.628933 0.242948 T T T Ti
0.375180 0.625523 -0.000283 F F F Ti
0.874625 0.625531 -0.000291 F F F Ti
0.361929 0.137884 0.244331 T T T Ti
0.889035 0.138002 0.243893 T T T Ti
0.375442 0.124988 -0.000158 F F F Ti
0.874546 0.124981 -0.000152 F F F Ti
0.110934 0.092215 0.434384 T T T Sn

0.000000 0.000000 0.000000
0.000000 0.000000 0.000000
0.000000 0.000000 0.000000
0.000000 0.000000 0.000000
0.000000 0.000000 0.000000
0.000000 0.000000 0.000000
0.000000 0.000000 0.000000
0.000000 0.000000 0.000000
0.000000 0.000000 0.000000
0.000000 0.000000 0.000000
0.000000 0.000000 0.000000
0.000000 0.000000 0.000000
0.000000 0.000000 0.000000
0.000000 0.000000 0.000000
0.000000 0.000000 0.000000
0.000000 0.000000 0.000000
0.000000 0.000000 0.000000
0.000000 0.000000 0.000000
0.000000 0.000000 0.000000
0.000000 0.000000 0.000000
0.000000 0.000000 0.000000
0.000000 0.000000 0.000000
0.000000 0.000000 0.000000
0.000000 0.000000 0.000000
0.000000 0.000000 0.000000
0.000000 0.000000 0.000000
0.000000 0.000000 0.000000
0.000000 0.000000 0.000000
0.000000 0.000000 0.000000
0.000000 0.000000 0.000000
0.000000 0.000000 0.000000
0.000000 0.000000 0.000000
0.000000 0.000000 0.000000
0.000000 0.000000 0.000000
0.000000 0.000000 0.000000
0.000000 0.000000 0.000000
0.000000 0.000000 0.000000
0.000000 0.000000 0.000000
0.000000 0.000000 0.000000
0.000000 0.000000 0.000000
0.000000 0.000000 0.000000
0.000000 0.000000 0.000000
0.000000 0.000000 0.000000
0.000000 0.000000 0.000000
0.000000 0.000000 0.000000
0.000000 0.000000 0.000000
0.000000 0.000000 0.000000
0.000000 0.000000 0.000000
0.000000 0.000000 0.000000
0.000000 0.000000 0.000000
0.000000 0.000000 0.000000
0.000000 0.000000 0.000000
0.000000 0.000000 0.000000
0.000000 0.000000 0.000000
0.000000 0.000000 0.000000
0.000000 0.000000 0.000000
0.000000 0.000000 0.000000
0.000000 0.000000 0.000000
0.000000 0.000000 0.000000
0.000000 0.000000 0.000000
0.000000 0.000000 0.000000
0.000000 0.000000 0.000000
0.000000 0.000000 0.000000
0.000000 0.000000 0.000000
0.000000 0.000000 0.000000
0.000000 0.000000 0.000000
0.000000 0.000000 0.000000
