Ti72
1.0
8.805261 0.000000 0.000000
-4.402630 7.625579 0.000000
0.000000 0.000000 17.388801
Ti
72
direct
0.000000 0.000000 0.485481 Ti
1.000000 0.500000 0.485481 Ti
0.500000 0.000000 0.485481 Ti
0.500000 0.500000 0.485481 Ti
0.166667 0.333333 0.857689 Ti
0.166667 0.833333 0.857689 Ti
0.666667 0.333333 0.857689 Ti
0.666667 0.833333 0.857689 Ti
0.333333 0.166667 0.910861 Ti
0.333333 0.666667 0.910861 Ti
0.833333 0.166667 0.910861 Ti
0.833333 0.666667 0.910861 Ti
0.166667 0.333333 0.538653 Ti
0.166667 0.833333 0.538653 Ti
0.666667 0.333333 0.538653 Ti
0.666667 0.833333 0.538653 Ti
0.333333 0.166667 0.591826 Ti
0.333333 0.666667 0.591826 Ti
0.833333 0.166667 0.591826 Ti
0.833333 0.666667 0.591826 Ti
0.000000 0.000000 0.644998 Ti
1.000000 0.500000 0.644998 Ti
0.500000 0.000000 0.644998 Ti
0.500000 0.500000 0.644998 Ti
0.166667 0.333333 0.698171 Ti
0.166667 0.833333 0.698171 Ti
0.666667 0.333333 0.698171 Ti
0.666667 0.833333 0.698171 Ti
0.333333 0.166667 0.751344 Ti
0.333333 0.666667 0.751344 Ti
0.833333 0.166667 0.751344 Ti
0.833333 0.666667 0.751344 Ti
0.000000 0.000000 0.804516 Ti
1.000000 0.500000 0.804516 Ti
0.500000 0.000000 0.804516 Ti
0.500000 0.500000 0.804516 Ti
0.111111 0.888889 -0.000000 Ti
0.111111 0.888889 0.264229 Ti
0.111111 0.555556 -0.000000 Ti
0.222222 0.777778 0.132114 Ti
0.111111 0.555556 0.264229 Ti
0.444444 0.888889 -0.000000 Ti
0.111111 0.222222 -0.000000 Ti
0.222222 0.777778 0.396343 Ti
0.222222 0.444444 0.132114 Ti
0.444444 0.888889 0.264229 Ti
0.111111 0.222222 0.264229 Ti
0.444444 0.555556 -0.000000 Ti
0.222222 0.444444 0.396343 Ti
0.555556 0.777778 0.132114 Ti
0.222222 0.111111 0.132114 Ti
0.444444 0.555556 0.264229 Ti
0.777778 0.888889 -0.000000 Ti
0.444444 0.222222 -0.000000 Ti
0.555556 0.777778 0.396343 Ti
0.222222 0.111111 0.396343 Ti
0.555556 0.444444 0.132114 Ti
0.777778 0.888889 0.264229 Ti
0.444444 0.222222 0.264229 Ti
0.777778 0.555556 -0.000000 Ti
0.555556 0.444444 0.396343 Ti
0.888889 0.777778 0.132114 Ti
0.555556 0.111111 0.132114 Ti
0.777778 0.555556 0.264229 Ti
0.777778 0.222222 -0.000000 Ti
0.888889 0.777778 0.396343 Ti
0.555556 0.111111 0.396343 Ti
0.888889 0.444444 0.132114 Ti
0.777778 0.222222 0.264229 Ti
0.888889 0.444444 0.396343 Ti
0.888889 0.111111 0.132114 Ti
0.888889 0.111111 0.396343 Ti

0.000000 0.000000 0.000000
0.000000 0.000000 0.000000
0.000000 0.000000 0.000000
0.000000 0.000000 0.000000
0.000000 0.000000 0.000000
0.000000 0.000000 0.000000
0.000000 0.000000 0.000000
0.000000 0.000000 0.000000
0.000000 0.000000 0.000000
0.000000 0.000000 0.000000
0.000000 0.000000 0.000000
0.000000 0.000000 0.000000
0.000000 0.000000 0.000000
0.000000 0.000000 0.000000
0.000000 0.000000 0.000000
0.000000 0.000000 0.000000
0.000000 0.000000 0.000000
0.000000 0.000000 0.000000
0.000000 0.000000 0.000000
0.000000 0.000000 0.000000
0.000000 0.000000 0.000000
0.000000 0.000000 0.000000
0.000000 0.000000 0.000000
0.000000 0.000000 0.000000
0.000000 0.000000 0.000000
0.000000 0.000000 0.000000
0.000000 0.000000 0.000000
0.000000 0.000000 0.000000
0.000000 0.000000 0.000000
0.000000 0.000000 0.000000
0.000000 0.000000 0.000000
0.000000 0.000000 0.000000
0.000000 0.000000 0.000000
0.000000 0.000000 0.000000
0.000000 0.000000 0.000000
0.000000 0.000000 0.000000
0.000000 0.000000 0.000000
0.000000 0.000000 0.000000
0.000000 0.000000 0.000000
0.000000 0.000000 0.000000
0.000000 0.000000 0.000000
0.000000 0.000000 0.000000
0.000000 0.000000 0.000000
0.000000 0.000000 0.000000
0.000000 0.000000 0.000000
0.000000 0.000000 0.000000
0.000000 0.000000 0.000000
0.000000 0.000000 0.000000
0.000000 0.000000 0.000000
0.000000 0.000000 0.000000
0.000000 0.000000 0.000000
0.000000 0.000000 0.000000
0.000000 0.000000 0.000000
0.000000 0.000000 0.000000
0.000000 0.000000 0.000000
0.000000 0.000000 0.000000
0.000000 0.000000 0.000000
0.000000 0.000000 0.000000
0.000000 0.000000 0.000000
0.000000 0.000000 0.000000
0.000000 0.000000 0.000000
0.000000 0.000000 0.000000
0.000000 0.000000 0.000000
0.000000 0.000000 0.000000
0.000000 0.000000 0.000000
0.000000 0.000000 0.000000
0.000000 0.000000 0.000000
0.000000 0.000000 0.000000
0.000000 0.000000 0.000000
0.000000 0.000000 0.000000
0.000000 0.000000 0.000000
0.000000 0.000000 0.000000
