Ti96 Nb1
1.0
9.513020 0.000000 0.000000
0.000000 9.350860 0.000000
0.000000 0.000000 18.547230
Ti Nb
96 1
Selective dynamics
direct
0.147115 0.375381 0.398682 T T T Ti
0.649569 0.377363 0.400261 T T T Ti
0.163435 0.889089 0.390503 T T T Ti
0.653944 0.900105 0.409486 T T T Ti
0.161807 0.378238 0.237488 T T T Ti
0.661137 0.377239 0.234139 T T T Ti
0.158386 0.875730 0.235334 T T T Ti
0.662122 0.876411 0.232546 T T T Ti
0.166659 0.374997 0.077681 F F F Ti
0.666665 0.374994 0.077684 F F F Ti
0.166671 0.874996 0.077691 F F F Ti
0.666673 0.874994 0.077695 F F F Ti
0.412772 0.371353 0.315870 T T T Ti
0.904223 0.376507 0.315202 T T T Ti
0.415006 0.872243 0.317548 T T T Ti
0.897415 0.870133 0.319851 T T T Ti
0.416658 0.374992 0.155340 F F F Ti
0.916649 0.374984 0.155351 F F F Ti
0.416681 0.875016 0.155343 F F F Ti
0.916698 0.874964 0.155346 F F F Ti
0.416663 0.375008 -0.000006 F F F Ti
0.916657 0.375005 -0.000001 F F F Ti
0.416669 0.874998 0.000002 F F F Ti
0.916660 0.874994 0.000009 F F F Ti
0.087228 0.128647 0.315869 T T T Ti
0.595777 0.123494 0.315201 T T T Ti
0.084994 0.627757 0.317547 T T T Ti
0.602585 0.629868 0.319850 T T T Ti
0.083343 0.125012 0.155340 F F F Ti
0.583351 0.125019 0.155351 F F F Ti
0.083319 0.624986 0.155343 F F F Ti
0.583301 0.625038 0.155345 F F F Ti
0.083338 0.124996 -0.000006 F F F Ti
0.583343 0.124999 -0.000000 F F F Ti
0.083331 0.625005 0.000002 F F F Ti
0.583340 0.625008 0.000008 F F F Ti
0.352884 0.124619 0.398682 T T T Ti
0.850430 0.122637 0.400261 T T T Ti
0.336564 0.610911 0.390503 T T T Ti
0.846055 0.599895 0.409486 T T T Ti
0.338192 0.121762 0.237488 T T T Ti
0.838862 0.122762 0.234139 T T T Ti
0.341613 0.624270 0.235334 T T T Ti
0.837877 0.623590 0.232546 T T T Ti
0.333340 0.125007 0.077681 F F F Ti
0.833334 0.125009 0.077684 F F F Ti
0.333328 0.625007 0.077690 F F F Ti
0.833326 0.625008 0.077694 F F F Ti
0.374974 0.375021 0.823805 F F F Ti
0.875006 0.375013 0.823773 F F F Ti
0.375017 0.874994 0.823840 F F F Ti
0.875011 0.874963 0.823787 F F F Ti
0.125027 0.124978 0.823805 F F F Ti
0.624995 0.124987 0.823774 F F F Ti
0.124984 0.625004 0.823839 F F F Ti
0.624993 0.625035 0.823786 F F F Ti
0.124981 0.374997 0.910118 F F F Ti
0.625011 0.375016 0.910104 F F F Ti
0.124993 0.874994 0.910143 F F F Ti
0.625016 0.874983 0.910125 F F F Ti
0.375021 0.125003 0.910118 F F F Ti
0.874990 0.124984 0.910104 F F F Ti
0.375009 0.625004 0.910143 F F F Ti
0.874986 0.625017 0.910123 F F F Ti
0.398034 0.375591 0.646427 T T T Ti
0.883002 0.345908 0.653584 T T T Ti
0.369859 0.872114 0.672224 T T T Ti
0.886356 0.873018 0.658328 T T T Ti
0.101966 0.124408 0.646427 T T T Ti
0.616998 0.154091 0.653584 T T T Ti
0.130140 0.627885 0.672224 T T T Ti
0.613643 0.626981 0.658328 T T T Ti
0.147825 0.382402 0.574985 T T T Ti
0.658775 0.405583 0.563680 T T T Ti
0.143456 0.870322 0.576913 T T T Ti
0.574716 0.917885 0.579709 T T T Ti
0.352175 0.117598 0.574986 T T T Ti
0.841225 0.094417 0.563681 T T T Ti
0.356544 0.629678 0.576913 T T T Ti
0.925284 0.582114 0.579709 T T T Ti
0.386934 0.369767 0.488985 T T T Ti
0.902519 0.346583 0.488630 T T T Ti
0.375413 0.861630 0.479852 T T T Ti
-0.062019 -0.116211 0.474138 T T T Ti
0.113066 0.130233 0.488985 T T T Ti
0.597481 0.153417 0.488630 T T T Ti
0.124587 0.638370 0.479852 T T T Ti
0.562019 0.616211 0.474138 T T T Ti
0.125072 0.875066 0.737581 F F F Ti
0.625014 0.875030 0.737525 F F F Ti
0.374923 0.624925 0.737583 F F F Ti
0.874983 0.624963 0.737525 F F F Ti
0.125052 0.374955 0.737510 F F F Ti
0.624912 0.375322 0.737510 F F F Ti
0.374945 0.125040 0.737511 F F F Ti
0.875086 0.124672 0.737514 F F F Ti
0.750000 0.750000 0.540169 T T T Nb

0.000000 0.000000 0.000000
0.000000 0.000000 0.000000
0.000000 0.000000 0.000000
0.000000 0.000000 0.000000
0.000000 0.000000 0.000000
0.000000 0.000000 0.000000
0.000000 0.000000 0.000000
0.000000 0.000000 0.000000
0.000000 0.000000 0.000000
0.000000 0.000000 0.000000
0.000000 0.000000 0.000000
0.000000 0.000000 0.000000
0.000000 0.000000 0.000000
0.000000 0.000000 0.000000
0.000000 0.000000 0.000000
0.000000 0.000000 0.000000
0.000000 0.000000 0.000000
0.000000 0.000000 0.000000
0.000000 0.000000 0.000000
0.000000 0.000000 0.000000
0.000000 0.000000 0.000000
0.000000 0.000000 0.000000
0.000000 0.000000 0.000000
0.000000 0.000000 0.000000
0.000000 0.000000 0.000000
0.000000 0.000000 0.000000
0.000000 0.000000 0.000000
0.000000 0.000000 0.000000
0.000000 0.000000 0.000000
0.000000 0.000000 0.000000
0.000000 0.000000 0.000000
0.000000 0.000000 0.000000
0.000000 0.000000 0.000000
0.000000 0.000000 0.000000
0.000000 0.000000 0.000000
0.000000 0.000000 0.000000
0.000000 0.000000 0.000000
0.000000 0.000000 0.000000
0.000000 0.000000 0.000000
0.000000 0.000000 0.000000
0.000000 0.000000 0.000000
0.000000 0.000000 0.000000
0.000000 0.000000 0.000000
0.000000 0.000000 0.000000
0.000000 0.000000 0.000000
0.000000 0.000000 0.000000
0.000000 0.000000 0.000000
0.000000 0.000000 0.000000
0.000000 0.000000 0.000000
0.000000 0.000000 0.000000
0.000000 0.000000 0.000000
0.000000 0.000000 0.000000
0.000000 0.000000 0.000000
0.000000 0.000000 0.000000
0.000000 0.000000 0.000000
0.000000 0.000000 0.000000
0.000000 0.000000 0.000000
0.000000 0.000000 0.000000
0.000000 0.000000 0.000000
0.000000 0.000000 0.000000
0.000000 0.000000 0.000000
0.000000 0.000000 0.000000
0.000000 0.000000 0.000000
0.000000 0.000000 0.000000
0.000000 0.000000 0.000000
0.000000 0.000000 0.000000
0.000000 0.000000 0.000000
0.000000 0.000000 0.000000
0.000000 0.000000 0.000000
0.000000 0.000000 0.000000
0.000000 0.000000 0.000000
0.000000 0.000000 0.000000
0.000000 0.000000 0.000000
0.000000 0.000000 0.000000
0.000000 0.000000 0.000000
0.000000 0.000000 0.000000
0.000000 0.000000 0.000000
0.000000 0.000000 0.000000
0.000000 0.000000 0.000000
0.000000 0.000000 0.000000
0.000000 0.000000 0.000000
0.000000 0.000000 0.000000
0.000000 0.000000 0.000000
0.000000 0.000000 0.000000
0.000000 0.000000 0.000000
0.000000 0.000000 0.000000
0.000000 0.000000 0.000000
0.000000 0.000000 0.000000
0.000000 0.000000 0.000000
0.000000 0.000000 0.000000
0.000000 0.000000 0.000000
0.000000 0.000000 0.000000
0.000000 0.000000 0.000000
0.000000 0.000000 0.000000
0.000000 0.000000 0.000000
0.000000 0.000000 0.000000
0.000000 0.000000 0.000000
