Ti66 Al1
1.0
6.309760 0.000000 0.000000
0.000000 9.464640 0.000000
0.000000 0.000000 18.918326
Ti Al
66 1
Selective dynamics
direct
0.630734 0.041636 0.500462 F F F Ti
0.626536 0.041607 0.659445 F F F Ti
0.125073 0.041647 0.817219 F F F Ti
0.625064 0.041633 0.817506 F F F Ti
0.125488 0.377030 0.500265 F F F Ti
0.625783 0.377298 0.499357 F F F Ti
0.125713 0.375682 0.659166 F F F Ti
0.625249 0.377612 0.660150 F F F Ti
0.125191 0.374836 0.817592 F F F Ti
0.625048 0.374972 0.817775 F F F Ti
0.125194 0.706371 0.500269 F F F Ti
0.625406 0.706152 0.499319 F F F Ti
0.125472 0.707438 0.659168 F F F Ti
0.624880 0.705894 0.660123 F F F Ti
0.125098 0.708452 0.817614 F F F Ti
0.625028 0.708388 0.817789 F F F Ti
0.387335 0.214497 0.580846 F F F Ti
0.861318 0.216791 0.581527 F F F Ti
0.375147 0.208279 0.738184 F F F Ti
0.875296 0.208513 0.738396 F F F Ti
0.374943 0.208180 0.896664 F F F Ti
0.875159 0.208205 0.896701 F F F Ti
0.375797 0.541436 0.579670 F F F Ti
0.874921 0.541322 0.579742 F F F Ti
0.374602 0.541625 0.738699 F F F Ti
0.875949 0.541523 0.738763 F F F Ti
0.374962 0.541621 0.896826 F F F Ti
0.875141 0.541605 0.896838 F F F Ti
0.386517 0.869078 0.580758 F F F Ti
0.861793 0.866613 0.581439 F F F Ti
0.375023 0.875006 0.738144 F F F Ti
0.875288 0.874745 0.738352 F F F Ti
0.374914 0.875109 0.896678 F F F Ti
0.875153 0.875096 0.896718 F F F Ti
0.125189 0.624987 0.356751 F F F Ti
0.625061 0.624941 0.356490 F F F Ti
0.124975 0.625065 0.119079 F F F Ti
0.624912 0.625050 0.119054 F F F Ti
0.125146 0.124914 0.357295 F F F Ti
0.625557 0.124942 0.357069 F F F Ti
0.125025 0.124951 0.119190 F F F Ti
0.624914 0.124959 0.119149 F F F Ti
0.124969 0.374871 0.039889 F F F Ti
0.624862 0.374889 0.039873 F F F Ti
0.124958 0.875107 0.039920 F F F Ti
0.624824 0.875086 0.039895 F F F Ti
0.125068 0.374901 0.277546 F F F Ti
0.625076 0.374877 0.277470 F F F Ti
0.125163 0.875102 0.277780 F F F Ti
0.624995 0.875091 0.277638 F F F Ti
0.374961 0.875065 0.158762 F F F Ti
0.875039 0.875058 0.158747 F F F Ti
0.374970 0.374932 0.158680 F F F Ti
0.875028 0.374939 0.158650 F F F Ti
0.375064 0.375104 0.396362 F F F Ti
0.875429 0.375414 0.396266 F F F Ti
0.375518 0.874914 0.396860 F F F Ti
0.874763 0.874189 0.396477 F F F Ti
0.374953 0.625047 0.237870 F F F Ti
0.875121 0.625013 0.237849 F F F Ti
0.374907 0.625089 0.000244 F F F Ti
0.874998 0.625092 0.000252 F F F Ti
0.374957 0.124944 0.238138 F F F Ti
0.875186 0.124947 0.238079 F F F Ti
0.374925 0.124938 0.000174 F F F Ti
0.875022 0.124931 0.000195 F F F Ti
0.113248 0.042691 0.532494 T T T Al

0.000000 0.000000 0.000000
0.000000 0.000000 0.000000
0.000000 0.000000 0.000000
0.000000 0.000000 0.000000
0.000000 0.000000 0.000000
0.000000 0.000000 0.000000
0.000000 0.000000 0.000000
0.000000 0.000000 0.000000
0.000000 0.000000 0.000000
0.000000 0.000000 0.000000
0.000000 0.000000 0.000000
0.000000 0.000000 0.000000
0.000000 0.000000 0.000000
0.000000 0.000000 0.000000
0.000000 0.000000 0.000000
0.000000 0.000000 0.000000
0.000000 0.000000 0.000000
0.000000 0.000000 0.000000
0.000000 0.000000 0.000000
0.000000 0.000000 0.000000
0.000000 0.000000 0.000000
0.000000 0.000000 0.000000
0.000000 0.000000 0.000000
0.000000 0.000000 0.000000
0.000000 0.000000 0.000000
0.000000 0.000000 0.000000
0.000000 0.000000 0.000000
0.000000 0.000000 0.000000
0.000000 0.000000 0.000000
0.000000 0.000000 0.000000
0.000000 0.000000 0.000000
0.000000 0.000000 0.000000
0.000000 0.000000 0.000000
0.000000 0.000000 0.000000
0.000000 0.000000 0.000000
0.000000 0.000000 0.000000
0.000000 0.000000 0.000000
0.000000 0.000000 0.000000
0.000000 0.000000 0.000000
0.000000 0.000000 0.000000
0.000000 0.000000 0.000000
0.000000 0.000000 0.000000
0.000000 0.000000 0.000000
0.000000 0.000000 0.000000
0.000000 0.000000 0.000000
0.000000 0.000000 0.000000
0.000000 0.000000 0.000000
0.000000 0.000000 0.000000
0.000000 0.000000 0.000000
0.000000 0.000000 0.000000
0.000000 0.000000 0.000000
0.000000 0.000000 0.000000
0.000000 0.000000 0.000000
0.000000 0.000000 0.000000
0.000000 0.000000 0.000000
0.000000 0.000000 0.000000
0.000000 0.000000 0.000000
0.000000 0.000000 0.000000
0.000000 0.000000 0.000000
0.000000 0.000000 0.000000
0.000000 0.000000 0.000000
0.000000 0.000000 0.000000
0.000000 0.000000 0.000000
0.000000 0.000000 0.000000
0.000000 0.000000 0.000000
0.000000 0.000000 0.000000
0.000000 0.000000 0.000000
