beta_Ti
1.0
9.445957 0.000000 0.000000
0.000000 9.093951 0.000000
0.000000 0.000000 18.551864
Ti
48
direct
0.375000 0.375000 0.823658 Ti
0.875000 0.375000 0.823658 Ti
0.375000 0.875000 0.823658 Ti
0.875000 0.875000 0.823658 Ti
0.125000 0.125000 0.823658 Ti
0.625000 0.125000 0.823658 Ti
0.125000 0.625000 0.823658 Ti
0.625000 0.625000 0.823658 Ti
0.125000 0.375000 0.909981 Ti
0.625000 0.375000 0.909981 Ti
0.125000 0.875000 0.909981 Ti
0.625000 0.875000 0.909981 Ti
0.375000 0.125000 0.909981 Ti
0.875000 0.125000 0.909981 Ti
0.375000 0.625000 0.909981 Ti
0.875000 0.625000 0.909981 Ti
0.375000 0.375000 0.651012 Ti
0.875000 0.375000 0.651012 Ti
0.375000 0.875000 0.651012 Ti
0.875000 0.875000 0.651012 Ti
0.125000 0.125000 0.651012 Ti
0.625000 0.125000 0.651012 Ti
0.125000 0.625000 0.651012 Ti
0.625000 0.625000 0.651012 Ti
0.125000 0.375000 0.564690 Ti
0.625000 0.375000 0.564690 Ti
0.125000 0.875000 0.564690 Ti
0.625000 0.875000 0.564690 Ti
0.375000 0.125000 0.564690 Ti
0.875000 0.125000 0.564690 Ti
0.375000 0.625000 0.564690 Ti
0.875000 0.625000 0.564690 Ti
0.375000 0.375000 0.478367 Ti
0.875000 0.375000 0.478367 Ti
0.375000 0.875000 0.478367 Ti
0.875000 0.875000 0.478367 Ti
0.125000 0.125000 0.478367 Ti
0.625000 0.125000 0.478367 Ti
0.125000 0.625000 0.478367 Ti
0.625000 0.625000 0.478367 Ti
0.125000 0.875000 0.737335 Ti
0.625000 0.875000 0.737335 Ti
0.375000 0.625000 0.737335 Ti
0.875000 0.625000 0.737335 Ti
0.125000 0.375000 0.737335 Ti
0.625000 0.375000 0.737335 Ti
0.375000 0.125000 0.737335 Ti
0.875000 0.125000 0.737335 Ti
