Ti82 Sn1
1.0
6.391540 0.000000 0.000000
0.000000 9.587310 0.000000
0.000000 0.000000 23.271695
Ti Sn
82 1
Selective dynamics
direct
0.634298 0.083342 0.581691 F F F Ti
0.125327 0.083344 0.709483 F F F Ti
0.625594 0.083347 0.709722 F F F Ti
0.125023 0.083341 0.838424 F F F Ti
0.625066 0.083341 0.838462 F F F Ti
0.124932 0.417523 0.580673 F F F Ti
0.625746 0.417154 0.580663 F F F Ti
0.125205 0.416788 0.709588 F F F Ti
0.625336 0.416874 0.709640 F F F Ti
0.125035 0.416673 0.838447 F F F Ti
0.625044 0.416685 0.838461 F F F Ti
0.124745 0.749071 0.580688 F F F Ti
0.625737 0.749559 0.580667 F F F Ti
0.125139 0.749900 0.709602 F F F Ti
0.625337 0.749838 0.709653 F F F Ti
0.125018 0.750005 0.838451 F F F Ti
0.625041 0.749996 0.838466 F F F Ti
0.376358 0.250637 0.645414 F F F Ti
0.876039 0.250573 0.645250 F F F Ti
0.375071 0.250031 0.774023 F F F Ti
0.875185 0.250036 0.774021 F F F Ti
0.375000 0.249998 0.902877 F F F Ti
0.875032 0.249998 0.902881 F F F Ti
0.375278 0.583472 0.645132 F F F Ti
0.875009 0.583331 0.645198 F F F Ti
0.375046 0.583350 0.774027 F F F Ti
0.875116 0.583325 0.774045 F F F Ti
0.374997 0.583333 0.902884 F F F Ti
0.875022 0.583330 0.902889 F F F Ti
0.376346 0.916049 0.645429 F F F Ti
0.876029 0.916120 0.645257 F F F Ti
0.375062 0.916659 0.774024 F F F Ti
0.875175 0.916649 0.774020 F F F Ti
0.374991 0.916671 0.902873 F F F Ti
0.875024 0.916669 0.902877 F F F Ti
0.124093 0.166881 0.386563 F F F Ti
0.623911 0.166862 0.386584 F F F Ti
0.124910 0.666311 0.386438 F F F Ti
0.624968 0.666616 0.386592 F F F Ti
0.125000 0.166661 -0.000006 F F F Ti
0.624989 0.166662 -0.000004 F F F Ti
0.125000 0.666678 -0.000002 F F F Ti
0.624991 0.666675 -0.000000 F F F Ti
0.124998 0.833341 0.096663 F F F Ti
0.624989 0.833342 0.096661 F F F Ti
0.121474 0.829540 0.482846 F F F Ti
0.625642 0.832405 0.483364 F F F Ti
0.124996 0.333329 0.096662 F F F Ti
0.624986 0.333331 0.096660 F F F Ti
0.121588 0.337114 0.482817 F F F Ti
0.625385 0.334296 0.483362 F F F Ti
0.375460 0.583663 0.483360 F F F Ti
0.873827 0.583444 0.483331 F F F Ti
0.375000 0.583335 0.096659 F F F Ti
0.875001 0.583336 0.096657 F F F Ti
0.374994 0.083337 0.096668 F F F Ti
0.874992 0.083339 0.096664 F F F Ti
0.867117 0.083322 0.482566 F F F Ti
0.375012 0.416829 0.386594 F F F Ti
0.874189 0.416909 0.386441 F F F Ti
0.374542 0.916448 0.386676 F F F Ti
0.874295 0.916456 0.386450 F F F Ti
0.374985 0.416663 -0.000004 F F F Ti
0.875001 0.416662 -0.000001 F F F Ti
0.374985 0.916671 -0.000001 F F F Ti
0.875002 0.916670 0.000001 F F F Ti
0.374785 0.083316 0.290005 F F F Ti
0.874782 0.083353 0.289953 F F F Ti
0.124979 0.166659 0.193329 F F F Ti
0.624931 0.166656 0.193321 F F F Ti
0.124927 0.333370 0.289950 F F F Ti
0.624787 0.333332 0.289936 F F F Ti
0.374957 0.416668 0.193310 F F F Ti
0.874949 0.416662 0.193304 F F F Ti
0.375048 0.583355 0.289948 F F F Ti
0.874864 0.583368 0.289901 F F F Ti
0.124990 0.666667 0.193310 F F F Ti
0.624942 0.666670 0.193303 F F F Ti
0.124947 0.833333 0.289961 F F F Ti
0.624796 0.833323 0.289954 F F F Ti
0.374946 0.916672 0.193326 F F F Ti
0.874954 0.916661 0.193318 F F F Ti
0.259220 0.083100 0.528727 T T T Sn

0.000000 0.000000 0.000000
0.000000 0.000000 0.000000
0.000000 0.000000 0.000000
0.000000 0.000000 0.000000
0.000000 0.000000 0.000000
0.000000 0.000000 0.000000
0.000000 0.000000 0.000000
0.000000 0.000000 0.000000
0.000000 0.000000 0.000000
0.000000 0.000000 0.000000
0.000000 0.000000 0.000000
0.000000 0.000000 0.000000
0.000000 0.000000 0.000000
0.000000 0.000000 0.000000
0.000000 0.000000 0.000000
0.000000 0.000000 0.000000
0.000000 0.000000 0.000000
0.000000 0.000000 0.000000
0.000000 0.000000 0.000000
0.000000 0.000000 0.000000
0.000000 0.000000 0.000000
0.000000 0.000000 0.000000
0.000000 0.000000 0.000000
0.000000 0.000000 0.000000
0.000000 0.000000 0.000000
0.000000 0.000000 0.000000
0.000000 0.000000 0.000000
0.000000 0.000000 0.000000
0.000000 0.000000 0.000000
0.000000 0.000000 0.000000
0.000000 0.000000 0.000000
0.000000 0.000000 0.000000
0.000000 0.000000 0.000000
0.000000 0.000000 0.000000
0.000000 0.000000 0.000000
0.000000 0.000000 0.000000
0.000000 0.000000 0.000000
0.000000 0.000000 0.000000
0.000000 0.000000 0.000000
0.000000 0.000000 0.000000
0.000000 0.000000 0.000000
0.000000 0.000000 0.000000
0.000000 0.000000 0.000000
0.000000 0.000000 0.000000
0.000000 0.000000 0.000000
0.000000 0.000000 0.000000
0.000000 0.000000 0.000000
0.000000 0.000000 0.000000
0.000000 0.000000 0.000000
0.000000 0.000000 0.000000
0.000000 0.000000 0.000000
0.000000 0.000000 0.000000
0.000000 0.000000 0.000000
0.000000 0.000000 0.000000
0.000000 0.000000 0.000000
0.000000 0.000000 0.000000
0.000000 0.000000 0.000000
0.000000 0.000000 0.000000
0.000000 0.000000 0.000000
0.000000 0.000000 0.000000
0.000000 0.000000 0.000000
0.000000 0.000000 0.000000
0.000000 0.000000 0.000000
0.000000 0.000000 0.000000
0.000000 0.000000 0.000000
0.000000 0.000000 0.000000
0.000000 0.000000 0.000000
0.000000 0.000000 0.000000
0.000000 0.000000 0.000000
0.000000 0.000000 0.000000
0.000000 0.000000 0.000000
0.000000 0.000000 0.000000
0.000000 0.000000 0.000000
0.000000 0.000000 0.000000
0.000000 0.000000 0.000000
0.000000 0.000000 0.000000
0.000000 0.000000 0.000000
0.000000 0.000000 0.000000
0.000000 0.000000 0.000000
0.000000 0.000000 0.000000
0.000000 0.000000 0.000000
0.000000 0.000000 0.000000
0.000000 0.000000 0.000000
