Ti67
1.0
6.309760 0.000000 0.000000
0.000000 9.464640 0.000000
0.000000 0.000000 18.918326
Ti
67
Selective dynamics
direct
0.111242 0.035888 0.500260 F F F Ti
0.635867 0.036875 0.500056 F F F Ti
0.124600 0.042264 0.658860 F F F Ti
0.623785 0.042414 0.659046 F F F Ti
0.125119 0.042231 0.817433 F F F Ti
0.624674 0.042288 0.817437 F F F Ti
0.081594 0.389147 0.503092 F F F Ti
0.676500 0.398066 0.503311 F F F Ti
0.125118 0.375601 0.658573 F F F Ti
0.624255 0.376288 0.659395 F F F Ti
0.125174 0.375206 0.817314 F F F Ti
0.624591 0.375203 0.817496 F F F Ti
0.124817 0.709430 0.500276 F F F Ti
0.622385 0.711525 0.500331 F F F Ti
0.127179 0.709945 0.659607 F F F Ti
0.621866 0.710338 0.659801 F F F Ti
0.125266 0.708771 0.817658 F F F Ti
0.624465 0.708836 0.817688 F F F Ti
0.870439 0.207423 0.580981 F F F Ti
0.374653 0.208985 0.737636 F F F Ti
0.874851 0.208835 0.738310 F F F Ti
0.374944 0.208544 0.896541 F F F Ti
0.874998 0.208574 0.896630 F F F Ti
0.374530 0.542625 0.579294 F F F Ti
0.875256 0.550562 0.583689 F F F Ti
0.374822 0.541947 0.738199 F F F Ti
0.875088 0.542501 0.738897 F F F Ti
0.374970 0.541750 0.896660 F F F Ti
0.874983 0.541781 0.896740 F F F Ti
0.374358 0.876874 0.579366 F F F Ti
0.873939 0.874148 0.580642 F F F Ti
0.374566 0.876231 0.738321 F F F Ti
0.874819 0.875767 0.738516 F F F Ti
0.375018 0.875402 0.896684 F F F Ti
0.874946 0.875344 0.896711 F F F Ti
0.125731 0.624054 0.356996 F F F Ti
0.623241 0.625341 0.356486 F F F Ti
0.125194 0.624958 0.118920 F F F Ti
0.624836 0.624957 0.118885 F F F Ti
0.119326 0.122685 0.355652 F F F Ti
0.633248 0.121590 0.354529 F F F Ti
0.125361 0.124890 0.118703 F F F Ti
0.624876 0.124881 0.118668 F F F Ti
0.125171 0.375008 0.039710 F F F Ti
0.624829 0.375025 0.039700 F F F Ti
0.125078 0.875037 0.039667 F F F Ti
0.624779 0.875014 0.039643 F F F Ti
0.125693 0.374598 0.277353 F F F Ti
0.624570 0.374925 0.276591 F F F Ti
0.124834 0.874173 0.277222 F F F Ti
0.624863 0.873855 0.276893 F F F Ti
0.374927 0.874738 0.158413 F F F Ti
0.875007 0.874600 0.158269 F F F Ti
0.374924 0.374873 0.158449 F F F Ti
0.875483 0.375064 0.158280 F F F Ti
0.870414 0.375252 0.393601 F F F Ti
0.374321 0.875060 0.396235 F F F Ti
0.874111 0.872354 0.395835 F F F Ti
0.374639 0.624589 0.237836 F F F Ti
0.875214 0.624705 0.237641 F F F Ti
0.374909 0.624904 0.000214 F F F Ti
0.874852 0.624987 0.000212 F F F Ti
0.375017 0.124513 0.237573 F F F Ti
0.876123 0.124523 0.236723 F F F Ti
0.374999 0.125169 0.000115 F F F Ti
0.874850 0.125098 0.000105 F F F Ti
0.387900 0.268316 0.475910 T T T Ti

0.000000 0.000000 0.000000
0.000000 0.000000 0.000000
0.000000 0.000000 0.000000
0.000000 0.000000 0.000000
0.000000 0.000000 0.000000
0.000000 0.000000 0.000000
0.000000 0.000000 0.000000
0.000000 0.000000 0.000000
0.000000 0.000000 0.000000
0.000000 0.000000 0.000000
0.000000 0.000000 0.000000
0.000000 0.000000 0.000000
0.000000 0.000000 0.000000
0.000000 0.000000 0.000000
0.000000 0.000000 0.000000
0.000000 0.000000 0.000000
0.000000 0.000000 0.000000
0.000000 0.000000 0.000000
0.000000 0.000000 0.000000
0.000000 0.000000 0.000000
0.000000 0.000000 0.000000
0.000000 0.000000 0.000000
0.000000 0.000000 0.000000
0.000000 0.000000 0.000000
0.000000 0.000000 0.000000
0.000000 0.000000 0.000000
0.000000 0.000000 0.000000
0.000000 0.000000 0.000000
0.000000 0.000000 0.000000
0.000000 0.000000 0.000000
0.000000 0.000000 0.000000
0.000000 0.000000 0.000000
0.000000 0.000000 0.000000
0.000000 0.000000 0.000000
0.000000 0.000000 0.000000
0.000000 0.000000 0.000000
0.000000 0.000000 0.000000
0.000000 0.000000 0.000000
0.000000 0.000000 0.000000
0.000000 0.000000 0.000000
0.000000 0.000000 0.000000
0.000000 0.000000 0.000000
0.000000 0.000000 0.000000
0.000000 0.000000 0.000000
0.000000 0.000000 0.000000
0.000000 0.000000 0.000000
0.000000 0.000000 0.000000
0.000000 0.000000 0.000000
0.000000 0.000000 0.000000
0.000000 0.000000 0.000000
0.000000 0.000000 0.000000
0.000000 0.000000 0.000000
0.000000 0.000000 0.000000
0.000000 0.000000 0.000000
0.000000 0.000000 0.000000
0.000000 0.000000 0.000000
0.000000 0.000000 0.000000
0.000000 0.000000 0.000000
0.000000 0.000000 0.000000
0.000000 0.000000 0.000000
0.000000 0.000000 0.000000
0.000000 0.000000 0.000000
0.000000 0.000000 0.000000
0.000000 0.000000 0.000000
0.000000 0.000000 0.000000
0.000000 0.000000 0.000000
0.000000 0.000000 0.000000
