Ti66 Mo1
1.0
6.309760 0.000000 0.000000
0.000000 9.464640 0.000000
0.000000 0.000000 18.918326
Ti Mo
66 1
Selective dynamics
direct
0.118755 0.038462 0.496890 F F F Ti
0.625649 0.040624 0.499515 F F F Ti
0.633462 0.039618 0.659650 F F F Ti
0.125230 0.041799 0.817282 F F F Ti
0.625975 0.041395 0.817604 F F F Ti
0.123708 0.375587 0.499735 F F F Ti
0.623618 0.375257 0.499860 F F F Ti
0.121690 0.379630 0.659568 F F F Ti
0.625485 0.375908 0.659008 F F F Ti
0.124740 0.375562 0.817592 F F F Ti
0.625952 0.375765 0.817723 F F F Ti
0.124594 0.707474 0.499707 F F F Ti
0.625602 0.707404 0.499604 F F F Ti
0.125094 0.708576 0.658601 F F F Ti
0.625637 0.707912 0.658773 F F F Ti
0.125156 0.708564 0.817320 F F F Ti
0.625188 0.708570 0.817415 F F F Ti
0.866629 0.210202 0.578475 F F F Ti
0.378817 0.210432 0.740288 F F F Ti
0.874881 0.209095 0.738293 F F F Ti
0.375128 0.208473 0.896788 F F F Ti
0.875095 0.208394 0.896626 F F F Ti
0.374919 0.541548 0.579330 F F F Ti
0.874094 0.542225 0.579185 F F F Ti
0.375366 0.542403 0.738208 F F F Ti
0.874368 0.542496 0.738295 F F F Ti
0.375042 0.541930 0.896639 F F F Ti
0.875045 0.541938 0.896668 F F F Ti
0.378168 0.870518 0.578432 F F F Ti
0.874859 0.874150 0.579027 F F F Ti
0.375891 0.874798 0.738063 F F F Ti
0.876472 0.874796 0.738058 F F F Ti
0.375025 0.875033 0.896579 F F F Ti
0.875274 0.875004 0.896583 F F F Ti
0.124987 0.624572 0.356744 F F F Ti
0.624598 0.624561 0.356693 F F F Ti
0.125005 0.624944 0.118991 F F F Ti
0.624944 0.624947 0.118988 F F F Ti
0.124889 0.125061 0.356294 F F F Ti
0.624712 0.124945 0.356606 F F F Ti
0.124974 0.124983 0.118980 F F F Ti
0.624939 0.124985 0.118973 F F F Ti
0.124960 0.375021 0.039713 F F F Ti
0.625011 0.375034 0.039731 F F F Ti
0.124983 0.874980 0.039682 F F F Ti
0.625018 0.874964 0.039693 F F F Ti
0.124917 0.374995 0.277413 F F F Ti
0.624828 0.374944 0.277420 F F F Ti
0.124954 0.874807 0.277334 F F F Ti
0.624842 0.874858 0.277316 F F F Ti
0.374997 0.874929 0.158532 F F F Ti
0.874947 0.874930 0.158527 F F F Ti
0.375001 0.374986 0.158565 F F F Ti
0.874991 0.374996 0.158558 F F F Ti
0.374694 0.374748 0.396375 F F F Ti
0.874415 0.375006 0.396248 F F F Ti
0.375316 0.874444 0.396066 F F F Ti
0.874041 0.874157 0.395897 F F F Ti
0.374957 0.624860 0.237845 F F F Ti
0.874952 0.624865 0.237837 F F F Ti
0.374988 0.625034 0.000111 F F F Ti
0.875013 0.625037 0.000123 F F F Ti
0.375049 0.124964 0.237767 F F F Ti
0.874812 0.124973 0.237745 F F F Ti
0.374998 0.124932 0.000165 F F F Ti
0.874972 0.124977 0.000106 F F F Ti
0.254540 0.130883 0.613991 T T T Mo

0.000000 0.000000 0.000000
0.000000 0.000000 0.000000
0.000000 0.000000 0.000000
0.000000 0.000000 0.000000
0.000000 0.000000 0.000000
0.000000 0.000000 0.000000
0.000000 0.000000 0.000000
0.000000 0.000000 0.000000
0.000000 0.000000 0.000000
0.000000 0.000000 0.000000
0.000000 0.000000 0.000000
0.000000 0.000000 0.000000
0.000000 0.000000 0.000000
0.000000 0.000000 0.000000
0.000000 0.000000 0.000000
0.000000 0.000000 0.000000
0.000000 0.000000 0.000000
0.000000 0.000000 0.000000
0.000000 0.000000 0.000000
0.000000 0.000000 0.000000
0.000000 0.000000 0.000000
0.000000 0.000000 0.000000
0.000000 0.000000 0.000000
0.000000 0.000000 0.000000
0.000000 0.000000 0.000000
0.000000 0.000000 0.000000
0.000000 0.000000 0.000000
0.000000 0.000000 0.000000
0.000000 0.000000 0.000000
0.000000 0.000000 0.000000
0.000000 0.000000 0.000000
0.000000 0.000000 0.000000
0.000000 0.000000 0.000000
0.000000 0.000000 0.000000
0.000000 0.000000 0.000000
0.000000 0.000000 0.000000
0.000000 0.000000 0.000000
0.000000 0.000000 0.000000
0.000000 0.000000 0.000000
0.000000 0.000000 0.000000
0.000000 0.000000 0.000000
0.000000 0.000000 0.000000
0.000000 0.000000 0.000000
0.000000 0.000000 0.000000
0.000000 0.000000 0.000000
0.000000 0.000000 0.000000
0.000000 0.000000 0.000000
0.000000 0.000000 0.000000
0.000000 0.000000 0.000000
0.000000 0.000000 0.000000
0.000000 0.000000 0.000000
0.000000 0.000000 0.000000
0.000000 0.000000 0.000000
0.000000 0.000000 0.000000
0.000000 0.000000 0.000000
0.000000 0.000000 0.000000
0.000000 0.000000 0.000000
0.000000 0.000000 0.000000
0.000000 0.000000 0.000000
0.000000 0.000000 0.000000
0.000000 0.000000 0.000000
0.000000 0.000000 0.000000
0.000000 0.000000 0.000000
0.000000 0.000000 0.000000
0.000000 0.000000 0.000000
0.000000 0.000000 0.000000
0.000000 0.000000 0.000000
