Ti36
1.0
8.805261 0.000000 0.000000
-4.402630 7.625579 0.000000
0.000000 0.000000 18.588801
Ti
36
direct
0.000000 0.000000 0.486418 Ti
1.000000 0.500000 0.486418 Ti
0.500000 0.000000 0.486418 Ti
0.500000 0.500000 0.486418 Ti
0.166667 0.333333 0.834598 Ti
0.166667 0.833333 0.834598 Ti
0.666667 0.333333 0.834598 Ti
0.666667 0.833333 0.834598 Ti
0.333333 0.166667 0.884338 Ti
0.333333 0.666667 0.884338 Ti
0.833333 0.166667 0.884338 Ti
0.833333 0.666667 0.884338 Ti
0.166667 0.333333 0.536158 Ti
0.166667 0.833333 0.536158 Ti
0.666667 0.333333 0.536158 Ti
0.666667 0.833333 0.536158 Ti
0.333333 0.166667 0.585898 Ti
0.333333 0.666667 0.585898 Ti
0.833333 0.166667 0.585898 Ti
0.833333 0.666667 0.585898 Ti
0.000000 0.000000 0.635638 Ti
1.000000 0.500000 0.635638 Ti
0.500000 0.000000 0.635638 Ti
0.500000 0.500000 0.635638 Ti
0.166667 0.333333 0.685378 Ti
0.166667 0.833333 0.685378 Ti
0.666667 0.333333 0.685378 Ti
0.666667 0.833333 0.685378 Ti
0.333333 0.166667 0.735118 Ti
0.333333 0.666667 0.735118 Ti
0.833333 0.166667 0.735118 Ti
0.833333 0.666667 0.735118 Ti
0.000000 0.000000 0.784858 Ti
1.000000 0.500000 0.784858 Ti
0.500000 0.000000 0.784858 Ti
0.500000 0.500000 0.784858 Ti

0.000000 0.000000 0.000000
0.000000 0.000000 0.000000
0.000000 0.000000 0.000000
0.000000 0.000000 0.000000
0.000000 0.000000 0.000000
0.000000 0.000000 0.000000
0.000000 0.000000 0.000000
0.000000 0.000000 0.000000
0.000000 0.000000 0.000000
0.000000 0.000000 0.000000
0.000000 0.000000 0.000000
0.000000 0.000000 0.000000
0.000000 0.000000 0.000000
0.000000 0.000000 0.000000
0.000000 0.000000 0.000000
0.000000 0.000000 0.000000
0.000000 0.000000 0.000000
0.000000 0.000000 0.000000
0.000000 0.000000 0.000000
0.000000 0.000000 0.000000
0.000000 0.000000 0.000000
0.000000 0.000000 0.000000
0.000000 0.000000 0.000000
0.000000 0.000000 0.000000
0.000000 0.000000 0.000000
0.000000 0.000000 0.000000
0.000000 0.000000 0.000000
0.000000 0.000000 0.000000
0.000000 0.000000 0.000000
0.000000 0.000000 0.000000
0.000000 0.000000 0.000000
0.000000 0.000000 0.000000
0.000000 0.000000 0.000000
0.000000 0.000000 0.000000
0.000000 0.000000 0.000000
0.000000 0.000000 0.000000
