substance_top
1.0
   3.0750000000000002    0.0000000000000000    0.0000000000000002
   0.0000000000000026   16.0000000000000000    0.0000000000000010
   0.0000000000000000    0.0000000000000000   58.0109925000000004
Fe W
54 6
Selective dynamics
direct
   0.3530400000000000    0.0286600000000000    0.4188254751890343 T T T Fe
   0.3478800000000001    0.1409000000000000    0.4610940159315495 T T T Fe
   0.3467900000000000    0.0900100000000000    0.5323953128366146 F F F Fe
   0.3427100000000000    0.2531300000000000    0.5033715118733747 T T T Fe
   0.3457200000000000    0.0391300000000000    0.6036876545423697 F F F Fe
   0.3416299999999999    0.2022400000000000    0.5746728087784397 F F F Fe
   0.3375500000000000    0.3653700000000000    0.5456490078152000 F F F Fe
   0.3489500000000000    0.1917800000000000    0.3898016742257944 T T T Fe
   0.3437799999999999    0.3040200000000000    0.4320791701676195 T T T Fe
   0.3396900000000000    0.4671400000000000    0.4030643244036895 T T T Fe
   0.3386200000000000    0.4162500000000000    0.4743477109101349 T T T Fe
   0.3345300000000000    0.5793800000000000    0.4453328651462049 T T T Fe
   0.3304300000000000    0.7425000000000000    0.4163180193822749 T T T Fe
   0.3334500000000000    0.5284799999999999    0.5166341620512699 F F F Fe
   0.3293600000000000    0.6916099999999999    0.4876103610880301 T T T Fe
   0.3252700000000000    0.8547400000000001    0.4585865601247902 T T T Fe
   0.3405600000000000    0.1513600000000000    0.6459651504841949 F F F Fe
   0.3364600000000000    0.3144800000000000    0.6169413495209550 F F F Fe
   0.3323800000000000    0.4776000000000000    0.5879265037570250 F F F Fe
   0.3272200000000001    0.5898400000000000    0.6302039996988502 F F F Fe
   0.3282900000000000    0.6407200000000000    0.5589027027937852 F F F Fe
   0.3242000000000000    0.8038500000000000    0.5298878570298552 F F F Fe
   0.3200999999999999    0.9669700000000000    0.5008640560666153 T T T Fe
   0.3231200000000000    0.7529500000000000    0.6011801987356103 F F F Fe
   0.3190300000000000    0.9160800000000000    0.5721653529716804 F F F Fe
   0.3179600000000000    0.8652000000000000    0.6434576946774355 F F F Fe
   0.8304500000000001    0.1161200000000000    0.4967983955799412 T T T Fe
   0.8293800000000001    0.0652400000000000    0.5680907372856964 F F F Fe
   0.8252899999999999    0.2283500000000000    0.5390758915217664 F F F Fe
   0.8366900000000000    0.0547800000000000    0.3832285579323609 T T T Fe
   0.8315300000000000    0.1670100000000000    0.4254970986748762 T T T Fe
   0.8274300000000000    0.3301300000000000    0.3964822529109462 T T T Fe
   0.8263600000000000    0.2792400000000000    0.4677745946167013 T T T Fe
   0.8222699999999999    0.4423600000000000    0.4387597488527714 T T T Fe
   0.8181899999999999    0.6054900000000000    0.4097359478895315 T T T Fe
   0.8212000000000000    0.3914800000000000    0.5100520905585265 F F F Fe
   0.8171000000000000    0.5546000000000000    0.4810282895952867 T T T Fe
   0.8130200000000001    0.7177200000000000    0.4520134438313567 T T T Fe
   0.8089300000000000    0.8808500000000000    0.4229896428681167 T T T Fe
   0.8283100000000001    0.0143500000000000    0.6393920341907614 F F F Fe
   0.8242200000000000    0.1774700000000000    0.6103771884268313 F F F Fe
   0.8201200000000000    0.3405900000000000    0.5813444322642816 F F F Fe
   0.8149600000000001    0.4528200000000000    0.6236308834054166 F F F Fe
   0.8160300000000000    0.5037100000000000    0.5523295865003517 F F F Fe
   0.8119400000000000    0.6668300000000000    0.5233147407364217 F F F Fe
   0.8078600000000001    0.8299600000000000    0.4942819845738720 T T T Fe
   0.8030800000000000    0.0063900000000000    0.4539388116829755 T T T Fe
   0.8108699999999999    0.6159500000000000    0.5945981272428669 F F F Fe
   0.8067699999999999    0.7790700000000000    0.5655832814789369 F F F Fe
   0.8026899999999999    0.9421900000000000    0.5365684357150070 F F F Fe
   0.8057000000000000    0.7281800000000000    0.6368845783840020 F F F Fe
   0.8016100000000000    0.8913000000000000    0.6078607774207621 F F F Fe
   0.3238700000000000    0.9110900000000000    0.3876166055941899 T T T Fe
   0.8118499999999998    0.7695300000000000    0.3806852813283620 T T T Fe
   0.3310199999999999    0.7398700000000000    0.3494585013348979 T T T W
   0.8235800000000000    0.9073300000000000    0.3500764100872779 T T T W
   0.3457900000000000    0.4065500000000000    0.3494585013348979 T T T W
   0.8383500000000002    0.5740100000000000    0.3500764100872779 T T T W
   0.3605600000000000    0.0732200000000000    0.3494585013348979 T T T W
   0.8531199999999999    0.2406800000000000    0.3500764100872779 T T T W
