substance_bottem
1.0
   3.5062000000000002    0.0000000000000000    0.0000000000000002
   0.0000000000000019   12.0001999999999995    0.0000000000000007
   0.0000000000000000    0.0000000000000000   34.3249410619999935
Cr N
24 24
Selective dynamics
direct
   0.1440500000000000    0.0017200000000000    0.3429132775418137 T T T Cr
   0.6440500000000000    0.3767200000000000    0.2771070973383279 T T T Cr
   0.6440500000000000    0.1267200000000000    0.2771070973383279 T T T Cr
   0.1440500000000000    0.2517200000000000    0.3429132775418137 T T T Cr
   0.1440500000000000    0.0017200000000000    0.2113009171348421 T T T Cr
   0.6440500000000000    0.3767200000000000    0.1455031811993152 F F F Cr
   0.6440500000000000    0.1267200000000000    0.1455031811993152 F F F Cr
   0.1440500000000000    0.2517200000000000    0.2113009171348421 T T T Cr
   0.1440500000000000    0.5017199999999999    0.3429132775418137 T T T Cr
   0.6440500000000000    0.8767200000000001    0.2771070973383279 T T T Cr
   0.6440500000000000    0.6267199999999999    0.2771070973383279 T T T Cr
   0.1440500000000000    0.7517199999999999    0.3429132775418137 T T T Cr
   0.1440500000000000    0.5017199999999999    0.2113009171348421 T T T Cr
   0.6440500000000000    0.8767200000000001    0.1455031811993152 F F F Cr
   0.6440500000000000    0.6267199999999999    0.1455031811993152 F F F Cr
   0.1440500000000000    0.7517199999999999    0.2113009171348421 T T T Cr
   0.1275900000000000    0.0033700000000000    0.0797983322113359 F F F Cr
   0.6275900000000000    0.3783700000000000    0.0139921520078501 F F F Cr
   0.6275900000000000    0.1283700000000000    0.0139921520078501 F F F Cr
   0.1275900000000000    0.2533700000000000    0.0797983322113359 F F F Cr
   0.1275900000000000    0.5033700000000000    0.0797983322113359 F F F Cr
   0.6275900000000000    0.8783700000000000    0.0139921520078501 F F F Cr
   0.6275900000000000    0.6283700000000000    0.0139921520078501 F F F Cr
   0.1275900000000000    0.7533699999999999    0.0797983322113359 F F F Cr
   0.6440500000000000    0.3767200000000000    0.3429132775418137 T T T N
   0.1440500000000000    0.0017200000000000    0.2771070973383279 T T T N
   0.1440500000000000    0.2517200000000000    0.2771070973383279 T T T N
   0.6440500000000000    0.1267200000000000    0.3429132775418137 T T T N
   0.6440500000000000    0.3767200000000000    0.2113009171348421 T T T N
   0.1440500000000000    0.0017200000000000    0.1455031811993152 F F F N
   0.1440500000000000    0.2517200000000000    0.1455031811993152 F F F N
   0.6440500000000000    0.1267200000000000    0.2113009171348421 T T T N
   0.6440500000000000    0.8767200000000001    0.3429132775418137 T T T N
   0.1440500000000000    0.5017199999999999    0.2771070973383279 T T T N
   0.1440500000000000    0.7517199999999999    0.2771070973383279 T T T N
   0.6440500000000000    0.6267199999999999    0.3429132775418137 T T T N
   0.6440500000000000    0.8767200000000001    0.2113009171348421 T T T N
   0.1440500000000000    0.5017199999999999    0.1455031811993152 F F F N
   0.1440500000000000    0.7517199999999999    0.1455031811993152 F F F N
   0.6440500000000000    0.6267199999999999    0.2113009171348421 T T T N
   0.6275900000000000    0.3783700000000000    0.0797983322113359 F F F N
   0.1275900000000000    0.0033700000000000    0.0139921520078501 F F F N
   0.1275900000000000    0.2533700000000000    0.0139921520078501 F F F N
   0.6275900000000000    0.1283700000000000    0.0797983322113359 F F F N
   0.6275900000000000    0.8783700000000000    0.0797983322113359 F F F N
   0.1275900000000000    0.5033700000000000    0.0139921520078501 F F F N
   0.1275900000000000    0.7533699999999999    0.0139921520078501 F F F N
   0.6275900000000000    0.6283700000000000    0.0797983322113359 F F F N
