total_structure
1.0
   3.5062000000000002    0.0000000000000000    0.0000000000000002
   0.0000000000000019   12.0001999999999995    0.0000000000000007
   0.0000000000000000    0.0000000000000000   34.3249410619999935
Cr Fe Mo N
20 36 4 24
Selective dynamics
direct
   0.6482100000000000    0.3787300000000000    0.2771155416062868 T T T Cr
   0.6482100000000000    0.1287300000000000    0.2771155416062868 T T T Cr
   0.1482100000000000    0.0037300000000000    0.2113178056707598 T T T Cr
   0.6482100000000000    0.3787300000000000    0.1455116254672741 F F F Cr
   0.6482100000000000    0.1287300000000000    0.1455116254672741 F F F Cr
   0.1482100000000000    0.2537300000000000    0.2113178056707598 T T T Cr
   0.6482100000000000    0.8787300000000000    0.2771155416062868 T T T Cr
   0.6482100000000000    0.6287300000000000    0.2771155416062868 T T T Cr
   0.1482100000000000    0.5037300000000000    0.2113178056707598 T T T Cr
   0.6482100000000000    0.8787300000000000    0.1455116254672741 F F F Cr
   0.6482100000000000    0.6287300000000000    0.1455116254672741 F F F Cr
   0.1482100000000000    0.7537299999999999    0.2113178056707598 T T T Cr
   0.1317400000000000    0.0053800000000000    0.0798067764792948 F F F Cr
   0.6317400000000001    0.3803800000000000    0.0140005962758090 F F F Cr
   0.6317400000000000    0.1303800000000000    0.0140005962758090 F F F Cr
   0.1317400000000000    0.2553800000000000    0.0798067764792948 F F F Cr
   0.1317400000000000    0.5053800000000001    0.0798067764792948 F F F Cr
   0.6317400000000001    0.8803800000000001    0.0140005962758090 F F F Cr
   0.6317400000000001    0.6303800000000001    0.0140005962758090 F F F Cr
   0.1317400000000000    0.7553800000000001    0.0798067764792948 F F F Cr
   0.1415300000000000    0.7221700000000000    0.8314777443448013 F F F Fe
   0.6415299999999999    0.5580400000000000    0.8205761944098982 F F F Fe
   0.6415299999999999    0.7428899999999999    0.7872044474364378 F F F Fe
   0.1415300000000000    0.5787500000000000    0.7763028975015347 F F F Fe
   0.1415300000000000    0.3939000000000000    0.8096662002070361 F F F Fe
   0.6415300000000000    0.2297700000000000    0.7987646502721329 F F F Fe
   0.6415300000000000    0.4146200000000000    0.7653929032986726 F F F Fe
   0.1415300000000000    0.2504800000000000    0.7544913533637696 F F F Fe
   0.1415300000000000    0.0656300000000000    0.7878546560692710 F F F Fe
   0.6415300000000000    0.9015000000000000    0.7769531061343677 F F F Fe
   0.6415300000000000    0.0863500000000000    0.7435813591609076 F F F Fe
   0.1415300000000000    0.9222099999999999    0.7326798092260044 F F F Fe
   0.1415300000000000    0.7635999999999999    0.7429395947960333 F F F Fe
   0.6415300000000000    0.5994699999999999    0.7320296005931713 F F F Fe
   0.6415299999999999    0.7843100000000000    0.6986662978876700 F F F Fe
   0.1415300000000000    0.6201800000000000    0.6877563036848079 F F F Fe
   0.1415300000000000    0.4353300000000000    0.7211280506582682 F F F Fe
   0.6415300000000000    0.2712000000000000    0.7102180564554061 F F F Fe
   0.6415300000000000    0.4560500000000000    0.6768547537499048 F F F Fe
   0.1415300000000000    0.2919100000000000    0.6659447595470428 F F F Fe
   0.1415300000000000    0.1070600000000000    0.6993165065205031 F F F Fe
   0.6415299999999999    0.9429300000000000    0.6884065123176411 F F F Fe
   0.6415300000000000    0.1277800000000000    0.6550432096121396 T T T Fe
   0.1415300000000000    0.9636399999999999    0.6441332154092776 T T T Fe
   0.1415300000000000    0.8050300000000000    0.6543930009793066 T T T Fe
   0.6415300000000000    0.6408900000000000    0.6434914510444034 T T T Fe
   0.6415300000000000    0.8257400000000000    0.6101197040709432 T T T Fe
   0.1415300000000000    0.6616100000000000    0.5992181541360400 T T T Fe
   0.1415300000000000    0.4767600000000000    0.6325814568415414 T T T Fe
   0.6415299999999999    0.3126200000000000    0.6216799069066383 T T T Fe
   0.6415300000000000    0.4974700000000000    0.5883081599331781 T T T Fe
   0.1415300000000000    0.3333333333333333    0.5774066099982749 T T T Fe
   0.1415300000000000    0.1484900000000000    0.6107699127037762 T T T Fe
   0.6415299999999999    0.9843499999999999    0.5998683627688731 T T T Fe
   0.6415300000000000    0.1692000000000000    0.5664966157954129 T T T Fe
   0.1415300000000000    0.0050700000000000    0.5555950658605098 T T T Fe
   0.1482100000000000    0.0037300000000000    0.3429217218097725 T T T Mo
   0.1482100000000000    0.2537300000000000    0.3429217218097725 T T T Mo
   0.1482100000000000    0.5037300000000000    0.3429217218097725 T T T Mo
   0.1482100000000000    0.7537299999999999    0.3429217218097725 T T T Mo
   0.6482100000000000    0.3787300000000000    0.3429217218097725 T T T N
   0.1482100000000000    0.0037300000000000    0.2771155416062868 T T T N
   0.1482100000000000    0.2537300000000000    0.2771155416062868 T T T N
   0.6482100000000000    0.1287300000000000    0.3429217218097725 T T T N
   0.6482100000000000    0.3787300000000000    0.2113178056707598 T T T N
   0.1482100000000000    0.0037300000000000    0.1455116254672741 F F F N
   0.1482100000000000    0.2537300000000000    0.1455116254672741 F F F N
   0.6482100000000000    0.1287300000000000    0.2113178056707598 T T T N
   0.6482100000000000    0.8787300000000000    0.3429217218097725 T T T N
   0.1482100000000000    0.5037300000000000    0.2771155416062868 T T T N
   0.1482100000000000    0.7537299999999999    0.2771155416062868 T T T N
   0.6482100000000000    0.6287300000000000    0.3429217218097725 T T T N
   0.6482100000000000    0.8787300000000000    0.2113178056707598 T T T N
   0.1482100000000000    0.5037300000000000    0.1455116254672741 F F F N
   0.1482100000000000    0.7537299999999999    0.1455116254672741 F F F N
   0.6482100000000000    0.6287300000000000    0.2113178056707598 T T T N
   0.6317400000000001    0.3803800000000000    0.0798067764792948 F F F N
   0.1317400000000000    0.0053800000000000    0.0140005962758090 F F F N
   0.1317400000000000    0.2553800000000000    0.0140005962758090 F F F N
   0.6317400000000000    0.1303800000000000    0.0798067764792948 F F F N
   0.6317400000000001    0.8803800000000001    0.0798067764792948 F F F N
   0.1317400000000000    0.5053800000000001    0.0140005962758090 F F F N
   0.1317400000000000    0.7553800000000001    0.0140005962758090 F F F N
   0.6317400000000001    0.6303800000000001    0.0798067764792948 F F F N
