Ti36
1.0
8.805261 0.000000 0.000000
-4.402630 7.625580 0.000000
0.000000 0.000000 28.288801
Ti
36
direct
0.967272 0.027818 0.491075 Ti
0.967272 0.527818 0.491075 Ti
0.467272 0.027818 0.491075 Ti
0.467272 0.527818 0.491075 Ti
0.133938 0.361151 0.719867 Ti
0.133938 0.861151 0.719867 Ti
0.633938 0.361151 0.719867 Ti
0.633938 0.861151 0.719867 Ti
0.300605 0.194485 0.752552 Ti
0.300605 0.694485 0.752552 Ti
0.800605 0.194485 0.752552 Ti
0.800605 0.694485 0.752552 Ti
0.133938 0.361151 0.523760 Ti
0.133938 0.861151 0.523760 Ti
0.633938 0.361151 0.523760 Ti
0.633938 0.861151 0.523760 Ti
0.300605 0.194485 0.556444 Ti
0.300605 0.694485 0.556444 Ti
0.800605 0.194485 0.556444 Ti
0.800605 0.694485 0.556444 Ti
0.967272 0.027818 0.589129 Ti
0.967272 0.527818 0.589129 Ti
0.467272 0.027818 0.589129 Ti
0.467272 0.527818 0.589129 Ti
0.133938 0.361151 0.621813 Ti
0.133938 0.861151 0.621813 Ti
0.633938 0.361151 0.621813 Ti
0.633938 0.861151 0.621813 Ti
0.300605 0.194485 0.654498 Ti
0.300605 0.694485 0.654498 Ti
0.800605 0.194485 0.654498 Ti
0.800605 0.694485 0.654498 Ti
0.967272 0.027818 0.687183 Ti
0.967272 0.527818 0.687183 Ti
0.467272 0.027818 0.687183 Ti
0.467272 0.527818 0.687183 Ti
