Optimistic_Structure                    
   1.00000000000000     
     6.3097599999999998    0.0000000000000000    0.0000000000000000
     0.0000000000000000    9.4646399999999993    0.0000000000000000
     0.0000000000000000    0.0000000000000000   18.9183260000000004
   Ti
    67
Selective dynamics
Direct
  0.6250000000000000  0.0855388457078127  0.4663279968070188   T   T   T
  0.1250000000000000  0.0461061940556368  0.6546502926787431   T   T   T
  0.6250000000000000  0.0515827110706608  0.6373927945882304   T   T   T
  0.1250000000000000  0.0416669999999968  0.8171529999999976   F   F   F
  0.6250000000000000  0.0416669999999968  0.8171529999999976   F   F   F
  0.1250000000000000  0.4067052085420162  0.4884722382252488   T   T   T
  0.6250000000000000  0.4003886167014065  0.5042223614653237   T   T   T
  0.1250000000000000  0.3554240595228613  0.6452694299766583   T   T   T
  0.6250000000000000  0.3540291485172851  0.6493451541364256   T   T   T
  0.1250000000000000  0.3750000000000000  0.8171529999999976   F   F   F
  0.6250000000000000  0.3750000000000000  0.8171529999999976   F   F   F
  0.1250000000000000  0.6982241741118697  0.4925266637589548   T   T   T
  0.6250000000000000  0.7196664361946067  0.4958651701108468   T   T   T
  0.1250000000000000  0.7385708533552945  0.6442632976427671   T   T   T
  0.6250000000000000  0.7439228805741073  0.6444338206754330   T   T   T
  0.1250000000000000  0.7083330000000032  0.8171529999999976   F   F   F
  0.6250000000000000  0.7083330000000032  0.8171529999999976   F   F   F
  0.3379677379948323  0.1966597863649446  0.5463099413096107   T   T   T
  0.9120322620051677  0.1966597863649446  0.5463099413096107   T   T   T
  0.3750000000000000  0.2083330000000032  0.7378649999999993   F   F   F
  0.8750000000000000  0.2083330000000032  0.7378649999999993   F   F   F
  0.3750000000000000  0.2083330000000032  0.8964410000000029   F   F   F
  0.8750000000000000  0.2083330000000032  0.8964410000000029   F   F   F
  0.3780412992467838  0.5475817680849884  0.5891858824359939   T   T   T
  0.8719587007532167  0.5475817680849884  0.5891858824359939   T   T   T
  0.3750000000000000  0.5416669999999968  0.7378649999999993   F   F   F
  0.8750000000000000  0.5416669999999968  0.7378649999999993   F   F   F
  0.3750000000000000  0.5416669999999968  0.8964410000000029   F   F   F
  0.8750000000000000  0.5416669999999968  0.8964410000000029   F   F   F
  0.3451354938060656  0.9114441755592588  0.5477924988423688   T   T   T
  0.9048645061939349  0.9114441755592588  0.5477924988423688   T   T   T
  0.3750000000000000  0.8750000000000000  0.7378649999999993   F   F   F
  0.8750000000000000  0.8750000000000000  0.7378649999999993   F   F   F
  0.3750000000000000  0.8750000000000000  0.8964410000000029   F   F   F
  0.8750000000000000  0.8750000000000000  0.8964410000000029   F   F   F
  0.1250000000000000  0.6109315568377601  0.3666059532610086   T   T   T
  0.6250000000000000  0.6005662119383982  0.3679645899214671   T   T   T
  0.1250000000000000  0.6250000000000000  0.1189320000000009   F   F   F
  0.6250000000000000  0.6250000000000000  0.1189320000000009   F   F   F
  0.6250000000000000  0.0809146770564386  0.3467029331399281   T   T   T
  0.1250000000000000  0.1250000000000000  0.1189320000000009   F   F   F
  0.6250000000000000  0.1250000000000000  0.1189320000000009   F   F   F
  0.1250000000000000  0.3750000000000000  0.0396440000000027   F   F   F
  0.6250000000000000  0.3750000000000000  0.0396440000000027   F   F   F
  0.1250000000000000  0.8750000000000000  0.0396440000000027   F   F   F
  0.6250000000000000  0.8750000000000000  0.0396440000000027   F   F   F
  0.1250000000000000  0.3841883415513595  0.2821663214004396   T   T   T
  0.6250000000000000  0.3838077392796170  0.2716445310020308   T   T   T
  0.1250000000000000  0.8877283676750852  0.2837835677532875   T   T   T
  0.6250000000000000  0.8554050227193600  0.2718961739095461   T   T   T
  0.3750000000000000  0.8750000000000000  0.1585759999999965   F   F   F
  0.8750000000000000  0.8750000000000000  0.1585759999999965   F   F   F
  0.3749990000000025  0.3750000000000000  0.1585759999999965   F   F   F
  0.8749990000000025  0.3750000000000000  0.1585759999999965   F   F   F
  0.4068401208334952  0.3239559339806504  0.3885113013732317   T   T   T
  0.8431598791665053  0.3239559339806504  0.3885113013732317   T   T   T
  0.3786768831740693  0.8590988550808363  0.3990783650536333   T   T   T
  0.8713231168259310  0.8590988550808363  0.3990783650536333   T   T   T
  0.3623293327173127  0.6302909179161023  0.2466224502280381   T   T   T
  0.8876706672826875  0.6302909179161023  0.2466224502280381   T   T   T
  0.3750000000000000  0.6250000000000000  0.0000000000000000   F   F   F
  0.8750000000000000  0.6250000000000000  0.0000000000000000   F   F   F
  0.3527581164176283  0.1338301063783587  0.2494311164324165   T   T   T
  0.8972418835823716  0.1338301063783587  0.2494311164324165   T   T   T
  0.3750000000000000  0.1250000000000000  0.0000000000000000   F   F   F
  0.8750000000000000  0.1250000000000000  0.0000000000000000   F   F   F
  0.1250000000000000  0.1027896451177360  0.3982255013889611   T   T   T
