substance_top
1.0
   3.0750000000000002    0.0000000000000000    0.0000000000000002
   0.0000000000000026   16.0000000000000000    0.0000000000000010
   0.0000000000000000    0.0000000000000000   57.0109925000000004
Fe W
54 6
Selective dynamics
direct
   0.3530400000000000    0.0286600000000000    0.4086313968310585 T T T Fe
   0.3478800000000001    0.1409000000000000    0.4516413479382945 T T T Fe
   0.3467900000000000    0.0900100000000000    0.5241933035984245 F F F Fe
   0.3427100000000000    0.2531300000000000    0.4946604113233075 T T T Fe
   0.3457200000000000    0.0391300000000000    0.5967361469807774 F F F Fe
   0.3416299999999999    0.2022400000000000    0.5672123669834375 F F F Fe
   0.3375500000000000    0.3653700000000000    0.5376794747083206 F F F Fe
   0.3489500000000000    0.1917800000000000    0.3790985045559416 T T T Fe
   0.3437799999999999    0.3040200000000000    0.4221175679409545 T T T Fe
   0.3396900000000000    0.4671400000000000    0.3925937879436145 T T T Fe
   0.3386200000000000    0.4162500000000000    0.4651275190481906 T T T Fe
   0.3345300000000000    0.5793800000000000    0.4356037390508506 T T T Fe
   0.3304300000000000    0.7425000000000000    0.4060799590535106 T T T Fe
   0.3334500000000000    0.5284799999999999    0.5081556947109805 F F F Fe
   0.3293600000000000    0.6916099999999999    0.4786228024358636 T T T Fe
   0.3252700000000000    0.8547400000000001    0.4490899101607466 T T T Fe
   0.3405600000000000    0.1513600000000000    0.6397552103657904 F F F Fe
   0.3364600000000000    0.3144800000000000    0.6102223180906735 F F F Fe
   0.3323800000000000    0.4776000000000000    0.5806985380933335 F F F Fe
   0.3272200000000001    0.5898400000000000    0.6237176014783465 F F F Fe
   0.3282900000000000    0.6407200000000000    0.5511656458182166 F F F Fe
   0.3242000000000000    0.8038500000000000    0.5216418658208766 F F F Fe
   0.3200999999999999    0.9669700000000000    0.4921089735457596 T T T Fe
   0.3231200000000000    0.7529500000000000    0.5941847092032295 F F F Fe
   0.3190300000000000    0.9160800000000000    0.5646609292058895 F F F Fe
   0.3179600000000000    0.8652000000000000    0.6372037725882425 F F F Fe
   0.8304500000000001    0.1161200000000000    0.4879719994350212 T T T Fe
   0.8293800000000001    0.0652400000000000    0.5605148428173743 F F F Fe
   0.8252899999999999    0.2283500000000000    0.5309910628200343 F F F Fe
   0.8366900000000000    0.0547800000000000    0.3724100926676553 T T T Fe
   0.8315300000000000    0.1670100000000000    0.4154200437748914 T T T Fe
   0.8274300000000000    0.3301300000000000    0.3858962637775514 T T T Fe
   0.8263600000000000    0.2792400000000000    0.4584391071599043 T T T Fe
   0.8222699999999999    0.4423600000000000    0.4289153271625644 T T T Fe
   0.8181899999999999    0.6054900000000000    0.3993824348874474 T T T Fe
   0.8212000000000000    0.3914800000000000    0.5014581705449174 F F F Fe
   0.8171000000000000    0.5546000000000000    0.4719252782698004 T T T Fe
   0.8130200000000001    0.7177200000000000    0.4424014982724604 T T T Fe
   0.8089300000000000    0.8808500000000000    0.4128686059973434 T T T Fe
   0.8283100000000001    0.0143500000000000    0.6330667984775041 F F F Fe
   0.8242200000000000    0.1774700000000000    0.6035430184801641 F F F Fe
   0.8201200000000000    0.3405900000000000    0.5740010139272701 F F F Fe
   0.8149600000000001    0.4528200000000000    0.6170291895900601 F F F Fe
   0.8160300000000000    0.5037100000000000    0.5444772339299303 F F F Fe
   0.8119400000000000    0.6668300000000000    0.5149534539325904 F F F Fe
   0.8078600000000001    0.8299600000000000    0.4854114493796965 T T T Fe
   0.8030800000000000    0.0063900000000000    0.4443606379945061 T T T Fe
   0.8108699999999999    0.6159500000000000    0.5874871850371662 F F F Fe
   0.8067699999999999    0.7790700000000000    0.5579634050398263 F F F Fe
   0.8026899999999999    0.9421900000000000    0.5284396250424863 F F F Fe
   0.8057000000000000    0.7281800000000000    0.6305153606999563 F F F Fe
   0.8016100000000000    0.8913000000000000    0.6009824684248393 F F F Fe
   0.3238700000000000    0.9110900000000000    0.3768751087783642 T T T Fe
   0.8118499999999998    0.7695300000000000    0.3698222057789995 T T T Fe
   0.3310199999999999    0.7398700000000000    0.3380476931707512 T T T W
   0.8235800000000000    0.9073300000000000    0.3386764403373613 T T T W
   0.3457900000000000    0.4065500000000000    0.3380476931707512 T T T W
   0.8383500000000002    0.5740100000000000    0.3386764403373613 T T T W
   0.3605600000000000    0.0732200000000000    0.3380476931707512 T T T W
   0.8531199999999999    0.2406800000000000    0.3386764403373613 T T T W
