substance_bottem
1.0
   3.5062000000000002    0.0000000000000000    0.0000000000000002
   0.0000000000000019   12.0001999999999995    0.0000000000000007
   0.0000000000000000    0.0000000000000000   33.3249410619999935
Cr N
20 20
Selective dynamics
direct
   0.1485400000000000    0.0029600000000000    0.3382085010752480 T T T Cr
   0.6485400000000000    0.3779600000000000    0.2704363359632939 T T T Cr
   0.6485400000000000    0.1279600000000000    0.2704363359632939 T T T Cr
   0.1485400000000000    0.2529600000000000    0.3382085010752480 T T T Cr
   0.1485400000000000    0.0029600000000000    0.2026554731915463 F F F Cr
   0.6485400000000000    0.3779600000000000    0.1348746104197986 F F F Cr
   0.6485400000000000    0.1279600000000000    0.1348746104197986 F F F Cr
   0.1485400000000000    0.2529600000000000    0.2026554731915463 F F F Cr
   0.1485400000000000    0.5029600000000000    0.3382085010752480 T T T Cr
   0.6485400000000000    0.8779600000000000    0.2704363359632939 T T T Cr
   0.6485400000000000    0.6279599999999999    0.2704363359632939 T T T Cr
   0.1485400000000000    0.7529599999999999    0.3382085010752480 T T T Cr
   0.1485400000000000    0.5029600000000000    0.2026554731915463 F F F Cr
   0.6485400000000000    0.8779600000000000    0.1348746104197986 F F F Cr
   0.6485400000000000    0.6279599999999999    0.1348746104197986 F F F Cr
   0.1485400000000000    0.7529599999999999    0.2026554731915463 F F F Cr
   0.1320800000000000    0.0046100000000000    0.0671981195655745 F F F Cr
   0.1320800000000000    0.2546100000000000    0.0671981195655745 F F F Cr
   0.1320800000000000    0.5046100000000000    0.0671981195655745 F F F Cr
   0.1320800000000000    0.7546100000000000    0.0671981195655745 F F F Cr
   0.6485400000000000    0.3779600000000000    0.3382085010752480 T T T N
   0.1485400000000000    0.0029600000000000    0.2704363359632939 T T T N
   0.1485400000000000    0.2529600000000000    0.2704363359632939 T T T N
   0.6485400000000000    0.1279600000000000    0.3382085010752480 T T T N
   0.6485400000000000    0.3779600000000000    0.2026554731915463 F F F N
   0.1485400000000000    0.0029600000000000    0.1348746104197986 F F F N
   0.1485400000000000    0.2529600000000000    0.1348746104197986 F F F N
   0.6485400000000000    0.1279600000000000    0.2026554731915463 F F F N
   0.6485400000000000    0.8779600000000000    0.3382085010752480 T T T N
   0.1485400000000000    0.5029600000000000    0.2704363359632939 T T T N
   0.1485400000000000    0.7529599999999999    0.2704363359632939 T T T N
   0.6485400000000000    0.6279599999999999    0.3382085010752480 T T T N
   0.6485400000000000    0.8779600000000000    0.2026554731915463 F F F N
   0.1485400000000000    0.5029600000000000    0.1348746104197986 F F F N
   0.1485400000000000    0.7529599999999999    0.1348746104197986 F F F N
   0.6485400000000000    0.6279599999999999    0.2026554731915463 F F F N
   0.6320800000000000    0.3796100000000000    0.0671981195655745 F F F N
   0.6320800000000000    0.1296100000000000    0.0671981195655745 F F F N
   0.6320800000000000    0.8796100000000000    0.0671981195655745 F F F N
   0.6320800000000000    0.6296100000000000    0.0671981195655745 F F F N
