substance_top
1.0
   3.5062000000000002    0.0000000000000000    0.0000000000000002
   0.0000000000000019   12.0001999999999995    0.0000000000000007
   0.0000000000000000    0.0000000000000000   33.3249410619999935
Fe
36
Selective dynamics
direct
   0.1415300000000000    0.7221700000000000    0.8264208034985542 F F F Fe
   0.6415299999999999    0.5580400000000000    0.8151921247049798 F F F Fe
   0.6415299999999999    0.7428899999999999    0.7808189732005595 F F F Fe
   0.1415300000000000    0.5787500000000000    0.7695902944069850 F F F Fe
   0.1415300000000000    0.3939000000000000    0.8039547482516115 F F F Fe
   0.6415300000000000    0.2297700000000000    0.7927260694580370 F F F Fe
   0.6415300000000000    0.4146200000000000    0.7583529179536168 F F F Fe
   0.1415300000000000    0.2504800000000000    0.7471242391600423 F F F Fe
   0.1415300000000000    0.0656300000000000    0.7814886930046689 F F F Fe
   0.6415300000000000    0.9015000000000000    0.7702600142110944 F F F Fe
   0.6415300000000000    0.0863500000000000    0.7358868627066742 F F F Fe
   0.1415300000000000    0.9222099999999999    0.7246581839130997 F F F Fe
   0.1415300000000000    0.7635999999999999    0.7352258405623585 F F F Fe
   0.6415300000000000    0.5994699999999999    0.7239884641089903 F F F Fe
   0.6415299999999999    0.7843100000000000    0.6896240102643637 F F F Fe
   0.1415300000000000    0.6201800000000000    0.6783866338109955 F F F Fe
   0.1415300000000000    0.4353300000000000    0.7127597853154157 F F F Fe
   0.6415300000000000    0.2712000000000000    0.7015224088620476 F F F Fe
   0.6415300000000000    0.4560500000000000    0.6671579550174210 F F F Fe
   0.1415300000000000    0.2919100000000000    0.6559205785640529 F F F Fe
   0.1415300000000000    0.1070600000000000    0.6902937300684732 F F F Fe
   0.6415299999999999    0.9429300000000000    0.6790563536151050 F F F Fe
   0.6415300000000000    0.1277800000000000    0.6446918997704784 T T T Fe
   0.1415300000000000    0.9636399999999999    0.6334545233171103 T T T Fe
   0.1415300000000000    0.8050300000000000    0.6440221799663690 T T T Fe
   0.6415300000000000    0.6408900000000000    0.6327935011727944 T T T Fe
   0.6415300000000000    0.8257400000000000    0.5984203496683743 T T T Fe
   0.1415300000000000    0.6616100000000000    0.5871916708747996 T T T Fe
   0.1415300000000000    0.4767600000000000    0.6215561247194263 T T T Fe
   0.6415299999999999    0.3126200000000000    0.6103274459258519 T T T Fe
   0.6415300000000000    0.4974700000000000    0.5759542944214316 T T T Fe
   0.1415300000000000    0.3333333333333333    0.5647256156278571 T T T Fe
   0.1415300000000000    0.1484900000000000    0.5990900694724837 T T T Fe
   0.6415299999999999    0.9843499999999999    0.5878613906789092 T T T Fe
   0.6415300000000000    0.1692000000000000    0.5534882391744890 T T T Fe
   0.1415300000000000    0.0050700000000000    0.5422595603809145 T T T Fe
