total_structure
1.0
   3.5062000000000002    0.0000000000000000    0.0000000000000002
   0.0000000000000019   12.0001999999999995    0.0000000000000007
   0.0000000000000000    0.0000000000000000   33.3249410619999935
Cr Fe N
24 36 24
Selective dynamics
direct
   0.1440500000000000    0.0017200000000000    0.3532032665594637 T T T Cr
   0.6440500000000000    0.3767200000000000    0.2854224037877160 T T T Cr
   0.6440500000000000    0.1267200000000000    0.2854224037877160 T T T Cr
   0.1440500000000000    0.2517200000000000    0.3532032665594637 T T T Cr
   0.1440500000000000    0.0017200000000000    0.2176415410159684 T T T Cr
   0.6440500000000000    0.3767200000000000    0.1498693759040143 F F F Cr
   0.6440500000000000    0.1267200000000000    0.1498693759040143 F F F Cr
   0.1440500000000000    0.2517200000000000    0.2176415410159684 T T T Cr
   0.1440500000000000    0.5017199999999999    0.3532032665594637 T T T Cr
   0.6440500000000000    0.8767200000000001    0.2854224037877160 T T T Cr
   0.6440500000000000    0.6267199999999999    0.2854224037877160 T T T Cr
   0.1440500000000000    0.7517199999999999    0.3532032665594637 T T T Cr
   0.1440500000000000    0.5017199999999999    0.2176415410159684 T T T Cr
   0.6440500000000000    0.8767200000000001    0.1498693759040143 F F F Cr
   0.6440500000000000    0.6267199999999999    0.1498693759040143 F F F Cr
   0.1440500000000000    0.7517199999999999    0.2176415410159684 T T T Cr
   0.1275900000000000    0.0033700000000000    0.0821928850497902 F F F Cr
   0.6275900000000000    0.3783700000000000    0.0144120222780426 F F F Cr
   0.6275900000000000    0.1283700000000000    0.0144120222780426 F F F Cr
   0.1275900000000000    0.2533700000000000    0.0821928850497902 F F F Cr
   0.1275900000000000    0.5033700000000000    0.0821928850497902 F F F Cr
   0.6275900000000000    0.8783700000000000    0.0144120222780426 F F F Cr
   0.6275900000000000    0.6283700000000000    0.0144120222780426 F F F Cr
   0.1275900000000000    0.7533699999999999    0.0821928850497902 F F F Cr
   0.1373800000000000    0.7201700000000000    0.8264121058387607 F F F Fe
   0.6373799999999998    0.5560300000000000    0.8151747293853925 F F F Fe
   0.6373799999999998    0.7408799999999999    0.7808102755407660 F F F Fe
   0.1373800000000000    0.5767400000000000    0.7695815967471914 F F F Fe
   0.1373800000000000    0.3919000000000000    0.8039460505918180 F F F Fe
   0.6373799999999999    0.2277600000000000    0.7927086741384498 F F F Fe
   0.6373799999999999    0.4126100000000000    0.7583442202938232 F F F Fe
   0.1373800000000000    0.2484800000000000    0.7471155415002488 F F F Fe
   0.1373800000000000    0.0636300000000000    0.7814799953448752 F F F Fe
   0.6373799999999999    0.8994900000000000    0.7702426188915072 F F F Fe
   0.6373799999999999    0.0843400000000000    0.7358781650468805 F F F Fe
   0.1373800000000000    0.9202099999999999    0.7246494862533061 F F F Fe
   0.1373800000000000    0.7615900000000000    0.7352084452427712 F F F Fe
   0.6373799999999999    0.5974600000000000    0.7239797664491967 F F F Fe
   0.6373799999999998    0.7823099999999999    0.6896153126045701 F F F Fe
   0.1373800000000000    0.6181700000000000    0.6783779361512020 F F F Fe
   0.1373800000000000    0.4333199999999999    0.7127423899958285 F F F Fe
   0.6373799999999999    0.2691900000000000    0.7015137112022539 F F F Fe
   0.6373799999999999    0.4540399999999999    0.6671492573576275 F F F Fe
   0.1373800000000000    0.2899000000000000    0.6559118809042592 F F F Fe
   0.1373800000000000    0.1050500000000000    0.6902763347488858 F F F Fe
   0.6373799999999998    0.9409200000000000    0.6790476559553114 F F F Fe
   0.6373799999999999    0.1257700000000000    0.6446832021106847 F F F Fe
   0.1373800000000000    0.9616299999999999    0.6334458256573166 T T T Fe
   0.1373800000000000    0.8030199999999998    0.6440134823065754 F F F Fe
   0.6373799999999999    0.6388900000000000    0.6327761058532072 T T T Fe
   0.6373799999999999    0.8237400000000000    0.5984116520085807 T T T Fe
   0.1373800000000000    0.6595999999999999    0.5871829732150061 T T T Fe
   0.1373800000000000    0.4747499999999999    0.6215474270596327 T T T Fe
   0.6373799999999998    0.3106200000000000    0.6103100506062645 T T T Fe
   0.6373799999999999    0.4954700000000000    0.5759455967616379 T T T Fe
   0.1373800000000000    0.3313300000000000    0.5647169179680634 T T T Fe
   0.1373800000000000    0.1464800000000000    0.5990813718126901 T T T Fe
   0.6373799999999998    0.9823499999999998    0.5878439953593219 T T T Fe
   0.6373799999999999    0.1672000000000000    0.5534795415146953 T T T Fe
   0.1373800000000000    0.0030600000000000    0.5422508627211208 T T T Fe
   0.6440500000000000    0.3767200000000000    0.3532032665594637 T T T N
   0.1440500000000000    0.0017200000000000    0.2854224037877160 T T T N
   0.1440500000000000    0.2517200000000000    0.2854224037877160 T T T N
   0.6440500000000000    0.1267200000000000    0.3532032665594637 T T T N
   0.6440500000000000    0.3767200000000000    0.2176415410159684 T T T N
   0.1440500000000000    0.0017200000000000    0.1498693759040143 F F F N
   0.1440500000000000    0.2517200000000000    0.1498693759040143 F F F N
   0.6440500000000000    0.1267200000000000    0.2176415410159684 T T T N
   0.6440500000000000    0.8767200000000001    0.3532032665594637 T T T N
   0.1440500000000000    0.5017199999999999    0.2854224037877160 T T T N
   0.1440500000000000    0.7517199999999999    0.2854224037877160 T T T N
   0.6440500000000000    0.6267199999999999    0.3532032665594637 T T T N
   0.6440500000000000    0.8767200000000001    0.2176415410159684 T T T N
   0.1440500000000000    0.5017199999999999    0.1498693759040143 F F F N
   0.1440500000000000    0.7517199999999999    0.1498693759040143 F F F N
   0.6440500000000000    0.6267199999999999    0.2176415410159684 T T T N
   0.6275900000000000    0.3783700000000000    0.0821928850497902 F F F N
   0.1275900000000000    0.0033700000000000    0.0144120222780426 F F F N
   0.1275900000000000    0.2533700000000000    0.0144120222780426 F F F N
   0.6275900000000000    0.1283700000000000    0.0821928850497902 F F F N
   0.6275900000000000    0.8783700000000000    0.0821928850497902 F F F N
   0.1275900000000000    0.5033700000000000    0.0144120222780426 F F F N
   0.1275900000000000    0.7533699999999999    0.0144120222780426 F F F N
   0.6275900000000000    0.6283700000000000    0.0821928850497902 F F F N
