Ti66 Sn1
1.0
6.309760 0.000000 0.000000
0.000000 9.464640 0.000000
0.000000 0.000000 18.918326
Ti Sn
66 1
Selective dynamics
direct
0.125091 0.042251 0.500050 F F F Ti
0.625372 0.042109 0.499946 F F F Ti
0.125056 0.041814 0.658599 F F F Ti
0.625046 0.041796 0.658600 F F F Ti
0.125030 0.041705 0.817075 F F F Ti
0.624974 0.041699 0.817081 F F F Ti
0.125173 0.376375 0.500456 F F F Ti
0.625201 0.375473 0.501100 F F F Ti
0.124974 0.375249 0.658679 F F F Ti
0.625008 0.375206 0.658755 F F F Ti
0.124994 0.375084 0.817096 F F F Ti
0.624950 0.375084 0.817112 F F F Ti
0.125085 0.709881 0.499813 F F F Ti
0.624366 0.709544 0.500030 F F F Ti
0.124995 0.708753 0.658549 F F F Ti
0.624878 0.708732 0.658610 F F F Ti
0.124999 0.708421 0.817078 F F F Ti
0.624942 0.708412 0.817094 F F F Ti
0.374967 0.208528 0.579395 F F F Ti
0.875175 0.208549 0.579464 F F F Ti
0.375005 0.208402 0.737865 F F F Ti
0.875006 0.208401 0.737879 F F F Ti
0.375005 0.208405 0.896297 F F F Ti
0.875019 0.208409 0.896280 F F F Ti
0.374990 0.542385 0.579493 F F F Ti
0.875000 0.542497 0.579517 F F F Ti
0.374980 0.541841 0.737887 F F F Ti
0.874982 0.541858 0.737894 F F F Ti
0.374981 0.541701 0.896364 F F F Ti
0.875009 0.541709 0.896351 F F F Ti
0.375031 0.875477 0.579298 F F F Ti
0.874968 0.875373 0.579317 F F F Ti
0.374990 0.875115 0.737854 F F F Ti
0.874982 0.875104 0.737858 F F F Ti
0.375004 0.874964 0.896322 F F F Ti
0.875026 0.874958 0.896307 F F F Ti
0.125385 0.625778 0.356749 F F F Ti
0.625135 0.626708 0.356564 F F F Ti
0.125182 0.624738 0.118824 F F F Ti
0.625001 0.624834 0.118794 F F F Ti
0.629444 0.125646 0.356615 F F F Ti
0.125246 0.124764 0.118492 F F F Ti
0.624987 0.124875 0.117777 F F F Ti
0.125096 0.374991 0.039508 F F F Ti
0.624950 0.375167 0.039401 F F F Ti
0.125057 0.874758 0.039371 F F F Ti
0.625015 0.874645 0.039264 F F F Ti
0.626785 0.375361 0.277361 F F F Ti
0.125210 0.874332 0.276919 F F F Ti
0.625484 0.874471 0.277318 F F F Ti
0.375403 0.874268 0.158142 F F F Ti
0.874804 0.874059 0.158030 F F F Ti
0.375220 0.374872 0.158497 F F F Ti
0.875000 0.375193 0.158208 F F F Ti
0.381843 0.380010 0.397731 F F F Ti
0.867614 0.381707 0.398121 F F F Ti
0.375124 0.875981 0.396204 F F F Ti
0.875205 0.875155 0.396326 F F F Ti
0.375079 0.624679 0.237787 F F F Ti
0.875294 0.624858 0.237732 F F F Ti
0.374970 0.624907 -0.000097 F F F Ti
0.875062 0.624916 -0.000109 F F F Ti
0.381928 0.123213 0.235968 F F F Ti
0.867403 0.122884 0.235111 F F F Ti
0.374911 0.124943 -0.000282 F F F Ti
0.875200 0.124945 -0.000301 F F F Ti
0.116707 0.191233 0.341628 T T T Sn

0.000000 0.000000 0.000000
0.000000 0.000000 0.000000
0.000000 0.000000 0.000000
0.000000 0.000000 0.000000
0.000000 0.000000 0.000000
0.000000 0.000000 0.000000
0.000000 0.000000 0.000000
0.000000 0.000000 0.000000
0.000000 0.000000 0.000000
0.000000 0.000000 0.000000
0.000000 0.000000 0.000000
0.000000 0.000000 0.000000
0.000000 0.000000 0.000000
0.000000 0.000000 0.000000
0.000000 0.000000 0.000000
0.000000 0.000000 0.000000
0.000000 0.000000 0.000000
0.000000 0.000000 0.000000
0.000000 0.000000 0.000000
0.000000 0.000000 0.000000
0.000000 0.000000 0.000000
0.000000 0.000000 0.000000
0.000000 0.000000 0.000000
0.000000 0.000000 0.000000
0.000000 0.000000 0.000000
0.000000 0.000000 0.000000
0.000000 0.000000 0.000000
0.000000 0.000000 0.000000
0.000000 0.000000 0.000000
0.000000 0.000000 0.000000
0.000000 0.000000 0.000000
0.000000 0.000000 0.000000
0.000000 0.000000 0.000000
0.000000 0.000000 0.000000
0.000000 0.000000 0.000000
0.000000 0.000000 0.000000
0.000000 0.000000 0.000000
0.000000 0.000000 0.000000
0.000000 0.000000 0.000000
0.000000 0.000000 0.000000
0.000000 0.000000 0.000000
0.000000 0.000000 0.000000
0.000000 0.000000 0.000000
0.000000 0.000000 0.000000
0.000000 0.000000 0.000000
0.000000 0.000000 0.000000
0.000000 0.000000 0.000000
0.000000 0.000000 0.000000
0.000000 0.000000 0.000000
0.000000 0.000000 0.000000
0.000000 0.000000 0.000000
0.000000 0.000000 0.000000
0.000000 0.000000 0.000000
0.000000 0.000000 0.000000
0.000000 0.000000 0.000000
0.000000 0.000000 0.000000
0.000000 0.000000 0.000000
0.000000 0.000000 0.000000
0.000000 0.000000 0.000000
0.000000 0.000000 0.000000
0.000000 0.000000 0.000000
0.000000 0.000000 0.000000
0.000000 0.000000 0.000000
0.000000 0.000000 0.000000
0.000000 0.000000 0.000000
0.000000 0.000000 0.000000
0.000000 0.000000 0.000000
