Ti66 Sn1
1.0
6.309760 0.000000 0.000000
0.000000 9.464640 0.000000
0.000000 0.000000 18.918326
Ti Sn
66 1
Selective dynamics
direct
0.153162 0.006058 0.491970 T T T Ti
0.596598 0.005417 0.492305 T T T Ti
0.146837 0.058276 0.643488 T T T Ti
0.603871 0.057840 0.643850 T T T Ti
0.125446 0.040840 0.817999 F F F Ti
0.624255 0.040860 0.818021 F F F Ti
0.162712 0.316262 0.507121 T T T Ti
0.586830 0.314615 0.512852 T T T Ti
0.130199 0.375643 0.654827 T T T Ti
0.621009 0.376217 0.655674 T T T Ti
0.124716 0.374719 0.817907 F F F Ti
0.625085 0.374714 0.817985 F F F Ti
0.118971 0.689314 0.487974 T T T Ti
0.633108 0.690472 0.488315 T T T Ti
0.103205 0.685204 0.647668 T T T Ti
0.648071 0.685369 0.647816 T T T Ti
0.124755 0.707678 0.817933 F F F Ti
0.625044 0.707700 0.817917 F F F Ti
0.875776 0.190299 0.542306 T T T Ti
0.374917 0.209847 0.739290 F F F Ti
0.875590 0.208228 0.738992 F F F Ti
0.374584 0.206659 0.897254 F F F Ti
0.874619 0.206422 0.897069 F F F Ti
0.375522 0.526029 0.562002 T T T Ti
0.876112 0.497659 0.554461 T T T Ti
0.374905 0.542347 0.738680 F F F Ti
0.875444 0.542948 0.738747 F F F Ti
0.374757 0.539966 0.896960 F F F Ti
0.874562 0.540021 0.896954 F F F Ti
0.376050 0.838986 0.580848 T T T Ti
0.876279 0.879313 0.575153 T T T Ti
0.375015 0.873704 0.739038 F F F Ti
0.875158 0.875008 0.738466 F F F Ti
0.374714 0.872592 0.897224 F F F Ti
0.874641 0.872782 0.897026 F F F Ti
0.107359 0.626195 0.360670 T T T Ti
0.642299 0.628473 0.360437 T T T Ti
0.124259 0.614633 0.119403 F F F Ti
0.624246 0.614590 0.119380 F F F Ti
0.128324 0.122963 0.370178 T T T Ti
0.620671 0.120290 0.370104 T T T Ti
0.123731 0.114253 0.118606 F F F Ti
0.624211 0.114315 0.118446 F F F Ti
0.124342 0.367865 0.039646 F F F Ti
0.624350 0.367866 0.039681 F F F Ti
0.124223 0.867407 0.040055 F F F Ti
0.624036 0.867419 0.040026 F F F Ti
0.114503 0.365594 0.280865 T T T Ti
0.633461 0.365975 0.279896 T T T Ti
0.107176 0.870766 0.276641 T T T Ti
0.640400 0.870431 0.276481 T T T Ti
0.373955 0.862328 0.158858 F F F Ti
0.873873 0.862055 0.158538 F F F Ti
0.374011 0.362362 0.158136 F F F Ti
0.875202 0.362871 0.157642 F F F Ti
0.865941 0.383342 0.412527 T T T Ti
0.373725 0.857231 0.387815 T T T Ti
0.874601 0.877626 0.402248 T T T Ti
0.373828 0.625764 0.247869 T T T Ti
0.874102 0.606858 0.242125 T T T Ti
0.374346 0.619071 0.000852 F F F Ti
0.874117 0.619310 0.000765 F F F Ti
0.373983 0.116591 0.246258 T T T Ti
0.871988 0.119875 0.247908 T T T Ti
0.373960 0.119029 0.000245 F F F Ti
0.874151 0.118945 0.000052 F F F Ti
0.403108 0.337808 0.417031 T T T Sn

0.000000 0.000000 0.000000
0.000000 0.000000 0.000000
0.000000 0.000000 0.000000
0.000000 0.000000 0.000000
0.000000 0.000000 0.000000
0.000000 0.000000 0.000000
0.000000 0.000000 0.000000
0.000000 0.000000 0.000000
0.000000 0.000000 0.000000
0.000000 0.000000 0.000000
0.000000 0.000000 0.000000
0.000000 0.000000 0.000000
0.000000 0.000000 0.000000
0.000000 0.000000 0.000000
0.000000 0.000000 0.000000
0.000000 0.000000 0.000000
0.000000 0.000000 0.000000
0.000000 0.000000 0.000000
0.000000 0.000000 0.000000
0.000000 0.000000 0.000000
0.000000 0.000000 0.000000
0.000000 0.000000 0.000000
0.000000 0.000000 0.000000
0.000000 0.000000 0.000000
0.000000 0.000000 0.000000
0.000000 0.000000 0.000000
0.000000 0.000000 0.000000
0.000000 0.000000 0.000000
0.000000 0.000000 0.000000
0.000000 0.000000 0.000000
0.000000 0.000000 0.000000
0.000000 0.000000 0.000000
0.000000 0.000000 0.000000
0.000000 0.000000 0.000000
0.000000 0.000000 0.000000
0.000000 0.000000 0.000000
0.000000 0.000000 0.000000
0.000000 0.000000 0.000000
0.000000 0.000000 0.000000
0.000000 0.000000 0.000000
0.000000 0.000000 0.000000
0.000000 0.000000 0.000000
0.000000 0.000000 0.000000
0.000000 0.000000 0.000000
0.000000 0.000000 0.000000
0.000000 0.000000 0.000000
0.000000 0.000000 0.000000
0.000000 0.000000 0.000000
0.000000 0.000000 0.000000
0.000000 0.000000 0.000000
0.000000 0.000000 0.000000
0.000000 0.000000 0.000000
0.000000 0.000000 0.000000
0.000000 0.000000 0.000000
0.000000 0.000000 0.000000
0.000000 0.000000 0.000000
0.000000 0.000000 0.000000
0.000000 0.000000 0.000000
0.000000 0.000000 0.000000
0.000000 0.000000 0.000000
0.000000 0.000000 0.000000
0.000000 0.000000 0.000000
0.000000 0.000000 0.000000
0.000000 0.000000 0.000000
0.000000 0.000000 0.000000
0.000000 0.000000 0.000000
0.000000 0.000000 0.000000
