Ti66 Sn1
1.0
6.309760 0.000000 0.000000
0.000000 9.464640 0.000000
0.000000 0.000000 18.918326
Ti Sn
66 1
Selective dynamics
direct
0.124931 0.041497 0.500309 F F F Ti
0.625014 0.041667 0.500125 F F F Ti
0.124996 0.041669 0.658673 F F F Ti
0.624960 0.041674 0.658656 F F F Ti
0.125017 0.041696 0.817206 F F F Ti
0.624969 0.041691 0.817198 F F F Ti
0.124574 0.374994 0.500168 F F F Ti
0.623774 0.374986 0.500297 F F F Ti
0.124959 0.375008 0.658647 F F F Ti
0.624903 0.375009 0.658654 F F F Ti
0.125018 0.375008 0.817220 F F F Ti
0.624953 0.375007 0.817209 F F F Ti
0.124920 0.708538 0.500274 F F F Ti
0.624976 0.708362 0.500106 F F F Ti
0.124984 0.708345 0.658668 F F F Ti
0.624951 0.708335 0.658652 F F F Ti
0.125014 0.708310 0.817208 F F F Ti
0.624965 0.708314 0.817199 F F F Ti
0.374872 0.208300 0.579358 F F F Ti
0.874829 0.208313 0.579423 F F F Ti
0.374992 0.208342 0.737905 F F F Ti
0.874976 0.208343 0.737920 F F F Ti
0.375012 0.208343 0.896440 F F F Ti
0.875009 0.208341 0.896434 F F F Ti
0.374863 0.541712 0.579347 F F F Ti
0.874834 0.541702 0.579411 F F F Ti
0.374990 0.541662 0.737902 F F F Ti
0.874978 0.541663 0.737919 F F F Ti
0.375011 0.541662 0.896443 F F F Ti
0.875006 0.541664 0.896439 F F F Ti
0.375110 0.875001 0.579402 F F F Ti
0.874842 0.875017 0.579434 F F F Ti
0.375008 0.875001 0.737918 F F F Ti
0.874975 0.875005 0.737927 F F F Ti
0.375009 0.875003 0.896434 F F F Ti
0.875001 0.875002 0.896430 F F F Ti
0.123003 0.628812 0.357414 F F F Ti
0.625511 0.625396 0.356792 F F F Ti
0.125230 0.625081 0.118887 F F F Ti
0.625490 0.625107 0.118765 F F F Ti
0.122962 0.120978 0.357528 F F F Ti
0.625737 0.124631 0.356816 F F F Ti
0.125215 0.124944 0.118863 F F F Ti
0.625569 0.124930 0.118740 F F F Ti
0.125174 0.375009 0.039606 F F F Ti
0.625382 0.375008 0.039526 F F F Ti
0.124991 0.875021 0.039573 F F F Ti
0.625098 0.875019 0.039533 F F F Ti
0.631404 0.374984 0.277010 F F F Ti
0.124983 0.875205 0.277351 F F F Ti
0.625220 0.875100 0.277489 F F F Ti
0.375189 0.875079 0.158372 F F F Ti
0.874961 0.875016 0.158456 F F F Ti
0.376442 0.374999 0.158244 F F F Ti
0.875909 0.375010 0.158437 F F F Ti
0.870434 0.375037 0.397563 F F F Ti
0.375665 0.875178 0.396590 F F F Ti
0.874053 0.875081 0.396655 F F F Ti
0.376714 0.626590 0.237565 F F F Ti
0.875079 0.625617 0.237740 F F F Ti
0.375049 0.625022 -0.000030 F F F Ti
0.875121 0.625018 -0.000035 F F F Ti
0.376807 0.123376 0.237554 F F F Ti
0.875040 0.124398 0.237738 F F F Ti
0.375064 0.124995 -0.000035 F F F Ti
0.875126 0.124995 -0.000041 F F F Ti
0.199214 0.374182 0.306954 T T T Sn

0.000000 0.000000 0.000000
0.000000 0.000000 0.000000
0.000000 0.000000 0.000000
0.000000 0.000000 0.000000
0.000000 0.000000 0.000000
0.000000 0.000000 0.000000
0.000000 0.000000 0.000000
0.000000 0.000000 0.000000
0.000000 0.000000 0.000000
0.000000 0.000000 0.000000
0.000000 0.000000 0.000000
0.000000 0.000000 0.000000
0.000000 0.000000 0.000000
0.000000 0.000000 0.000000
0.000000 0.000000 0.000000
0.000000 0.000000 0.000000
0.000000 0.000000 0.000000
0.000000 0.000000 0.000000
0.000000 0.000000 0.000000
0.000000 0.000000 0.000000
0.000000 0.000000 0.000000
0.000000 0.000000 0.000000
0.000000 0.000000 0.000000
0.000000 0.000000 0.000000
0.000000 0.000000 0.000000
0.000000 0.000000 0.000000
0.000000 0.000000 0.000000
0.000000 0.000000 0.000000
0.000000 0.000000 0.000000
0.000000 0.000000 0.000000
0.000000 0.000000 0.000000
0.000000 0.000000 0.000000
0.000000 0.000000 0.000000
0.000000 0.000000 0.000000
0.000000 0.000000 0.000000
0.000000 0.000000 0.000000
0.000000 0.000000 0.000000
0.000000 0.000000 0.000000
0.000000 0.000000 0.000000
0.000000 0.000000 0.000000
0.000000 0.000000 0.000000
0.000000 0.000000 0.000000
0.000000 0.000000 0.000000
0.000000 0.000000 0.000000
0.000000 0.000000 0.000000
0.000000 0.000000 0.000000
0.000000 0.000000 0.000000
0.000000 0.000000 0.000000
0.000000 0.000000 0.000000
0.000000 0.000000 0.000000
0.000000 0.000000 0.000000
0.000000 0.000000 0.000000
0.000000 0.000000 0.000000
0.000000 0.000000 0.000000
0.000000 0.000000 0.000000
0.000000 0.000000 0.000000
0.000000 0.000000 0.000000
0.000000 0.000000 0.000000
0.000000 0.000000 0.000000
0.000000 0.000000 0.000000
0.000000 0.000000 0.000000
0.000000 0.000000 0.000000
0.000000 0.000000 0.000000
0.000000 0.000000 0.000000
0.000000 0.000000 0.000000
0.000000 0.000000 0.000000
0.000000 0.000000 0.000000
