Ti97
1.0
9.513020 0.000000 0.000000
0.000000 9.350860 0.000000
0.000000 0.000000 18.547230
Ti
97
Selective dynamics
direct
0.149681 0.375009 0.407097 T T T Ti
0.641426 0.336942 0.406105 T T T Ti
0.133473 0.854750 0.391259 T T T Ti
0.667193 0.872930 0.391226 T T T Ti
0.160821 0.371173 0.233959 T T T Ti
0.660994 0.376198 0.234531 T T T Ti
0.163041 0.873817 0.235913 T T T Ti
0.653776 0.869423 0.236893 T T T Ti
0.166666 0.375000 0.077689 F F F Ti
0.666666 0.375000 0.077689 F F F Ti
0.166666 0.875000 0.077689 F F F Ti
0.666666 0.875000 0.077689 F F F Ti
0.404992 0.379277 0.313196 T T T Ti
0.896640 0.371857 0.321874 T T T Ti
0.404526 0.894742 0.330104 T T T Ti
0.912221 0.886708 0.309190 T T T Ti
0.416667 0.375000 0.155379 F F F Ti
0.916667 0.375000 0.155379 F F F Ti
0.416667 0.875000 0.155379 F F F Ti
0.916667 0.875000 0.155379 F F F Ti
0.416667 0.375000 0.000000 F F F Ti
0.916667 0.375000 0.000000 F F F Ti
0.416667 0.875000 0.000000 F F F Ti
0.916667 0.875000 0.000000 F F F Ti
0.103360 0.128143 0.321873 T T T Ti
0.595008 0.120723 0.313195 T T T Ti
0.087779 0.613292 0.309189 T T T Ti
0.595474 0.605258 0.330103 T T T Ti
0.083333 0.125000 0.155379 F F F Ti
0.583333 0.125000 0.155379 F F F Ti
0.083333 0.625000 0.155379 F F F Ti
0.583333 0.625000 0.155379 F F F Ti
0.083333 0.125000 0.000000 F F F Ti
0.583333 0.125000 0.000000 F F F Ti
0.083333 0.625000 0.000000 F F F Ti
0.583333 0.625000 0.000000 F F F Ti
0.358573 0.163058 0.406105 T T T Ti
0.850318 0.124991 0.407097 T T T Ti
0.332806 0.627070 0.391226 T T T Ti
0.866526 0.645250 0.391259 T T T Ti
0.339005 0.123802 0.234531 T T T Ti
0.839178 0.128827 0.233959 T T T Ti
0.346223 0.630577 0.236893 T T T Ti
0.836958 0.626183 0.235913 T T T Ti
0.333333 0.125000 0.077689 F F F Ti
0.833333 0.125000 0.077689 F F F Ti
0.333333 0.625000 0.077689 F F F Ti
0.833333 0.625000 0.077689 F F F Ti
0.375000 0.375000 0.823738 F F F Ti
0.875000 0.375000 0.823738 F F F Ti
0.375000 0.875000 0.823738 F F F Ti
0.875000 0.875000 0.823738 F F F Ti
0.125000 0.125000 0.823738 F F F Ti
0.625000 0.125000 0.823738 F F F Ti
0.125000 0.625000 0.823738 F F F Ti
0.625000 0.625000 0.823738 F F F Ti
0.125000 0.375000 0.910084 F F F Ti
0.625000 0.375000 0.910084 F F F Ti
0.125000 0.875000 0.910084 F F F Ti
0.625000 0.875000 0.910084 F F F Ti
0.375000 0.125000 0.910084 F F F Ti
0.875000 0.125000 0.910084 F F F Ti
0.375000 0.625000 0.910084 F F F Ti
0.875000 0.625000 0.910084 F F F Ti
0.392736 0.384887 0.659846 T T T Ti
0.891481 0.370246 0.646533 T T T Ti
0.393874 0.895257 0.642030 T T T Ti
0.881851 0.884883 0.670265 T T T Ti
0.108519 0.129754 0.646533 T T T Ti
0.607264 0.115113 0.659846 T T T Ti
0.118149 0.615117 0.670265 T T T Ti
0.606126 0.604743 0.642030 T T T Ti
0.150525 0.379659 0.566955 T T T Ti
0.637821 0.335207 0.570154 T T T Ti
0.120898 0.858605 0.586617 T T T Ti
0.658836 0.867074 0.581068 T T T Ti
0.362179 0.164793 0.570154 T T T Ti
0.849475 0.120341 0.566955 T T T Ti
0.341164 0.632926 0.581068 T T T Ti
0.879102 0.641395 0.586617 T T T Ti
0.414083 0.420324 0.487584 T T T Ti
0.899834 0.375710 0.487137 T T T Ti
0.320142 0.926449 0.488916 T T T Ti
0.903995 0.877267 0.487147 T T T Ti
0.100166 0.124290 0.487137 T T T Ti
0.585917 0.079676 0.487584 T T T Ti
0.096005 0.622733 0.487147 T T T Ti
0.679858 0.573551 0.488916 T T T Ti
0.125000 0.875000 0.737395 F F F Ti
0.625000 0.875000 0.737395 F F F Ti
0.375000 0.625000 0.737395 F F F Ti
0.875000 0.625000 0.737395 F F F Ti
0.125000 0.375000 0.737395 F F F Ti
0.625000 0.375000 0.737395 F F F Ti
0.375000 0.125000 0.737395 F F F Ti
0.875000 0.125000 0.737395 F F F Ti
0.500000 0.750000 0.483458 T T T Ti

0.000000 0.000000 0.000000
0.000000 0.000000 0.000000
0.000000 0.000000 0.000000
0.000000 0.000000 0.000000
0.000000 0.000000 0.000000
0.000000 0.000000 0.000000
0.000000 0.000000 0.000000
0.000000 0.000000 0.000000
0.000000 0.000000 0.000000
0.000000 0.000000 0.000000
0.000000 0.000000 0.000000
0.000000 0.000000 0.000000
0.000000 0.000000 0.000000
0.000000 0.000000 0.000000
0.000000 0.000000 0.000000
0.000000 0.000000 0.000000
0.000000 0.000000 0.000000
0.000000 0.000000 0.000000
0.000000 0.000000 0.000000
0.000000 0.000000 0.000000
0.000000 0.000000 0.000000
0.000000 0.000000 0.000000
0.000000 0.000000 0.000000
0.000000 0.000000 0.000000
0.000000 0.000000 0.000000
0.000000 0.000000 0.000000
0.000000 0.000000 0.000000
0.000000 0.000000 0.000000
0.000000 0.000000 0.000000
0.000000 0.000000 0.000000
0.000000 0.000000 0.000000
0.000000 0.000000 0.000000
0.000000 0.000000 0.000000
0.000000 0.000000 0.000000
0.000000 0.000000 0.000000
0.000000 0.000000 0.000000
0.000000 0.000000 0.000000
0.000000 0.000000 0.000000
0.000000 0.000000 0.000000
0.000000 0.000000 0.000000
0.000000 0.000000 0.000000
0.000000 0.000000 0.000000
0.000000 0.000000 0.000000
0.000000 0.000000 0.000000
0.000000 0.000000 0.000000
0.000000 0.000000 0.000000
0.000000 0.000000 0.000000
0.000000 0.000000 0.000000
0.000000 0.000000 0.000000
0.000000 0.000000 0.000000
0.000000 0.000000 0.000000
0.000000 0.000000 0.000000
0.000000 0.000000 0.000000
0.000000 0.000000 0.000000
0.000000 0.000000 0.000000
0.000000 0.000000 0.000000
0.000000 0.000000 0.000000
0.000000 0.000000 0.000000
0.000000 0.000000 0.000000
0.000000 0.000000 0.000000
0.000000 0.000000 0.000000
0.000000 0.000000 0.000000
0.000000 0.000000 0.000000
0.000000 0.000000 0.000000
0.000000 0.000000 0.000000
0.000000 0.000000 0.000000
0.000000 0.000000 0.000000
0.000000 0.000000 0.000000
0.000000 0.000000 0.000000
0.000000 0.000000 0.000000
0.000000 0.000000 0.000000
0.000000 0.000000 0.000000
0.000000 0.000000 0.000000
0.000000 0.000000 0.000000
0.000000 0.000000 0.000000
0.000000 0.000000 0.000000
0.000000 0.000000 0.000000
0.000000 0.000000 0.000000
0.000000 0.000000 0.000000
0.000000 0.000000 0.000000
0.000000 0.000000 0.000000
0.000000 0.000000 0.000000
0.000000 0.000000 0.000000
0.000000 0.000000 0.000000
0.000000 0.000000 0.000000
0.000000 0.000000 0.000000
0.000000 0.000000 0.000000
0.000000 0.000000 0.000000
0.000000 0.000000 0.000000
0.000000 0.000000 0.000000
0.000000 0.000000 0.000000
0.000000 0.000000 0.000000
0.000000 0.000000 0.000000
0.000000 0.000000 0.000000
0.000000 0.000000 0.000000
0.000000 0.000000 0.000000
0.000000 0.000000 0.000000
