Zr1 Ti82
1.0
6.391540 0.000000 0.000000
0.000000 9.587310 0.000000
0.000000 0.000000 23.271695
Ti Zr
82 1
Selective dynamics
direct
0.627047 0.082967 0.580504 F F F Ti
0.124636 0.083112 0.709820 F F F Ti
0.625044 0.083261 0.709543 F F F Ti
0.124990 0.083329 0.838439 F F F Ti
0.624976 0.083331 0.838420 F F F Ti
0.124420 0.417872 0.580493 F F F Ti
0.625020 0.416768 0.580540 F F F Ti
0.124957 0.416727 0.709516 F F F Ti
0.624814 0.416745 0.709522 F F F Ti
0.125003 0.416674 0.838412 F F F Ti
0.624976 0.416678 0.838414 F F F Ti
0.125015 0.750031 0.580575 F F F Ti
0.625145 0.749877 0.580547 F F F Ti
0.124954 0.749908 0.709531 F F F Ti
0.625133 0.749867 0.709547 F F F Ti
0.124994 0.749978 0.838420 F F F Ti
0.624995 0.749975 0.838424 F F F Ti
0.873354 0.250593 0.645281 F F F Ti
0.374992 0.250008 0.773967 F F F Ti
0.874892 0.250054 0.774001 F F F Ti
0.374999 0.250005 0.902864 F F F Ti
0.874987 0.250007 0.902868 F F F Ti
0.375031 0.583356 0.645044 F F F Ti
0.874887 0.583447 0.645064 F F F Ti
0.374982 0.583324 0.773965 F F F Ti
0.874996 0.583322 0.773971 F F F Ti
0.374996 0.583328 0.902863 F F F Ti
0.874999 0.583327 0.902865 F F F Ti
0.375936 0.915699 0.645264 F F F Ti
0.874913 0.916487 0.645110 F F F Ti
0.375063 0.916593 0.774000 F F F Ti
0.874901 0.916591 0.773993 F F F Ti
0.375002 0.916657 0.902868 F F F Ti
0.874986 0.916658 0.902867 F F F Ti
0.124989 0.166683 0.386696 F F F Ti
0.625128 0.166700 0.386684 F F F Ti
0.125010 0.666738 0.386745 F F F Ti
0.624978 0.666703 0.386731 F F F Ti
0.124999 0.166668 0.000007 F F F Ti
0.624996 0.166667 0.000007 F F F Ti
0.124999 0.666670 0.000004 F F F Ti
0.624994 0.666669 0.000005 F F F Ti
0.125000 0.833335 0.096690 F F F Ti
0.624996 0.833334 0.096689 F F F Ti
0.125041 0.833365 0.483417 F F F Ti
0.625130 0.833266 0.483396 F F F Ti
0.125001 0.333332 0.096690 F F F Ti
0.624995 0.333333 0.096689 F F F Ti
0.124891 0.333713 0.483256 F F F Ti
0.625224 0.333423 0.483372 F F F Ti
0.375073 0.583431 0.483390 F F F Ti
0.874923 0.583440 0.483385 F F F Ti
0.374998 0.583330 0.096688 F F F Ti
0.875003 0.583331 0.096688 F F F Ti
0.374998 0.083334 0.096690 F F F Ti
0.875004 0.083334 0.096690 F F F Ti
0.375836 0.083200 0.483082 F F F Ti
0.875084 0.083360 0.483356 F F F Ti
0.375049 0.416711 0.386703 F F F Ti
0.874963 0.416717 0.386701 F F F Ti
0.375024 0.916620 0.386692 F F F Ti
0.875005 0.916669 0.386724 F F F Ti
0.374997 0.416669 0.000006 F F F Ti
0.874997 0.416669 0.000007 F F F Ti
0.374998 0.916666 0.000009 F F F Ti
0.874996 0.916666 0.000009 F F F Ti
0.375006 0.083334 0.290036 F F F Ti
0.874999 0.083330 0.290040 F F F Ti
0.124998 0.166668 0.193365 F F F Ti
0.625002 0.166668 0.193364 F F F Ti
0.124998 0.333345 0.290040 F F F Ti
0.625005 0.333345 0.290036 F F F Ti
0.374999 0.416672 0.193364 F F F Ti
0.874997 0.416672 0.193365 F F F Ti
0.375000 0.583344 0.290044 F F F Ti
0.875004 0.583347 0.290044 F F F Ti
0.124999 0.666670 0.193369 F F F Ti
0.624997 0.666669 0.193367 F F F Ti
0.124992 0.833332 0.290044 F F F Ti
0.625013 0.833328 0.290041 F F F Ti
0.374999 0.916665 0.193365 F F F Ti
0.874997 0.916665 0.193366 F F F Ti
0.210545 0.139942 0.593096 T T T Zr

0.000000 0.000000 0.000000
0.000000 0.000000 0.000000
0.000000 0.000000 0.000000
0.000000 0.000000 0.000000
0.000000 0.000000 0.000000
0.000000 0.000000 0.000000
0.000000 0.000000 0.000000
0.000000 0.000000 0.000000
0.000000 0.000000 0.000000
0.000000 0.000000 0.000000
0.000000 0.000000 0.000000
0.000000 0.000000 0.000000
0.000000 0.000000 0.000000
0.000000 0.000000 0.000000
0.000000 0.000000 0.000000
0.000000 0.000000 0.000000
0.000000 0.000000 0.000000
0.000000 0.000000 0.000000
0.000000 0.000000 0.000000
0.000000 0.000000 0.000000
0.000000 0.000000 0.000000
0.000000 0.000000 0.000000
0.000000 0.000000 0.000000
0.000000 0.000000 0.000000
0.000000 0.000000 0.000000
0.000000 0.000000 0.000000
0.000000 0.000000 0.000000
0.000000 0.000000 0.000000
0.000000 0.000000 0.000000
0.000000 0.000000 0.000000
0.000000 0.000000 0.000000
0.000000 0.000000 0.000000
0.000000 0.000000 0.000000
0.000000 0.000000 0.000000
0.000000 0.000000 0.000000
0.000000 0.000000 0.000000
0.000000 0.000000 0.000000
0.000000 0.000000 0.000000
0.000000 0.000000 0.000000
0.000000 0.000000 0.000000
0.000000 0.000000 0.000000
0.000000 0.000000 0.000000
0.000000 0.000000 0.000000
0.000000 0.000000 0.000000
0.000000 0.000000 0.000000
0.000000 0.000000 0.000000
0.000000 0.000000 0.000000
0.000000 0.000000 0.000000
0.000000 0.000000 0.000000
0.000000 0.000000 0.000000
0.000000 0.000000 0.000000
0.000000 0.000000 0.000000
0.000000 0.000000 0.000000
0.000000 0.000000 0.000000
0.000000 0.000000 0.000000
0.000000 0.000000 0.000000
0.000000 0.000000 0.000000
0.000000 0.000000 0.000000
0.000000 0.000000 0.000000
0.000000 0.000000 0.000000
0.000000 0.000000 0.000000
0.000000 0.000000 0.000000
0.000000 0.000000 0.000000
0.000000 0.000000 0.000000
0.000000 0.000000 0.000000
0.000000 0.000000 0.000000
0.000000 0.000000 0.000000
0.000000 0.000000 0.000000
0.000000 0.000000 0.000000
0.000000 0.000000 0.000000
0.000000 0.000000 0.000000
0.000000 0.000000 0.000000
0.000000 0.000000 0.000000
0.000000 0.000000 0.000000
0.000000 0.000000 0.000000
0.000000 0.000000 0.000000
0.000000 0.000000 0.000000
0.000000 0.000000 0.000000
0.000000 0.000000 0.000000
0.000000 0.000000 0.000000
0.000000 0.000000 0.000000
0.000000 0.000000 0.000000
0.000000 0.000000 0.000000
