substance_top
1.0
   3.5062000000000002    0.0000000000000000    0.0000000000000002
   0.0000000000000019   12.0001999999999995    0.0000000000000007
   0.0000000000000000    0.0000000000000000   28.7349410620000008
Fe
36
Selective dynamics
direct
   0.1415300000000000    0.7221700000000000    0.7986939844240839 F F F Fe
   0.6415299999999999    0.5580400000000000    0.7856716831709644 F F F Fe
   0.6415299999999999    0.7428899999999999    0.7458079073752024 F F F Fe
   0.1415300000000000    0.5787500000000000    0.7327856061220830 F F F Fe
   0.1415300000000000    0.3939000000000000    0.7726392949300421 F F F Fe
   0.6415300000000000    0.2297700000000000    0.7596169936769226 F F F Fe
   0.6415300000000000    0.4146200000000000    0.7197532178811606 F F F Fe
   0.1415300000000000    0.2504800000000000    0.7067309166280412 F F F Fe
   0.1415300000000000    0.0656300000000000    0.7465846054360005 F F F Fe
   0.6415300000000000    0.9015000000000000    0.7335623041828808 F F F Fe
   0.6415300000000000    0.0863500000000000    0.6936985283871191 F F F Fe
   0.1415300000000000    0.9222099999999999    0.6806762271339994 F F F Fe
   0.1415300000000000    0.7635999999999999    0.6929319173141236 F F F Fe
   0.6415300000000000    0.5994699999999999    0.6798995290732015 F F F Fe
   0.6415299999999999    0.7843100000000000    0.6400458402652421 F F F Fe
   0.1415300000000000    0.6201800000000000    0.6270134520243199 F F F Fe
   0.1415300000000000    0.4353300000000000    0.6668772278200819 F F F Fe
   0.6415300000000000    0.2712000000000000    0.6538448395791597 F F F Fe
   0.6415300000000000    0.4560500000000000    0.6139911507712004 F F F Fe
   0.1415300000000000    0.2919100000000000    0.6009587625302782 F F F Fe
   0.1415300000000000    0.1070600000000000    0.6408225383260402 F F F Fe
   0.6415299999999999    0.9429300000000000    0.6277901500851180 F F F Fe
   0.6415300000000000    0.1277800000000000    0.5879364612771586 T T T Fe
   0.1415300000000000    0.9636399999999999    0.5749040730362365 T T T Fe
   0.1415300000000000    0.8050300000000000    0.5871597632163608 T T T Fe
   0.6415300000000000    0.6408900000000000    0.5741374619632411 T T T Fe
   0.6415300000000000    0.8257400000000000    0.5342736861674793 T T T Fe
   0.1415300000000000    0.6616100000000000    0.5212513849143596 T T T Fe
   0.1415300000000000    0.4767600000000000    0.5611050737223190 T T T Fe
   0.6415299999999999    0.3126200000000000    0.5480827724691993 T T T Fe
   0.6415300000000000    0.4974700000000000    0.5082189966734375 T T T Fe
   0.1415300000000000    0.3333333333333333    0.4951966954203179 T T T Fe
   0.1415300000000000    0.1484900000000000    0.5350503842282772 T T T Fe
   0.6415299999999999    0.9843499999999999    0.5220280829751576 T T T Fe
   0.6415300000000000    0.1692000000000000    0.4821643071793957 T T T Fe
   0.1415300000000000    0.0050700000000000    0.4691420059262761 T T T Fe
