Ti67
1.0
6.309760 0.000000 0.000000
0.000000 9.464640 0.000000
0.000000 0.000000 18.918326
Ti
67
Selective dynamics
direct
0.124245 0.040943 0.500623 F F F Ti
0.625916 0.040892 0.500290 F F F Ti
0.124850 0.041240 0.658850 F F F Ti
0.624781 0.041213 0.658815 F F F Ti
0.124963 0.041525 0.817250 F F F Ti
0.624955 0.041524 0.817244 F F F Ti
0.116004 0.375878 0.502909 F F F Ti
0.627525 0.375041 0.501291 F F F Ti
0.124434 0.374953 0.659153 F F F Ti
0.624578 0.374926 0.659069 F F F Ti
0.124903 0.375009 0.817291 F F F Ti
0.624877 0.375004 0.817297 F F F Ti
0.125674 0.707119 0.499784 F F F Ti
0.623649 0.707514 0.499714 F F F Ti
0.125050 0.708314 0.658684 F F F Ti
0.624380 0.708453 0.658691 F F F Ti
0.124959 0.708386 0.817221 F F F Ti
0.624864 0.708410 0.817222 F F F Ti
0.374696 0.207990 0.579878 F F F Ti
0.873715 0.207395 0.580049 F F F Ti
0.374910 0.208148 0.738090 F F F Ti
0.874732 0.208122 0.738136 F F F Ti
0.374989 0.208287 0.896401 F F F Ti
0.874928 0.208291 0.896409 F F F Ti
0.374687 0.541499 0.579642 F F F Ti
0.873556 0.542625 0.579979 F F F Ti
0.374908 0.541728 0.738056 F F F Ti
0.874711 0.541814 0.738106 F F F Ti
0.374972 0.541739 0.896420 F F F Ti
0.874905 0.541745 0.896422 F F F Ti
0.374931 0.874789 0.579259 F F F Ti
0.875000 0.874370 0.579319 F F F Ti
0.374894 0.874898 0.737959 F F F Ti
0.874899 0.874828 0.737960 F F F Ti
0.375019 0.874998 0.896451 F F F Ti
0.874945 0.874993 0.896451 F F F Ti
0.123238 0.626199 0.356498 F F F Ti
0.624073 0.624957 0.356586 F F F Ti
0.125038 0.625443 0.118646 F F F Ti
0.624848 0.625353 0.118686 F F F Ti
0.636597 0.121182 0.355705 F F F Ti
0.125394 0.125014 0.118586 F F F Ti
0.625285 0.124917 0.118583 F F F Ti
0.125194 0.375096 0.039280 F F F Ti
0.624809 0.375082 0.039256 F F F Ti
0.125063 0.875158 0.039542 F F F Ti
0.624964 0.875096 0.039549 F F F Ti
0.117698 0.377030 0.274630 F F F Ti
0.629270 0.375049 0.275966 F F F Ti
0.125734 0.876306 0.277575 F F F Ti
0.625048 0.874764 0.277357 F F F Ti
0.375097 0.875199 0.158501 F F F Ti
0.875394 0.875200 0.158438 F F F Ti
0.375236 0.375215 0.158039 F F F Ti
0.874215 0.375307 0.157464 F F F Ti
0.871758 0.375639 0.396466 F F F Ti
0.375118 0.876777 0.396410 F F F Ti
0.876759 0.874923 0.396566 F F F Ti
0.374709 0.625299 0.237635 F F F Ti
0.874395 0.626098 0.237487 F F F Ti
0.374962 0.625219 -0.000116 F F F Ti
0.874925 0.625229 -0.000126 F F F Ti
0.376227 0.125012 0.237354 F F F Ti
0.876448 0.124832 0.237162 F F F Ti
0.375078 0.124911 -0.000140 F F F Ti
0.875017 0.124899 -0.000144 F F F Ti
0.332708 0.328969 0.388415 T T T Ti

0.000000 0.000000 0.000000
0.000000 0.000000 0.000000
0.000000 0.000000 0.000000
0.000000 0.000000 0.000000
0.000000 0.000000 0.000000
0.000000 0.000000 0.000000
0.000000 0.000000 0.000000
0.000000 0.000000 0.000000
0.000000 0.000000 0.000000
0.000000 0.000000 0.000000
0.000000 0.000000 0.000000
0.000000 0.000000 0.000000
0.000000 0.000000 0.000000
0.000000 0.000000 0.000000
0.000000 0.000000 0.000000
0.000000 0.000000 0.000000
0.000000 0.000000 0.000000
0.000000 0.000000 0.000000
0.000000 0.000000 0.000000
0.000000 0.000000 0.000000
0.000000 0.000000 0.000000
0.000000 0.000000 0.000000
0.000000 0.000000 0.000000
0.000000 0.000000 0.000000
0.000000 0.000000 0.000000
0.000000 0.000000 0.000000
0.000000 0.000000 0.000000
0.000000 0.000000 0.000000
0.000000 0.000000 0.000000
0.000000 0.000000 0.000000
0.000000 0.000000 0.000000
0.000000 0.000000 0.000000
0.000000 0.000000 0.000000
0.000000 0.000000 0.000000
0.000000 0.000000 0.000000
0.000000 0.000000 0.000000
0.000000 0.000000 0.000000
0.000000 0.000000 0.000000
0.000000 0.000000 0.000000
0.000000 0.000000 0.000000
0.000000 0.000000 0.000000
0.000000 0.000000 0.000000
0.000000 0.000000 0.000000
0.000000 0.000000 0.000000
0.000000 0.000000 0.000000
0.000000 0.000000 0.000000
0.000000 0.000000 0.000000
0.000000 0.000000 0.000000
0.000000 0.000000 0.000000
0.000000 0.000000 0.000000
0.000000 0.000000 0.000000
0.000000 0.000000 0.000000
0.000000 0.000000 0.000000
0.000000 0.000000 0.000000
0.000000 0.000000 0.000000
0.000000 0.000000 0.000000
0.000000 0.000000 0.000000
0.000000 0.000000 0.000000
0.000000 0.000000 0.000000
0.000000 0.000000 0.000000
0.000000 0.000000 0.000000
0.000000 0.000000 0.000000
0.000000 0.000000 0.000000
0.000000 0.000000 0.000000
0.000000 0.000000 0.000000
0.000000 0.000000 0.000000
0.000000 0.000000 0.000000
