Ti82 Al1
1.0
6.391540 0.000000 0.000000
0.000000 9.587310 0.000000
0.000000 0.000000 23.271695
Ti Al
82 1
Selective dynamics
direct
0.632970 0.083326 0.581960 F F F Ti
0.125217 0.083343 0.709506 F F F Ti
0.625378 0.083345 0.709726 F F F Ti
0.125018 0.083339 0.838428 F F F Ti
0.625037 0.083339 0.838460 F F F Ti
0.124943 0.417176 0.580715 F F F Ti
0.625533 0.417123 0.580720 F F F Ti
0.125203 0.416759 0.709591 F F F Ti
0.625159 0.416797 0.709621 F F F Ti
0.125029 0.416675 0.838448 F F F Ti
0.625021 0.416680 0.838456 F F F Ti
0.124802 0.749469 0.580739 F F F Ti
0.625523 0.749577 0.580730 F F F Ti
0.125153 0.749928 0.709602 F F F Ti
0.625154 0.749894 0.709632 F F F Ti
0.125016 0.750000 0.838450 F F F Ti
0.625016 0.749994 0.838459 F F F Ti
0.375662 0.250288 0.645243 F F F Ti
0.875982 0.250528 0.645277 F F F Ti
0.375023 0.250023 0.774011 F F F Ti
0.875155 0.250037 0.774030 F F F Ti
0.374996 0.249997 0.902874 F F F Ti
0.875026 0.249999 0.902880 F F F Ti
0.375140 0.583427 0.645135 F F F Ti
0.875039 0.583319 0.645207 F F F Ti
0.375030 0.583339 0.774021 F F F Ti
0.875075 0.583322 0.774038 F F F Ti
0.374996 0.583331 0.902880 F F F Ti
0.875013 0.583330 0.902886 F F F Ti
0.375655 0.916408 0.645252 F F F Ti
0.875963 0.916157 0.645284 F F F Ti
0.375015 0.916660 0.774011 F F F Ti
0.875144 0.916640 0.774030 F F F Ti
0.374986 0.916668 0.902869 F F F Ti
0.875020 0.916665 0.902876 F F F Ti
0.123372 0.167037 0.386469 F F F Ti
0.623971 0.166814 0.386697 F F F Ti
0.124815 0.666342 0.386477 F F F Ti
0.624926 0.666566 0.386593 F F F Ti
0.125003 0.166659 -0.000014 F F F Ti
0.624978 0.166660 -0.000012 F F F Ti
0.125003 0.666683 -0.000009 F F F Ti
0.624983 0.666681 -0.000008 F F F Ti
0.124998 0.833343 0.096661 F F F Ti
0.624982 0.833344 0.096659 F F F Ti
0.120743 0.829796 0.483125 F F F Ti
0.626307 0.831915 0.483397 F F F Ti
0.124995 0.333328 0.096660 F F F Ti
0.624980 0.333329 0.096657 F F F Ti
0.120770 0.336914 0.483069 F F F Ti
0.626010 0.334738 0.483392 F F F Ti
0.375189 0.583681 0.483393 F F F Ti
0.873913 0.583429 0.483369 F F F Ti
0.374996 0.583336 0.096657 F F F Ti
0.874997 0.583337 0.096653 F F F Ti
0.374988 0.083336 0.096668 F F F Ti
0.874985 0.083340 0.096663 F F F Ti
0.869021 0.083312 0.483101 F F F Ti
0.374836 0.416833 0.386638 F F F Ti
0.874127 0.416939 0.386449 F F F Ti
0.374470 0.916260 0.386642 F F F Ti
0.874131 0.916536 0.386536 F F F Ti
0.374983 0.416659 -0.000012 F F F Ti
0.875007 0.416659 -0.000008 F F F Ti
0.374983 0.916676 -0.000009 F F F Ti
0.875010 0.916673 -0.000004 F F F Ti
0.374774 0.083326 0.290031 F F F Ti
0.874643 0.083337 0.289962 F F F Ti
0.124967 0.166656 0.193333 F F F Ti
0.624910 0.166657 0.193325 F F F Ti
0.124892 0.333406 0.289942 F F F Ti
0.624731 0.333318 0.289955 F F F Ti
0.374957 0.416669 0.193312 F F F Ti
0.874927 0.416661 0.193303 F F F Ti
0.375006 0.583357 0.289957 F F F Ti
0.874845 0.583381 0.289903 F F F Ti
0.124982 0.666672 0.193311 F F F Ti
0.624933 0.666672 0.193302 F F F Ti
0.124860 0.833338 0.289973 F F F Ti
0.624813 0.833320 0.289960 F F F Ti
0.374937 0.916676 0.193332 F F F Ti
0.874940 0.916665 0.193319 F F F Ti
0.317756 0.084187 0.506342 T T T Al

0.000000 0.000000 0.000000
0.000000 0.000000 0.000000
0.000000 0.000000 0.000000
0.000000 0.000000 0.000000
0.000000 0.000000 0.000000
0.000000 0.000000 0.000000
0.000000 0.000000 0.000000
0.000000 0.000000 0.000000
0.000000 0.000000 0.000000
0.000000 0.000000 0.000000
0.000000 0.000000 0.000000
0.000000 0.000000 0.000000
0.000000 0.000000 0.000000
0.000000 0.000000 0.000000
0.000000 0.000000 0.000000
0.000000 0.000000 0.000000
0.000000 0.000000 0.000000
0.000000 0.000000 0.000000
0.000000 0.000000 0.000000
0.000000 0.000000 0.000000
0.000000 0.000000 0.000000
0.000000 0.000000 0.000000
0.000000 0.000000 0.000000
0.000000 0.000000 0.000000
0.000000 0.000000 0.000000
0.000000 0.000000 0.000000
0.000000 0.000000 0.000000
0.000000 0.000000 0.000000
0.000000 0.000000 0.000000
0.000000 0.000000 0.000000
0.000000 0.000000 0.000000
0.000000 0.000000 0.000000
0.000000 0.000000 0.000000
0.000000 0.000000 0.000000
0.000000 0.000000 0.000000
0.000000 0.000000 0.000000
0.000000 0.000000 0.000000
0.000000 0.000000 0.000000
0.000000 0.000000 0.000000
0.000000 0.000000 0.000000
0.000000 0.000000 0.000000
0.000000 0.000000 0.000000
0.000000 0.000000 0.000000
0.000000 0.000000 0.000000
0.000000 0.000000 0.000000
0.000000 0.000000 0.000000
0.000000 0.000000 0.000000
0.000000 0.000000 0.000000
0.000000 0.000000 0.000000
0.000000 0.000000 0.000000
0.000000 0.000000 0.000000
0.000000 0.000000 0.000000
0.000000 0.000000 0.000000
0.000000 0.000000 0.000000
0.000000 0.000000 0.000000
0.000000 0.000000 0.000000
0.000000 0.000000 0.000000
0.000000 0.000000 0.000000
0.000000 0.000000 0.000000
0.000000 0.000000 0.000000
0.000000 0.000000 0.000000
0.000000 0.000000 0.000000
0.000000 0.000000 0.000000
0.000000 0.000000 0.000000
0.000000 0.000000 0.000000
0.000000 0.000000 0.000000
0.000000 0.000000 0.000000
0.000000 0.000000 0.000000
0.000000 0.000000 0.000000
0.000000 0.000000 0.000000
0.000000 0.000000 0.000000
0.000000 0.000000 0.000000
0.000000 0.000000 0.000000
0.000000 0.000000 0.000000
0.000000 0.000000 0.000000
0.000000 0.000000 0.000000
0.000000 0.000000 0.000000
0.000000 0.000000 0.000000
0.000000 0.000000 0.000000
0.000000 0.000000 0.000000
0.000000 0.000000 0.000000
0.000000 0.000000 0.000000
0.000000 0.000000 0.000000
