beta_Ti
1.0
9.588310 0.000000 0.000000
0.000000 9.588310 0.000000
0.000000 0.000000 19.500006
Ti
54
direct
0.083333 0.083333 0.500000 Ti
0.083333 0.083333 0.653846 Ti
0.083333 0.083333 0.807692 Ti
0.083333 0.416667 0.500000 Ti
0.083333 0.416667 0.653846 Ti
0.083333 0.416667 0.807692 Ti
0.083333 0.750000 0.500000 Ti
0.083333 0.750000 0.653846 Ti
0.083333 0.750000 0.807692 Ti
0.416667 0.083333 0.500000 Ti
0.416667 0.083333 0.653846 Ti
0.416667 0.083333 0.807692 Ti
0.416667 0.416667 0.500000 Ti
0.416667 0.416667 0.653846 Ti
0.416667 0.416667 0.807692 Ti
0.416667 0.750000 0.500000 Ti
0.416667 0.750000 0.653846 Ti
0.416667 0.750000 0.807692 Ti
0.750000 0.083333 0.500000 Ti
0.750000 0.083333 0.653846 Ti
0.750000 0.083333 0.807692 Ti
0.750000 0.416667 0.500000 Ti
0.750000 0.416667 0.653846 Ti
0.750000 0.416667 0.807692 Ti
0.750000 0.750000 0.500000 Ti
0.750000 0.750000 0.653846 Ti
0.750000 0.750000 0.807692 Ti
0.250000 0.250000 0.576923 Ti
0.250000 0.250000 0.730769 Ti
0.250000 0.250000 0.884615 Ti
0.250000 0.583333 0.576923 Ti
0.250000 0.583333 0.730769 Ti
0.250000 0.583333 0.884615 Ti
0.250000 0.916667 0.576923 Ti
0.250000 0.916667 0.730769 Ti
0.250000 0.916667 0.884615 Ti
0.583333 0.250000 0.576923 Ti
0.583333 0.250000 0.730769 Ti
0.583333 0.250000 0.884615 Ti
0.583333 0.583333 0.576923 Ti
0.583333 0.583333 0.730769 Ti
0.583333 0.583333 0.884615 Ti
0.583333 0.916667 0.576923 Ti
0.583333 0.916667 0.730769 Ti
0.583333 0.916667 0.884615 Ti
0.916667 0.250000 0.576923 Ti
0.916667 0.250000 0.730769 Ti
0.916667 0.250000 0.884615 Ti
0.916667 0.583333 0.576923 Ti
0.916667 0.583333 0.730769 Ti
0.916667 0.583333 0.884615 Ti
0.916667 0.916667 0.576923 Ti
0.916667 0.916667 0.730769 Ti
0.916667 0.916667 0.884615 Ti
