total_structure
1.0
   3.5061499999999999    0.0000000000000000    0.0000000000000002
   0.0000000000000019   12.0001999999999995    0.0000000000000007
   0.0000000000000000    0.0000000000000000   32.2716049619999978
Cr Fe N
16 36 16
Selective dynamics
direct
   0.0000000000000000    0.0000000000000000    0.1947941798804918 F F F Cr
  -0.0000000000000000    0.2500000000000000    0.1947941798804918 F F F Cr
   0.5000000000000000    0.1250000000000000    0.1298600091298428 F F F Cr
   0.5000000000000000    0.3750000000000000    0.1298600091298428 F F F Cr
   0.0000000000000000    0.0000000000000000    0.0649341707506490 F F F Cr
  -0.0000000000000000    0.2500000000000000    0.0649341707506490 F F F Cr
   0.5000000000000000    0.1250000000000000   -0.0000000000000000 F F F Cr
   0.5000000000000000    0.3750000000000000   -0.0000000000000000 F F F Cr
  -0.0000000000000000    0.5000000000000000    0.1947941798804918 F F F Cr
  -0.0000000000000000    0.7500000000000000    0.1947941798804918 F F F Cr
   0.5000000000000000    0.6250000000000000    0.1298600091298428 F F F Cr
   0.4999999999999999    0.8749999999999999    0.1298600091298428 F F F Cr
  -0.0000000000000000    0.5000000000000000    0.0649341707506490 F F F Cr
  -0.0000000000000000    0.7500000000000000    0.0649341707506490 F F F Cr
   0.5000000000000000    0.6250000000000000   -0.0000000000000000 F F F Cr
   0.4999999999999999    0.8749999999999999   -0.0000000000000000 F F F Cr
   0.9933200000000000    0.7184400000000000    0.6901274379512529 F F F Fe
   0.4933200000000000    0.5543100000000000    0.6793703464025442 F F F Fe
   0.4933200000000000    0.7391600000000000    0.6464408144114540 F F F Fe
   0.9933200000000000    0.5750200000000000    0.6356837228627452 F F F Fe
   0.9933200000000001    0.3901700000000000    0.6686049224823801 F F F Fe
   0.4933200000000000    0.2260400000000000    0.6578478309336712 F F F Fe
   0.4933200000000000    0.4108899999999999    0.6249182989425812 F F F Fe
   0.9933200000000001    0.2467500000000000    0.6141612073938724 F F F Fe
   0.9933200000000000    0.0619000000000000    0.6470824070135073 F F F Fe
   0.4933200000000000    0.8977699999999998    0.6363253154647983 F F F Fe
   0.4933200000000000    0.0826200000000000    0.6033957834737083 F F F Fe
   0.9933200000000000    0.9184800000000000    0.5926386919249994 F F F Fe
   0.9933200000000000    0.7598700000000000    0.6027625232431103 F F F Fe
   0.4933200000000000    0.5957300000000000    0.5919970993229463 F F F Fe
   0.4933200000000000    0.7805800000000001    0.5590758997033115 F F F Fe
   0.9933200000000001    0.6164500000000001    0.5483104757831473 F F F Fe
   0.9933200000000001    0.4315999999999999    0.5812400077742375 F F F Fe
   0.4933200000000000    0.2674600000000000    0.5704745838540733 F F F Fe
   0.4933200000000000    0.4523100000000000    0.5375533842344387 F F F Fe
   0.9933200000000001    0.2881800000000000    0.5267879603142746 F F F Fe
   0.9933199999999999    0.1033300000000000    0.5597174923053646 F F F Fe
   0.4933200000000000    0.9391999999999999    0.5489520683852005 F F F Fe
   0.4933200000000000    0.1240400000000000    0.5160308687655658 F F F Fe
   0.9933200000000000    0.9599100000000000    0.5052654448454017 F F F Fe
   0.9933200000000000    0.8013000000000000    0.5153892761635126 F F F Fe
   0.4933200000000000    0.6371599999999998    0.5046321846148037 F F F Fe
   0.4933200000000000    0.8220099999999999    0.4717026526237137 F F F Fe
   0.9933200000000001    0.6578799999999999    0.4609455610750048 F F F Fe
   0.9933200000000001    0.4730300000000000    0.4938667606946396 F F F Fe
   0.4933200000000000    0.3088900000000000    0.4831096691459308 F F F Fe
   0.4933200000000000    0.4937400000000000    0.4501801371548408 F F F Fe
   0.9933200000000000    0.3296100000000000    0.4394230456061320 F F F Fe
   0.9933200000000001    0.1447600000000000    0.4723442452257668 F F F Fe
   0.4933200000000000    0.9806200000000000    0.4615871536770579 F F F Fe
   0.4933200000000000    0.1654700000000000    0.4286576216859679 F F F Fe
   0.9933200000000000    0.0013400000000000    0.4179005301372591 F F F Fe
   0.5000000000000000    0.1250000000000000    0.1947941798804918 F F F N
   0.5000000000000000    0.3750000000000000    0.1947941798804918 F F F N
   0.0000000000000000    0.0000000000000000    0.1298600091298428 F F F N
  -0.0000000000000000    0.2500000000000000    0.1298600091298428 F F F N
   0.5000000000000000    0.1250000000000000    0.0649341707506490 F F F N
   0.5000000000000000    0.3750000000000000    0.0649341707506490 F F F N
   0.0000000000000000    0.0000000000000000    0.0000000000000000 F F F N
  -0.0000000000000000    0.2500000000000000   -0.0000000000000000 F F F N
   0.5000000000000000    0.6250000000000000    0.1947941798804918 F F F N
   0.4999999999999999    0.8749999999999999    0.1947941798804918 F F F N
  -0.0000000000000000    0.5000000000000000    0.1298600091298428 F F F N
  -0.0000000000000000    0.7500000000000000    0.1298600091298428 F F F N
   0.5000000000000000    0.6250000000000000    0.0649341707506490 F F F N
   0.4999999999999999    0.8749999999999999    0.0649341707506490 F F F N
  -0.0000000000000000    0.5000000000000000   -0.0000000000000000 F F F N
  -0.0000000000000000    0.7500000000000000   -0.0000000000000000 F F F N
