Ti66 Mo1
1.0
6.309760 0.000000 0.000000
0.000000 9.464640 0.000000
0.000000 0.000000 18.918326
Ti Mo
66 1
Selective dynamics
direct
0.630798 0.041666 0.499852 F F F Ti
0.628595 0.041596 0.659093 F F F Ti
0.125134 0.041628 0.816836 F F F Ti
0.625201 0.041608 0.817254 F F F Ti
0.125639 0.376729 0.499829 F F F Ti
0.625674 0.379060 0.498458 F F F Ti
0.125903 0.375997 0.658927 F F F Ti
0.625599 0.378536 0.660383 F F F Ti
0.125335 0.374672 0.817470 F F F Ti
0.625114 0.374888 0.817751 F F F Ti
0.125291 0.706434 0.499885 F F F Ti
0.625163 0.704589 0.498371 F F F Ti
0.125581 0.706896 0.658963 F F F Ti
0.625083 0.704897 0.660391 F F F Ti
0.125213 0.708493 0.817499 F F F Ti
0.625098 0.708386 0.817771 F F F Ti
0.394421 0.218080 0.579800 F F F Ti
0.853288 0.221469 0.580105 F F F Ti
0.375447 0.208240 0.737838 F F F Ti
0.875300 0.208714 0.738167 F F F Ti
0.374916 0.208026 0.896475 F F F Ti
0.875288 0.208073 0.896534 F F F Ti
0.375746 0.541296 0.579482 F F F Ti
0.875211 0.541154 0.579522 F F F Ti
0.374436 0.541530 0.738727 F F F Ti
0.876386 0.541367 0.738829 F F F Ti
0.374934 0.541600 0.896752 F F F Ti
0.875273 0.541573 0.896770 F F F Ti
0.393528 0.865477 0.579799 F F F Ti
0.853684 0.861832 0.580141 F F F Ti
0.375262 0.874994 0.737787 F F F Ti
0.875296 0.874477 0.738114 F F F Ti
0.374883 0.875195 0.896464 F F F Ti
0.875272 0.875167 0.896529 F F F Ti
0.125074 0.625079 0.356524 F F F Ti
0.625100 0.625033 0.356048 F F F Ti
0.124934 0.625115 0.118951 F F F Ti
0.624856 0.625092 0.118928 F F F Ti
0.125092 0.124848 0.357310 F F F Ti
0.625458 0.124969 0.356805 F F F Ti
0.125003 0.124917 0.119083 F F F Ti
0.624864 0.124930 0.119038 F F F Ti
0.124969 0.374821 0.039580 F F F Ti
0.624851 0.374843 0.039623 F F F Ti
0.124951 0.875136 0.039540 F F F Ti
0.624800 0.875115 0.039597 F F F Ti
0.125024 0.374858 0.277324 F F F Ti
0.625066 0.374852 0.277203 F F F Ti
0.125120 0.875170 0.277668 F F F Ti
0.624997 0.875135 0.277505 F F F Ti
0.374909 0.875092 0.158598 F F F Ti
0.875059 0.875091 0.158585 F F F Ti
0.374920 0.374918 0.158491 F F F Ti
0.875072 0.374920 0.158457 F F F Ti
0.374798 0.375042 0.395962 F F F Ti
0.875744 0.375307 0.395873 F F F Ti
0.375146 0.875145 0.396771 F F F Ti
0.875360 0.874583 0.396459 F F F Ti
0.374835 0.625101 0.237675 F F F Ti
0.875191 0.625071 0.237653 F F F Ti
0.374885 0.625126 0.000144 F F F Ti
0.875008 0.625127 0.000155 F F F Ti
0.374853 0.124917 0.238012 F F F Ti
0.875261 0.124915 0.237959 F F F Ti
0.374887 0.124913 0.000016 F F F Ti
0.875047 0.124901 0.000047 F F F Ti
0.110871 0.042404 0.570012 T T T Mo

0.000000 0.000000 0.000000
0.000000 0.000000 0.000000
0.000000 0.000000 0.000000
0.000000 0.000000 0.000000
0.000000 0.000000 0.000000
0.000000 0.000000 0.000000
0.000000 0.000000 0.000000
0.000000 0.000000 0.000000
0.000000 0.000000 0.000000
0.000000 0.000000 0.000000
0.000000 0.000000 0.000000
0.000000 0.000000 0.000000
0.000000 0.000000 0.000000
0.000000 0.000000 0.000000
0.000000 0.000000 0.000000
0.000000 0.000000 0.000000
0.000000 0.000000 0.000000
0.000000 0.000000 0.000000
0.000000 0.000000 0.000000
0.000000 0.000000 0.000000
0.000000 0.000000 0.000000
0.000000 0.000000 0.000000
0.000000 0.000000 0.000000
0.000000 0.000000 0.000000
0.000000 0.000000 0.000000
0.000000 0.000000 0.000000
0.000000 0.000000 0.000000
0.000000 0.000000 0.000000
0.000000 0.000000 0.000000
0.000000 0.000000 0.000000
0.000000 0.000000 0.000000
0.000000 0.000000 0.000000
0.000000 0.000000 0.000000
0.000000 0.000000 0.000000
0.000000 0.000000 0.000000
0.000000 0.000000 0.000000
0.000000 0.000000 0.000000
0.000000 0.000000 0.000000
0.000000 0.000000 0.000000
0.000000 0.000000 0.000000
0.000000 0.000000 0.000000
0.000000 0.000000 0.000000
0.000000 0.000000 0.000000
0.000000 0.000000 0.000000
0.000000 0.000000 0.000000
0.000000 0.000000 0.000000
0.000000 0.000000 0.000000
0.000000 0.000000 0.000000
0.000000 0.000000 0.000000
0.000000 0.000000 0.000000
0.000000 0.000000 0.000000
0.000000 0.000000 0.000000
0.000000 0.000000 0.000000
0.000000 0.000000 0.000000
0.000000 0.000000 0.000000
0.000000 0.000000 0.000000
0.000000 0.000000 0.000000
0.000000 0.000000 0.000000
0.000000 0.000000 0.000000
0.000000 0.000000 0.000000
0.000000 0.000000 0.000000
0.000000 0.000000 0.000000
0.000000 0.000000 0.000000
0.000000 0.000000 0.000000
0.000000 0.000000 0.000000
0.000000 0.000000 0.000000
0.000000 0.000000 0.000000
