beta_Ti
1.0
4.756512 0.000000 0.000000
0.000000 4.675432 0.000000
0.000000 0.000000 21.011800
Ti
12
direct
0.666667 0.750000 0.861985 Ti
0.166667 0.250000 0.861985 Ti
0.166667 0.750000 0.785768 Ti
0.666667 0.250000 0.785768 Ti
0.666667 0.750000 0.709551 Ti
0.166667 0.250000 0.709551 Ti
0.166667 0.750000 0.633335 Ti
0.666667 0.250000 0.633335 Ti
0.666667 0.750000 0.557118 Ti
0.166667 0.250000 0.557118 Ti
0.166667 0.750000 0.480901 Ti
0.666667 0.250000 0.480901 Ti
