Zr1 Ti66
1.0
6.309760 0.000000 0.000000
0.000000 9.464640 0.000000
0.000000 0.000000 18.918326
Ti Zr
66 1
Selective dynamics
direct
0.629258 0.040519 0.499720 F F F Ti
0.124215 0.041230 0.659036 F F F Ti
0.625029 0.041476 0.658675 F F F Ti
0.124972 0.041654 0.817222 F F F Ti
0.624938 0.041661 0.817199 F F F Ti
0.123127 0.377663 0.499705 F F F Ti
0.625223 0.375320 0.499906 F F F Ti
0.124777 0.375088 0.658627 F F F Ti
0.624695 0.375067 0.658639 F F F Ti
0.124999 0.374991 0.817181 F F F Ti
0.624945 0.374998 0.817187 F F F Ti
0.124971 0.708504 0.500012 F F F Ti
0.625135 0.708141 0.499958 F F F Ti
0.124925 0.708191 0.658674 F F F Ti
0.625104 0.708162 0.658700 F F F Ti
0.124990 0.708292 0.817206 F F F Ti
0.624967 0.708287 0.817216 F F F Ti
0.872816 0.208895 0.579597 F F F Ti
0.374935 0.208304 0.737874 F F F Ti
0.874809 0.208380 0.737960 F F F Ti
0.375000 0.208336 0.896453 F F F Ti
0.874974 0.208341 0.896466 F F F Ti
0.375025 0.541707 0.579329 F F F Ti
0.874599 0.541931 0.579406 F F F Ti
0.374969 0.541625 0.737911 F F F Ti
0.874954 0.541636 0.737939 F F F Ti
0.374997 0.541644 0.896462 F F F Ti
0.874986 0.541645 0.896467 F F F Ti
0.375846 0.873813 0.579557 F F F Ti
0.875076 0.874694 0.579437 F F F Ti
0.375044 0.874900 0.737958 F F F Ti
0.874817 0.874862 0.737979 F F F Ti
0.375003 0.874987 0.896471 F F F Ti
0.874973 0.874985 0.896477 F F F Ti
0.125025 0.624892 0.356816 F F F Ti
0.624882 0.624930 0.356789 F F F Ti
0.125009 0.624991 0.118937 F F F Ti
0.624992 0.624993 0.118935 F F F Ti
0.124949 0.125058 0.356648 F F F Ti
0.625397 0.124970 0.356642 F F F Ti
0.125007 0.124992 0.118919 F F F Ti
0.625000 0.124990 0.118913 F F F Ti
0.125001 0.374997 0.039642 F F F Ti
0.624993 0.374999 0.039642 F F F Ti
0.125001 0.874992 0.039651 F F F Ti
0.624994 0.874990 0.039650 F F F Ti
0.124959 0.375020 0.277440 F F F Ti
0.625022 0.375018 0.277417 F F F Ti
0.125034 0.874973 0.277493 F F F Ti
0.625074 0.874943 0.277468 F F F Ti
0.375003 0.874982 0.158567 F F F Ti
0.875012 0.874978 0.158564 F F F Ti
0.375002 0.375001 0.158548 F F F Ti
0.875003 0.375006 0.158543 F F F Ti
0.375127 0.375411 0.396251 F F F Ti
0.874549 0.375129 0.396262 F F F Ti
0.375208 0.874835 0.396368 F F F Ti
0.875340 0.874852 0.396365 F F F Ti
0.374986 0.624963 0.237867 F F F Ti
0.875031 0.624969 0.237866 F F F Ti
0.374996 0.624985 0.000004 F F F Ti
0.875004 0.624987 0.000008 F F F Ti
0.375033 0.124990 0.237825 F F F Ti
0.875017 0.124987 0.237806 F F F Ti
0.375001 0.124995 -0.000000 F F F Ti
0.875000 0.124993 0.000005 F F F Ti
0.271641 0.141318 0.527985 T T T Zr

0.000000 0.000000 0.000000
0.000000 0.000000 0.000000
0.000000 0.000000 0.000000
0.000000 0.000000 0.000000
0.000000 0.000000 0.000000
0.000000 0.000000 0.000000
0.000000 0.000000 0.000000
0.000000 0.000000 0.000000
0.000000 0.000000 0.000000
0.000000 0.000000 0.000000
0.000000 0.000000 0.000000
0.000000 0.000000 0.000000
0.000000 0.000000 0.000000
0.000000 0.000000 0.000000
0.000000 0.000000 0.000000
0.000000 0.000000 0.000000
0.000000 0.000000 0.000000
0.000000 0.000000 0.000000
0.000000 0.000000 0.000000
0.000000 0.000000 0.000000
0.000000 0.000000 0.000000
0.000000 0.000000 0.000000
0.000000 0.000000 0.000000
0.000000 0.000000 0.000000
0.000000 0.000000 0.000000
0.000000 0.000000 0.000000
0.000000 0.000000 0.000000
0.000000 0.000000 0.000000
0.000000 0.000000 0.000000
0.000000 0.000000 0.000000
0.000000 0.000000 0.000000
0.000000 0.000000 0.000000
0.000000 0.000000 0.000000
0.000000 0.000000 0.000000
0.000000 0.000000 0.000000
0.000000 0.000000 0.000000
0.000000 0.000000 0.000000
0.000000 0.000000 0.000000
0.000000 0.000000 0.000000
0.000000 0.000000 0.000000
0.000000 0.000000 0.000000
0.000000 0.000000 0.000000
0.000000 0.000000 0.000000
0.000000 0.000000 0.000000
0.000000 0.000000 0.000000
0.000000 0.000000 0.000000
0.000000 0.000000 0.000000
0.000000 0.000000 0.000000
0.000000 0.000000 0.000000
0.000000 0.000000 0.000000
0.000000 0.000000 0.000000
0.000000 0.000000 0.000000
0.000000 0.000000 0.000000
0.000000 0.000000 0.000000
0.000000 0.000000 0.000000
0.000000 0.000000 0.000000
0.000000 0.000000 0.000000
0.000000 0.000000 0.000000
0.000000 0.000000 0.000000
0.000000 0.000000 0.000000
0.000000 0.000000 0.000000
0.000000 0.000000 0.000000
0.000000 0.000000 0.000000
0.000000 0.000000 0.000000
0.000000 0.000000 0.000000
0.000000 0.000000 0.000000
0.000000 0.000000 0.000000
