Ti66 Mo1
1.0
6.309760 0.000000 0.000000
0.000000 9.464640 0.000000
0.000000 0.000000 18.918326
Ti Mo
66 1
Selective dynamics
direct
0.084249 0.022228 0.493228 T T T Ti
0.606560 0.024998 0.491352 T T T Ti
0.128811 0.065206 0.647190 T T T Ti
0.614353 0.069803 0.645231 T T T Ti
0.125182 0.041490 0.817373 F F F Ti
0.625826 0.041581 0.817317 F F F Ti
0.589953 0.375328 0.453606 T T T Ti
0.116446 0.375010 0.645990 T T T Ti
0.604134 0.375060 0.642812 T T T Ti
0.124667 0.374988 0.817447 F F F Ti
0.625838 0.375027 0.817324 F F F Ti
0.084416 0.727715 0.493193 T T T Ti
0.606342 0.725051 0.491327 T T T Ti
0.128842 0.684762 0.647179 T T T Ti
0.614296 0.680171 0.645219 T T T Ti
0.125169 0.708494 0.817373 F F F Ti
0.625824 0.708419 0.817316 F F F Ti
0.341148 0.226082 0.546213 T T T Ti
0.867181 0.233266 0.545403 T T T Ti
0.374615 0.208367 0.738891 F F F Ti
0.874348 0.208039 0.737888 F F F Ti
0.375167 0.208310 0.896528 F F F Ti
0.875089 0.208256 0.896446 F F F Ti
0.340991 0.523831 0.546133 T T T Ti
0.867294 0.516768 0.545397 T T T Ti
0.374599 0.541601 0.738890 F F F Ti
0.874364 0.541963 0.737884 F F F Ti
0.375162 0.541682 0.896535 F F F Ti
0.875091 0.541724 0.896454 F F F Ti
0.358263 0.874978 0.578370 T T T Ti
0.847532 0.874905 0.580115 T T T Ti
0.375677 0.874949 0.738553 F F F Ti
0.874902 0.874981 0.737940 F F F Ti
0.375301 0.874966 0.896590 F F F Ti
0.875175 0.874959 0.896509 F F F Ti
0.164753 0.621117 0.369826 T T T Ti
0.650401 0.620780 0.368087 T T T Ti
0.124672 0.624638 0.118873 F F F Ti
0.625625 0.624968 0.118522 F F F Ti
0.164301 0.128698 0.369727 T T T Ti
0.650714 0.129338 0.368106 T T T Ti
0.124678 0.125393 0.118856 F F F Ti
0.625592 0.125054 0.118510 F F F Ti
0.124367 0.375006 0.039425 F F F Ti
0.625491 0.374968 0.039238 F F F Ti
0.124734 0.874995 0.039514 F F F Ti
0.625618 0.875024 0.039436 F F F Ti
0.156990 0.375161 0.280514 T T T Ti
0.621129 0.375047 0.284065 T T T Ti
0.124470 0.875228 0.277540 T T T Ti
0.606651 0.875110 0.280424 T T T Ti
0.374968 0.874928 0.157678 F F F Ti
0.875195 0.875128 0.158612 F F F Ti
0.375016 0.374936 0.157265 F F F Ti
0.874687 0.375048 0.158699 F F F Ti
-0.087517 0.375187 0.403115 T T T Ti
0.357576 0.875502 0.399400 T T T Ti
0.875176 0.874816 0.394005 T T T Ti
0.388496 0.625106 0.247337 T T T Ti
0.879632 0.622796 0.248772 T T T Ti
0.374912 0.625006 -0.000012 F F F Ti
0.875084 0.624987 -0.000049 F F F Ti
0.388543 0.124993 0.247315 T T T Ti
0.879539 0.127355 0.248748 T T T Ti
0.374907 0.124977 -0.000025 F F F Ti
0.875092 0.124998 -0.000060 F F F Ti
0.253753 0.373755 0.426570 T T T Mo

0.000000 0.000000 0.000000
0.000000 0.000000 0.000000
0.000000 0.000000 0.000000
0.000000 0.000000 0.000000
0.000000 0.000000 0.000000
0.000000 0.000000 0.000000
0.000000 0.000000 0.000000
0.000000 0.000000 0.000000
0.000000 0.000000 0.000000
0.000000 0.000000 0.000000
0.000000 0.000000 0.000000
0.000000 0.000000 0.000000
0.000000 0.000000 0.000000
0.000000 0.000000 0.000000
0.000000 0.000000 0.000000
0.000000 0.000000 0.000000
0.000000 0.000000 0.000000
0.000000 0.000000 0.000000
0.000000 0.000000 0.000000
0.000000 0.000000 0.000000
0.000000 0.000000 0.000000
0.000000 0.000000 0.000000
0.000000 0.000000 0.000000
0.000000 0.000000 0.000000
0.000000 0.000000 0.000000
0.000000 0.000000 0.000000
0.000000 0.000000 0.000000
0.000000 0.000000 0.000000
0.000000 0.000000 0.000000
0.000000 0.000000 0.000000
0.000000 0.000000 0.000000
0.000000 0.000000 0.000000
0.000000 0.000000 0.000000
0.000000 0.000000 0.000000
0.000000 0.000000 0.000000
0.000000 0.000000 0.000000
0.000000 0.000000 0.000000
0.000000 0.000000 0.000000
0.000000 0.000000 0.000000
0.000000 0.000000 0.000000
0.000000 0.000000 0.000000
0.000000 0.000000 0.000000
0.000000 0.000000 0.000000
0.000000 0.000000 0.000000
0.000000 0.000000 0.000000
0.000000 0.000000 0.000000
0.000000 0.000000 0.000000
0.000000 0.000000 0.000000
0.000000 0.000000 0.000000
0.000000 0.000000 0.000000
0.000000 0.000000 0.000000
0.000000 0.000000 0.000000
0.000000 0.000000 0.000000
0.000000 0.000000 0.000000
0.000000 0.000000 0.000000
0.000000 0.000000 0.000000
0.000000 0.000000 0.000000
0.000000 0.000000 0.000000
0.000000 0.000000 0.000000
0.000000 0.000000 0.000000
0.000000 0.000000 0.000000
0.000000 0.000000 0.000000
0.000000 0.000000 0.000000
0.000000 0.000000 0.000000
0.000000 0.000000 0.000000
0.000000 0.000000 0.000000
0.000000 0.000000 0.000000
