beta_Ti
1.0
8.805261 0.000000 0.000000
-4.402631 7.625580 0.000000
0.000000 0.000000 22.983422
Ti
36
direct
0.967272 0.027818 0.588970 Ti
0.967272 0.527818 0.588970 Ti
0.467272 0.027818 0.588970 Ti
0.467272 0.527818 0.588970 Ti
0.133938 0.361151 0.870575 Ti
0.133938 0.861151 0.870575 Ti
0.633938 0.361151 0.870575 Ti
0.633938 0.861151 0.870575 Ti
0.300605 0.194485 0.910805 Ti
0.300605 0.694485 0.910805 Ti
0.800605 0.194485 0.910805 Ti
0.800605 0.694485 0.910805 Ti
0.133938 0.361151 0.629199 Ti
0.133938 0.861151 0.629199 Ti
0.633938 0.361151 0.629199 Ti
0.633938 0.861151 0.629199 Ti
0.300605 0.194485 0.669429 Ti
0.300605 0.694485 0.669429 Ti
0.800605 0.194485 0.669429 Ti
0.800605 0.694485 0.669429 Ti
0.967272 0.027818 0.709658 Ti
0.967272 0.527818 0.709658 Ti
0.467272 0.027818 0.709658 Ti
0.467272 0.527818 0.709658 Ti
0.133938 0.361151 0.749887 Ti
0.133938 0.861151 0.749887 Ti
0.633938 0.361151 0.749887 Ti
0.633938 0.861151 0.749887 Ti
0.300605 0.194485 0.790117 Ti
0.300605 0.694485 0.790117 Ti
0.800605 0.194485 0.790117 Ti
0.800605 0.694485 0.790117 Ti
0.967272 0.027818 0.830346 Ti
0.967272 0.527818 0.830346 Ti
0.467272 0.027818 0.830346 Ti
0.467272 0.527818 0.830346 Ti
