alpha_Ti
1.0
6.309760 0.000000 0.000000
0.000000 9.464640 0.000000
0.000000 0.000000 19.300004
Ti
32
direct
0.125000 0.625000 0.349741 Ti
0.625000 0.625000 0.349741 Ti
0.125000 0.625000 0.116580 Ti
0.625000 0.625000 0.116580 Ti
0.125000 0.125000 0.349741 Ti
0.625000 0.125000 0.349741 Ti
0.125000 0.125000 0.116580 Ti
0.625000 0.125000 0.116580 Ti
0.125000 0.375000 0.038860 Ti
0.625000 0.375000 0.038860 Ti
0.125000 0.875000 0.038860 Ti
0.625000 0.875000 0.038860 Ti
0.125000 0.375000 0.272021 Ti
0.625000 0.375000 0.272021 Ti
0.125000 0.875000 0.272021 Ti
0.625000 0.875000 0.272021 Ti
0.375000 0.875000 0.155440 Ti
0.875000 0.875000 0.155440 Ti
0.374999 0.375000 0.155440 Ti
0.874999 0.375000 0.155440 Ti
0.375000 0.375000 0.388601 Ti
0.875000 0.375000 0.388601 Ti
0.375000 0.875000 0.388601 Ti
0.875000 0.875000 0.388601 Ti
0.375000 0.625000 0.233160 Ti
0.875000 0.625000 0.233160 Ti
0.375000 0.625000 -0.000000 Ti
0.875000 0.625000 -0.000000 Ti
0.375000 0.125000 0.233161 Ti
0.875000 0.125000 0.233161 Ti
0.375000 0.125000 -0.000000 Ti
0.875000 0.125000 -0.000000 Ti
