beta_Ti
1.0
6.309760 0.000000 0.000000
0.000000 9.464640 0.000000
0.000000 0.000000 19.300004
Ti
36
direct
0.875000 0.041667 0.500000 Ti
0.375000 0.041667 0.500000 Ti
0.875000 0.041667 0.655440 Ti
0.375000 0.041667 0.655440 Ti
0.875000 0.041667 0.810881 Ti
0.375000 0.041667 0.810881 Ti
0.875000 0.375000 0.500000 Ti
0.375000 0.375000 0.500000 Ti
0.875000 0.375000 0.655440 Ti
0.375000 0.375000 0.655440 Ti
0.875000 0.375000 0.810881 Ti
0.375000 0.375000 0.810881 Ti
0.875000 0.708333 0.500000 Ti
0.375000 0.708333 0.500000 Ti
0.875000 0.708333 0.655440 Ti
0.375000 0.708333 0.655440 Ti
0.875000 0.708333 0.810881 Ti
0.375000 0.708333 0.810881 Ti
0.125000 0.208333 0.577720 Ti
0.625000 0.208333 0.577720 Ti
0.125000 0.208333 0.733161 Ti
0.625000 0.208333 0.733161 Ti
0.125000 0.208333 0.888601 Ti
0.625000 0.208333 0.888601 Ti
0.125000 0.541667 0.577720 Ti
0.625000 0.541667 0.577720 Ti
0.125000 0.541667 0.733161 Ti
0.625000 0.541667 0.733161 Ti
0.125000 0.541667 0.888601 Ti
0.625000 0.541667 0.888601 Ti
0.125000 0.875000 0.577720 Ti
0.625000 0.875000 0.577720 Ti
0.125000 0.875000 0.733161 Ti
0.625000 0.875000 0.733161 Ti
0.125000 0.875000 0.888601 Ti
0.625000 0.875000 0.888601 Ti
