Ti82 Mo1
1.0
6.391540 0.000000 0.000000
0.000000 9.587310 0.000000
0.000000 0.000000 23.271695
Ti Mo
82 1
Selective dynamics
direct
0.122130 0.083367 0.581335 F F F Ti
0.623706 0.083550 0.580465 F F F Ti
0.124836 0.083360 0.709609 F F F Ti
0.624731 0.083371 0.709506 F F F Ti
0.124981 0.083341 0.838426 F F F Ti
0.624963 0.083343 0.838413 F F F Ti
0.124577 0.417614 0.581155 F F F Ti
0.624939 0.416988 0.580658 F F F Ti
0.124919 0.416759 0.709624 F F F Ti
0.624843 0.416731 0.709563 F F F Ti
0.124984 0.416676 0.838435 F F F Ti
0.624967 0.416674 0.838427 F F F Ti
0.124628 0.749852 0.580851 F F F Ti
0.624771 0.750160 0.580606 F F F Ti
0.124922 0.750060 0.709593 F F F Ti
0.624828 0.750083 0.709560 F F F Ti
0.124981 0.750019 0.838433 F F F Ti
0.624964 0.750022 0.838428 F F F Ti
0.374795 0.250158 0.645098 F F F Ti
0.874291 0.250169 0.645168 F F F Ti
0.374983 0.250014 0.773983 F F F Ti
0.874882 0.250008 0.773991 F F F Ti
0.375002 0.249993 0.902851 F F F Ti
0.874993 0.249992 0.902852 F F F Ti
0.375182 0.583577 0.645170 F F F Ti
0.874552 0.583542 0.645227 F F F Ti
0.374994 0.583380 0.774006 F F F Ti
0.874911 0.583369 0.774012 F F F Ti
0.374995 0.583331 0.902857 F F F Ti
0.874986 0.583329 0.902857 F F F Ti
0.374792 0.916720 0.645057 F F F Ti
0.874320 0.916622 0.645130 F F F Ti
0.374969 0.916691 0.773977 F F F Ti
0.874887 0.916688 0.773982 F F F Ti
0.374994 0.916675 0.902847 F F F Ti
0.874988 0.916675 0.902847 F F F Ti
0.631801 0.167560 0.385484 F F F Ti
0.124379 0.665891 0.386489 F F F Ti
0.626356 0.665900 0.386521 F F F Ti
0.125009 0.166666 -0.000024 F F F Ti
0.625004 0.166663 -0.000025 F F F Ti
0.125008 0.666661 -0.000034 F F F Ti
0.625009 0.666659 -0.000032 F F F Ti
0.125021 0.833325 0.096604 F F F Ti
0.625049 0.833323 0.096603 F F F Ti
0.121657 0.829984 0.483505 F F F Ti
0.625327 0.832865 0.483304 F F F Ti
0.125038 0.333317 0.096631 F F F Ti
0.625025 0.333330 0.096625 F F F Ti
0.117493 0.340216 0.484068 F F F Ti
0.627291 0.335274 0.483307 F F F Ti
0.375531 0.584061 0.483435 F F F Ti
0.873535 0.584250 0.483473 F F F Ti
0.375019 0.583304 0.096605 F F F Ti
0.875072 0.583293 0.096602 F F F Ti
0.375023 0.083340 0.096625 F F F Ti
0.875085 0.083347 0.096624 F F F Ti
0.872161 0.083431 0.483611 F F F Ti
0.375659 0.417689 0.386522 F F F Ti
0.875527 0.416939 0.386503 F F F Ti
0.378285 0.910865 0.384761 F F F Ti
0.875717 0.916475 0.386686 F F F Ti
0.374995 0.416657 -0.000025 F F F Ti
0.875004 0.416653 -0.000025 F F F Ti
0.375001 0.916666 -0.000026 F F F Ti
0.875003 0.916669 -0.000026 F F F Ti
0.375606 0.083201 0.289806 F F F Ti
0.876347 0.083119 0.289894 F F F Ti
0.125131 0.166670 0.193296 F F F Ti
0.625203 0.166630 0.193249 F F F Ti
0.125359 0.333178 0.290031 F F F Ti
0.625289 0.333575 0.289734 F F F Ti
0.374968 0.416616 0.193264 F F F Ti
0.875216 0.416583 0.193262 F F F Ti
0.375136 0.583222 0.289812 F F F Ti
0.875437 0.583126 0.289827 F F F Ti
0.125022 0.666537 0.193200 F F F Ti
0.625144 0.666513 0.193184 F F F Ti
0.124532 0.832951 0.289725 F F F Ti
0.626441 0.832882 0.289602 F F F Ti
0.375069 0.916593 0.193226 F F F Ti
0.875121 0.916675 0.193221 F F F Ti
0.320581 0.104670 0.461411 T T T Mo

0.000000 0.000000 0.000000
0.000000 0.000000 0.000000
0.000000 0.000000 0.000000
0.000000 0.000000 0.000000
0.000000 0.000000 0.000000
0.000000 0.000000 0.000000
0.000000 0.000000 0.000000
0.000000 0.000000 0.000000
0.000000 0.000000 0.000000
0.000000 0.000000 0.000000
0.000000 0.000000 0.000000
0.000000 0.000000 0.000000
0.000000 0.000000 0.000000
0.000000 0.000000 0.000000
0.000000 0.000000 0.000000
0.000000 0.000000 0.000000
0.000000 0.000000 0.000000
0.000000 0.000000 0.000000
0.000000 0.000000 0.000000
0.000000 0.000000 0.000000
0.000000 0.000000 0.000000
0.000000 0.000000 0.000000
0.000000 0.000000 0.000000
0.000000 0.000000 0.000000
0.000000 0.000000 0.000000
0.000000 0.000000 0.000000
0.000000 0.000000 0.000000
0.000000 0.000000 0.000000
0.000000 0.000000 0.000000
0.000000 0.000000 0.000000
0.000000 0.000000 0.000000
0.000000 0.000000 0.000000
0.000000 0.000000 0.000000
0.000000 0.000000 0.000000
0.000000 0.000000 0.000000
0.000000 0.000000 0.000000
0.000000 0.000000 0.000000
0.000000 0.000000 0.000000
0.000000 0.000000 0.000000
0.000000 0.000000 0.000000
0.000000 0.000000 0.000000
0.000000 0.000000 0.000000
0.000000 0.000000 0.000000
0.000000 0.000000 0.000000
0.000000 0.000000 0.000000
0.000000 0.000000 0.000000
0.000000 0.000000 0.000000
0.000000 0.000000 0.000000
0.000000 0.000000 0.000000
0.000000 0.000000 0.000000
0.000000 0.000000 0.000000
0.000000 0.000000 0.000000
0.000000 0.000000 0.000000
0.000000 0.000000 0.000000
0.000000 0.000000 0.000000
0.000000 0.000000 0.000000
0.000000 0.000000 0.000000
0.000000 0.000000 0.000000
0.000000 0.000000 0.000000
0.000000 0.000000 0.000000
0.000000 0.000000 0.000000
0.000000 0.000000 0.000000
0.000000 0.000000 0.000000
0.000000 0.000000 0.000000
0.000000 0.000000 0.000000
0.000000 0.000000 0.000000
0.000000 0.000000 0.000000
0.000000 0.000000 0.000000
0.000000 0.000000 0.000000
0.000000 0.000000 0.000000
0.000000 0.000000 0.000000
0.000000 0.000000 0.000000
0.000000 0.000000 0.000000
0.000000 0.000000 0.000000
0.000000 0.000000 0.000000
0.000000 0.000000 0.000000
0.000000 0.000000 0.000000
0.000000 0.000000 0.000000
0.000000 0.000000 0.000000
0.000000 0.000000 0.000000
0.000000 0.000000 0.000000
0.000000 0.000000 0.000000
0.000000 0.000000 0.000000
