alpha_Ti
1.0
5.745590 0.000000 0.000000
0.000000 9.072750 0.000000
0.000000 0.000000 21.625032
Ti
32
direct
0.041667 0.875000 0.431586 Ti
0.041667 0.375000 0.431586 Ti
0.541667 0.875000 0.431586 Ti
0.541667 0.375000 0.431586 Ti
0.291667 0.875000 0.313880 Ti
0.291667 0.375000 0.313880 Ti
0.791667 0.875000 0.313880 Ti
0.791667 0.375000 0.313880 Ti
0.041667 0.625000 0.353116 Ti
0.041667 0.125000 0.353116 Ti
0.541667 0.625000 0.353116 Ti
0.541667 0.125000 0.353116 Ti
0.041667 0.875000 0.196175 Ti
0.041667 0.375000 0.196175 Ti
0.541667 0.875000 0.196175 Ti
0.541667 0.375000 0.196175 Ti
0.291667 0.625000 0.235411 Ti
0.291667 0.125000 0.235411 Ti
0.791667 0.625000 0.235411 Ti
0.791667 0.125000 0.235411 Ti
0.291667 0.875000 0.078470 Ti
0.291667 0.375000 0.078470 Ti
0.791667 0.875000 0.078470 Ti
0.791667 0.375000 0.078470 Ti
0.041667 0.625000 0.117706 Ti
0.041667 0.125000 0.117706 Ti
0.541667 0.625000 0.117706 Ti
0.541667 0.125000 0.117706 Ti
0.791667 0.125000 0.000000 Ti
0.291667 0.125000 0.000000 Ti
0.791667 0.625000 -0.000000 Ti
0.291667 0.625000 -0.000000 Ti
