beta_Ti
1.0
5.745590 0.000000 0.000000
0.000000 9.072750 0.000000
0.000000 0.000000 21.625032
Ti
32
direct
0.291667 0.625000 0.500950 Ti
0.291667 0.125000 0.500950 Ti
0.791667 0.625000 0.500950 Ti
0.791667 0.125000 0.500950 Ti
0.458333 0.625000 0.623717 Ti
0.458333 0.125000 0.623717 Ti
0.958333 0.625000 0.623717 Ti
0.958333 0.125000 0.623717 Ti
0.125000 0.625000 0.746484 Ti
0.125000 0.125000 0.746484 Ti
0.625000 0.625000 0.746484 Ti
0.625000 0.125000 0.746484 Ti
0.291667 0.625000 0.869251 Ti
0.291667 0.125000 0.869251 Ti
0.791667 0.625000 0.869251 Ti
0.791667 0.125000 0.869251 Ti
0.125000 0.875000 0.562333 Ti
0.125000 0.375000 0.562333 Ti
0.625000 0.875000 0.562333 Ti
0.625000 0.375000 0.562333 Ti
0.291667 0.875000 0.685101 Ti
0.291667 0.375000 0.685101 Ti
0.791667 0.875000 0.685101 Ti
0.791667 0.375000 0.685101 Ti
0.458333 0.875000 0.807868 Ti
0.458333 0.375000 0.807868 Ti
0.958333 0.875000 0.807868 Ti
0.958333 0.375000 0.807868 Ti
0.125000 0.875000 0.930634 Ti
0.125000 0.375000 0.930634 Ti
0.625000 0.875000 0.930634 Ti
0.625000 0.375000 0.930634 Ti
