Ti66 Nb1
1.0
6.309760 0.000000 0.000000
0.000000 9.464640 0.000000
0.000000 0.000000 18.918326
Ti Nb
66 1
Selective dynamics
direct
0.108745 0.035067 0.498515 F F F Ti
0.639852 0.034380 0.497947 F F F Ti
0.123611 0.042534 0.658163 F F F Ti
0.624862 0.042208 0.658604 F F F Ti
0.125071 0.042365 0.816978 F F F Ti
0.624716 0.042389 0.817052 F F F Ti
0.097946 0.387445 0.498693 F F F Ti
0.658541 0.394277 0.498013 F F F Ti
0.124069 0.376189 0.658065 F F F Ti
0.626110 0.377369 0.658951 F F F Ti
0.125143 0.375208 0.816905 F F F Ti
0.624766 0.375261 0.817101 F F F Ti
0.123816 0.709965 0.499802 F F F Ti
0.623147 0.711178 0.499791 F F F Ti
0.126033 0.709882 0.659147 F F F Ti
0.623016 0.710167 0.659360 F F F Ti
0.125228 0.708859 0.817334 F F F Ti
0.624600 0.708896 0.817378 F F F Ti
0.868962 0.209273 0.579260 F F F Ti
0.374695 0.209171 0.737080 F F F Ti
0.874781 0.209005 0.737685 F F F Ti
0.374946 0.208626 0.896135 F F F Ti
0.875085 0.208629 0.896257 F F F Ti
0.374572 0.544902 0.579022 F F F Ti
0.874612 0.547783 0.581639 F F F Ti
0.374727 0.542179 0.737871 F F F Ti
0.875258 0.542654 0.738436 F F F Ti
0.374964 0.541718 0.896311 F F F Ti
0.875045 0.541750 0.896413 F F F Ti
0.374244 0.876452 0.578917 F F F Ti
0.873726 0.873942 0.580293 F F F Ti
0.374494 0.876293 0.737874 F F F Ti
0.874841 0.875855 0.738176 F F F Ti
0.374986 0.875500 0.896355 F F F Ti
0.874985 0.875451 0.896423 F F F Ti
0.125336 0.625088 0.356234 F F F Ti
0.623529 0.625801 0.355858 F F F Ti
0.125130 0.625032 0.118576 F F F Ti
0.624816 0.625047 0.118544 F F F Ti
0.123542 0.124540 0.356008 F F F Ti
0.627762 0.124100 0.355260 F F F Ti
0.125294 0.125010 0.118547 F F F Ti
0.624898 0.124991 0.118502 F F F Ti
0.125163 0.375010 0.039481 F F F Ti
0.624852 0.375000 0.039464 F F F Ti
0.125117 0.875151 0.039455 F F F Ti
0.624822 0.875159 0.039438 F F F Ti
0.126166 0.374912 0.276915 F F F Ti
0.623901 0.375128 0.276511 F F F Ti
0.124936 0.874879 0.276893 F F F Ti
0.624604 0.874685 0.276659 F F F Ti
0.374950 0.874992 0.158170 F F F Ti
0.875070 0.874915 0.158075 F F F Ti
0.374990 0.374960 0.158165 F F F Ti
0.875218 0.375052 0.158099 F F F Ti
0.873940 0.375310 0.392973 F F F Ti
0.374269 0.874993 0.395758 F F F Ti
0.874313 0.872627 0.394966 F F F Ti
0.374743 0.624990 0.237356 F F F Ti
0.875080 0.624990 0.237191 F F F Ti
0.374948 0.625007 -0.000250 F F F Ti
0.874873 0.625057 -0.000182 F F F Ti
0.374992 0.124877 0.237440 F F F Ti
0.875528 0.124850 0.236968 F F F Ti
0.375053 0.125185 -0.000367 F F F Ti
0.875183 0.125137 -0.000285 F F F Ti
0.387789 0.238479 0.527036 T T T Nb

0.000000 0.000000 0.000000
0.000000 0.000000 0.000000
0.000000 0.000000 0.000000
0.000000 0.000000 0.000000
0.000000 0.000000 0.000000
0.000000 0.000000 0.000000
0.000000 0.000000 0.000000
0.000000 0.000000 0.000000
0.000000 0.000000 0.000000
0.000000 0.000000 0.000000
0.000000 0.000000 0.000000
0.000000 0.000000 0.000000
0.000000 0.000000 0.000000
0.000000 0.000000 0.000000
0.000000 0.000000 0.000000
0.000000 0.000000 0.000000
0.000000 0.000000 0.000000
0.000000 0.000000 0.000000
0.000000 0.000000 0.000000
0.000000 0.000000 0.000000
0.000000 0.000000 0.000000
0.000000 0.000000 0.000000
0.000000 0.000000 0.000000
0.000000 0.000000 0.000000
0.000000 0.000000 0.000000
0.000000 0.000000 0.000000
0.000000 0.000000 0.000000
0.000000 0.000000 0.000000
0.000000 0.000000 0.000000
0.000000 0.000000 0.000000
0.000000 0.000000 0.000000
0.000000 0.000000 0.000000
0.000000 0.000000 0.000000
0.000000 0.000000 0.000000
0.000000 0.000000 0.000000
0.000000 0.000000 0.000000
0.000000 0.000000 0.000000
0.000000 0.000000 0.000000
0.000000 0.000000 0.000000
0.000000 0.000000 0.000000
0.000000 0.000000 0.000000
0.000000 0.000000 0.000000
0.000000 0.000000 0.000000
0.000000 0.000000 0.000000
0.000000 0.000000 0.000000
0.000000 0.000000 0.000000
0.000000 0.000000 0.000000
0.000000 0.000000 0.000000
0.000000 0.000000 0.000000
0.000000 0.000000 0.000000
0.000000 0.000000 0.000000
0.000000 0.000000 0.000000
0.000000 0.000000 0.000000
0.000000 0.000000 0.000000
0.000000 0.000000 0.000000
0.000000 0.000000 0.000000
0.000000 0.000000 0.000000
0.000000 0.000000 0.000000
0.000000 0.000000 0.000000
0.000000 0.000000 0.000000
0.000000 0.000000 0.000000
0.000000 0.000000 0.000000
0.000000 0.000000 0.000000
0.000000 0.000000 0.000000
0.000000 0.000000 0.000000
0.000000 0.000000 0.000000
0.000000 0.000000 0.000000
