Zr1 Ti96
1.0
9.513020 0.000000 0.000000
0.000000 9.350860 0.000000
0.000000 0.000000 18.547230
Ti Zr
96 1
Selective dynamics
direct
0.147195 0.371723 0.402083 T T T Ti
0.656399 0.355242 0.391215 T T T Ti
0.150076 0.863645 0.396783 T T T Ti
0.664261 0.870888 0.405451 T T T Ti
0.160315 0.370310 0.236964 T T T Ti
0.659226 0.373332 0.234089 T T T Ti
0.161723 0.874300 0.234900 T T T Ti
0.662667 0.872595 0.234514 T T T Ti
0.166661 0.375023 0.077675 F F F Ti
0.666669 0.375012 0.077668 F F F Ti
0.166681 0.875016 0.077652 F F F Ti
0.666666 0.874998 0.077637 F F F Ti
0.407333 0.384507 0.315192 T T T Ti
0.907511 0.380731 0.319646 T T T Ti
0.405599 0.877079 0.316816 T T T Ti
0.906952 0.878216 0.315381 T T T Ti
0.416662 0.375023 0.155286 F F F Ti
0.916643 0.375002 0.155318 F F F Ti
0.416680 0.875020 0.155277 F F F Ti
0.916696 0.875000 0.155249 F F F Ti
0.416663 0.375033 -0.000008 F F F Ti
0.916636 0.375017 0.000005 F F F Ti
0.416662 0.875001 -0.000060 F F F Ti
0.916647 0.874996 -0.000040 F F F Ti
0.092489 0.119269 0.319646 T T T Ti
0.592667 0.115493 0.315191 T T T Ti
0.093048 0.621785 0.315380 T T T Ti
0.594401 0.622922 0.316815 T T T Ti
0.083357 0.125004 0.155318 F F F Ti
0.583338 0.124984 0.155286 F F F Ti
0.083304 0.625011 0.155249 F F F Ti
0.583320 0.624990 0.155278 F F F Ti
0.083365 0.124988 0.000005 F F F Ti
0.583338 0.124974 -0.000009 F F F Ti
0.083353 0.625017 -0.000039 F F F Ti
0.583340 0.625012 -0.000059 F F F Ti
0.343600 0.144758 0.391215 T T T Ti
0.852804 0.128277 0.402083 T T T Ti
0.335738 0.629112 0.405451 T T T Ti
0.849923 0.636355 0.396783 T T T Ti
0.340773 0.126670 0.234089 T T T Ti
0.839684 0.129691 0.236964 T T T Ti
0.337332 0.627407 0.234514 T T T Ti
0.838276 0.625702 0.234900 T T T Ti
0.333330 0.124995 0.077668 F F F Ti
0.833338 0.124984 0.077674 F F F Ti
0.333333 0.625013 0.077638 F F F Ti
0.833318 0.624994 0.077652 F F F Ti
0.374985 0.374994 0.823922 F F F Ti
0.874986 0.374902 0.823899 F F F Ti
0.375031 0.875112 0.823814 F F F Ti
0.875072 0.875010 0.823832 F F F Ti
0.125023 0.125089 0.823897 F F F Ti
0.625021 0.125004 0.823921 F F F Ti
0.124927 0.624991 0.823834 F F F Ti
0.624973 0.624879 0.823817 F F F Ti
0.124972 0.375028 0.910156 F F F Ti
0.625016 0.374984 0.910172 F F F Ti
0.125023 0.875010 0.910103 F F F Ti
0.625001 0.874999 0.910106 F F F Ti
0.374986 0.125012 0.910171 F F F Ti
0.875033 0.124969 0.910154 F F F Ti
0.375002 0.625003 0.910107 F F F Ti
0.874984 0.624993 0.910104 F F F Ti
0.383470 0.372754 0.667204 T T T Ti
0.882447 0.388047 0.648732 T T T Ti
0.372232 0.891014 0.663416 T T T Ti
0.902306 0.878488 0.654423 T T T Ti
0.117551 0.111950 0.648732 T T T Ti
0.616528 0.127242 0.667203 T T T Ti
0.097692 0.621508 0.654424 T T T Ti
0.627767 0.608980 0.663417 T T T Ti
0.136277 0.361206 0.571589 T T T Ti
0.634389 0.359466 0.577900 T T T Ti
0.155752 0.854319 0.565615 T T T Ti
0.680555 0.921342 0.572173 T T T Ti
0.365611 0.140533 0.577899 T T T Ti
0.863722 0.138794 0.571589 T T T Ti
0.319444 0.578657 0.572174 T T T Ti
0.844247 0.645680 0.565615 T T T Ti
0.399639 0.369220 0.481886 T T T Ti
0.885977 0.380725 0.489087 T T T Ti
0.371593 0.930892 0.475076 T T T Ti
0.916502 0.884885 0.483440 T T T Ti
0.114023 0.119274 0.489087 T T T Ti
0.600361 0.130780 0.481886 T T T Ti
0.083498 0.615114 0.483440 T T T Ti
0.628407 0.569107 0.475076 T T T Ti
0.125385 0.875240 0.737646 F F F Ti
0.625088 0.875156 0.737662 F F F Ti
0.374902 0.624826 0.737666 F F F Ti
0.874610 0.624745 0.737654 F F F Ti
0.124851 0.374900 0.737658 F F F Ti
0.625114 0.374724 0.737708 F F F Ti
0.374876 0.125255 0.737705 F F F Ti
0.875142 0.125081 0.737655 F F F Ti
0.500000 0.749999 0.542433 T T T Zr

0.000000 0.000000 0.000000
0.000000 0.000000 0.000000
0.000000 0.000000 0.000000
0.000000 0.000000 0.000000
0.000000 0.000000 0.000000
0.000000 0.000000 0.000000
0.000000 0.000000 0.000000
0.000000 0.000000 0.000000
0.000000 0.000000 0.000000
0.000000 0.000000 0.000000
0.000000 0.000000 0.000000
0.000000 0.000000 0.000000
0.000000 0.000000 0.000000
0.000000 0.000000 0.000000
0.000000 0.000000 0.000000
0.000000 0.000000 0.000000
0.000000 0.000000 0.000000
0.000000 0.000000 0.000000
0.000000 0.000000 0.000000
0.000000 0.000000 0.000000
0.000000 0.000000 0.000000
0.000000 0.000000 0.000000
0.000000 0.000000 0.000000
0.000000 0.000000 0.000000
0.000000 0.000000 0.000000
0.000000 0.000000 0.000000
0.000000 0.000000 0.000000
0.000000 0.000000 0.000000
0.000000 0.000000 0.000000
0.000000 0.000000 0.000000
0.000000 0.000000 0.000000
0.000000 0.000000 0.000000
0.000000 0.000000 0.000000
0.000000 0.000000 0.000000
0.000000 0.000000 0.000000
0.000000 0.000000 0.000000
0.000000 0.000000 0.000000
0.000000 0.000000 0.000000
0.000000 0.000000 0.000000
0.000000 0.000000 0.000000
0.000000 0.000000 0.000000
0.000000 0.000000 0.000000
0.000000 0.000000 0.000000
0.000000 0.000000 0.000000
0.000000 0.000000 0.000000
0.000000 0.000000 0.000000
0.000000 0.000000 0.000000
0.000000 0.000000 0.000000
0.000000 0.000000 0.000000
0.000000 0.000000 0.000000
0.000000 0.000000 0.000000
0.000000 0.000000 0.000000
0.000000 0.000000 0.000000
0.000000 0.000000 0.000000
0.000000 0.000000 0.000000
0.000000 0.000000 0.000000
0.000000 0.000000 0.000000
0.000000 0.000000 0.000000
0.000000 0.000000 0.000000
0.000000 0.000000 0.000000
0.000000 0.000000 0.000000
0.000000 0.000000 0.000000
0.000000 0.000000 0.000000
0.000000 0.000000 0.000000
0.000000 0.000000 0.000000
0.000000 0.000000 0.000000
0.000000 0.000000 0.000000
0.000000 0.000000 0.000000
0.000000 0.000000 0.000000
0.000000 0.000000 0.000000
0.000000 0.000000 0.000000
0.000000 0.000000 0.000000
0.000000 0.000000 0.000000
0.000000 0.000000 0.000000
0.000000 0.000000 0.000000
0.000000 0.000000 0.000000
0.000000 0.000000 0.000000
0.000000 0.000000 0.000000
0.000000 0.000000 0.000000
0.000000 0.000000 0.000000
0.000000 0.000000 0.000000
0.000000 0.000000 0.000000
0.000000 0.000000 0.000000
0.000000 0.000000 0.000000
0.000000 0.000000 0.000000
0.000000 0.000000 0.000000
0.000000 0.000000 0.000000
0.000000 0.000000 0.000000
0.000000 0.000000 0.000000
0.000000 0.000000 0.000000
0.000000 0.000000 0.000000
0.000000 0.000000 0.000000
0.000000 0.000000 0.000000
0.000000 0.000000 0.000000
0.000000 0.000000 0.000000
0.000000 0.000000 0.000000
0.000000 0.000000 0.000000
