Ti96 Nb1
1.0
9.513020 0.000000 0.000000
0.000000 9.350860 0.000000
0.000000 0.000000 18.547230
Ti Nb
96 1
Selective dynamics
direct
0.135242 0.362304 0.406125 T T T Ti
0.647244 0.349213 0.406717 T T T Ti
0.161423 0.855509 0.397370 T T T Ti
0.682949 0.915772 0.399841 T T T Ti
0.159236 0.378101 0.236572 T T T Ti
0.665560 0.368861 0.229498 T T T Ti
0.160373 0.873532 0.234162 T T T Ti
0.655483 0.862463 0.243742 T T T Ti
0.166676 0.374999 0.077649 F F F Ti
0.666669 0.375004 0.077652 F F F Ti
0.166684 0.874996 0.077664 F F F Ti
0.666676 0.875011 0.077665 F F F Ti
0.404026 0.368974 0.311931 T T T Ti
0.897306 0.375597 0.318541 T T T Ti
0.400078 0.908545 0.316474 T T T Ti
0.917395 0.881286 0.316851 T T T Ti
0.416663 0.374973 0.155305 F F F Ti
0.916644 0.374990 0.155314 F F F Ti
0.416651 0.875019 0.155337 F F F Ti
0.916719 0.874983 0.155312 F F F Ti
0.416668 0.374999 -0.000008 F F F Ti
0.916663 0.375001 -0.000010 F F F Ti
0.416668 0.874995 0.000005 F F F Ti
0.916672 0.874995 -0.000005 F F F Ti
0.102694 0.124403 0.318540 T T T Ti
0.595974 0.131026 0.311930 T T T Ti
0.082605 0.618714 0.316850 T T T Ti
0.599922 0.591455 0.316473 T T T Ti
0.083356 0.125014 0.155314 F F F Ti
0.583337 0.125032 0.155305 F F F Ti
0.083281 0.625020 0.155312 F F F Ti
0.583349 0.624983 0.155338 F F F Ti
0.083338 0.125000 -0.000010 F F F Ti
0.583332 0.125002 -0.000008 F F F Ti
0.083328 0.625006 -0.000005 F F F Ti
0.583332 0.625005 0.000005 F F F Ti
0.352755 0.150787 0.406717 T T T Ti
0.864757 0.137696 0.406125 T T T Ti
0.317050 0.584228 0.399841 T T T Ti
0.838576 0.644491 0.397370 T T T Ti
0.334439 0.131139 0.229498 T T T Ti
0.840763 0.121899 0.236572 T T T Ti
0.344516 0.637538 0.243742 T T T Ti
0.839626 0.626468 0.234162 T T T Ti
0.333330 0.124999 0.077652 F F F Ti
0.833323 0.125004 0.077649 F F F Ti
0.333323 0.624992 0.077665 F F F Ti
0.833315 0.625006 0.077664 F F F Ti
0.375005 0.375013 0.823782 F F F Ti
0.874997 0.374993 0.823778 F F F Ti
0.375002 0.874996 0.823774 F F F Ti
0.874995 0.874981 0.823779 F F F Ti
0.125003 0.125005 0.823778 F F F Ti
0.624996 0.124985 0.823782 F F F Ti
0.125006 0.625018 0.823779 F F F Ti
0.624999 0.625002 0.823774 F F F Ti
0.125000 0.375003 0.910095 F F F Ti
0.625001 0.375003 0.910095 F F F Ti
0.125002 0.874997 0.910097 F F F Ti
0.624996 0.874992 0.910095 F F F Ti
0.374999 0.124996 0.910095 F F F Ti
0.875001 0.124996 0.910095 F F F Ti
0.375004 0.625007 0.910095 F F F Ti
0.874998 0.625002 0.910097 F F F Ti
0.391323 0.394195 0.655613 T T T Ti
0.899589 0.375581 0.649305 T T T Ti
0.392025 0.884817 0.651120 T T T Ti
0.882215 0.884979 0.664801 T T T Ti
0.100410 0.124418 0.649305 T T T Ti
0.608676 0.105804 0.655613 T T T Ti
0.117785 0.615021 0.664801 T T T Ti
0.607975 0.615183 0.651120 T T T Ti
0.150469 0.380268 0.566128 T T T Ti
0.648582 0.348052 0.581982 T T T Ti
0.128944 0.858207 0.583414 T T T Ti
0.651317 0.856871 0.567694 T T T Ti
0.351418 0.151948 0.581982 T T T Ti
0.849531 0.119732 0.566128 T T T Ti
0.348683 0.643128 0.567694 T T T Ti
0.871056 0.641792 0.583414 T T T Ti
0.408774 0.384918 0.495098 T T T Ti
0.893550 0.379587 0.490839 T T T Ti
0.356544 0.921627 0.499174 T T T Ti
0.914292 0.876798 0.484227 T T T Ti
0.106450 0.120413 0.490839 T T T Ti
0.591226 0.115082 0.495098 T T T Ti
0.085708 0.623202 0.484227 T T T Ti
0.643456 0.578373 0.499174 T T T Ti
0.124983 0.875008 0.737472 F F F Ti
0.624993 0.874923 0.737457 F F F Ti
0.375006 0.625074 0.737456 F F F Ti
0.875015 0.624989 0.737472 F F F Ti
0.124976 0.375001 0.737466 F F F Ti
0.625016 0.374955 0.737473 F F F Ti
0.374982 0.125041 0.737473 F F F Ti
0.875023 0.124996 0.737466 F F F Ti
0.500000 0.750000 0.429332 T T T Nb

0.000000 0.000000 0.000000
0.000000 0.000000 0.000000
0.000000 0.000000 0.000000
0.000000 0.000000 0.000000
0.000000 0.000000 0.000000
0.000000 0.000000 0.000000
0.000000 0.000000 0.000000
0.000000 0.000000 0.000000
0.000000 0.000000 0.000000
0.000000 0.000000 0.000000
0.000000 0.000000 0.000000
0.000000 0.000000 0.000000
0.000000 0.000000 0.000000
0.000000 0.000000 0.000000
0.000000 0.000000 0.000000
0.000000 0.000000 0.000000
0.000000 0.000000 0.000000
0.000000 0.000000 0.000000
0.000000 0.000000 0.000000
0.000000 0.000000 0.000000
0.000000 0.000000 0.000000
0.000000 0.000000 0.000000
0.000000 0.000000 0.000000
0.000000 0.000000 0.000000
0.000000 0.000000 0.000000
0.000000 0.000000 0.000000
0.000000 0.000000 0.000000
0.000000 0.000000 0.000000
0.000000 0.000000 0.000000
0.000000 0.000000 0.000000
0.000000 0.000000 0.000000
0.000000 0.000000 0.000000
0.000000 0.000000 0.000000
0.000000 0.000000 0.000000
0.000000 0.000000 0.000000
0.000000 0.000000 0.000000
0.000000 0.000000 0.000000
0.000000 0.000000 0.000000
0.000000 0.000000 0.000000
0.000000 0.000000 0.000000
0.000000 0.000000 0.000000
0.000000 0.000000 0.000000
0.000000 0.000000 0.000000
0.000000 0.000000 0.000000
0.000000 0.000000 0.000000
0.000000 0.000000 0.000000
0.000000 0.000000 0.000000
0.000000 0.000000 0.000000
0.000000 0.000000 0.000000
0.000000 0.000000 0.000000
0.000000 0.000000 0.000000
0.000000 0.000000 0.000000
0.000000 0.000000 0.000000
0.000000 0.000000 0.000000
0.000000 0.000000 0.000000
0.000000 0.000000 0.000000
0.000000 0.000000 0.000000
0.000000 0.000000 0.000000
0.000000 0.000000 0.000000
0.000000 0.000000 0.000000
0.000000 0.000000 0.000000
0.000000 0.000000 0.000000
0.000000 0.000000 0.000000
0.000000 0.000000 0.000000
0.000000 0.000000 0.000000
0.000000 0.000000 0.000000
0.000000 0.000000 0.000000
0.000000 0.000000 0.000000
0.000000 0.000000 0.000000
0.000000 0.000000 0.000000
0.000000 0.000000 0.000000
0.000000 0.000000 0.000000
0.000000 0.000000 0.000000
0.000000 0.000000 0.000000
0.000000 0.000000 0.000000
0.000000 0.000000 0.000000
0.000000 0.000000 0.000000
0.000000 0.000000 0.000000
0.000000 0.000000 0.000000
0.000000 0.000000 0.000000
0.000000 0.000000 0.000000
0.000000 0.000000 0.000000
0.000000 0.000000 0.000000
0.000000 0.000000 0.000000
0.000000 0.000000 0.000000
0.000000 0.000000 0.000000
0.000000 0.000000 0.000000
0.000000 0.000000 0.000000
0.000000 0.000000 0.000000
0.000000 0.000000 0.000000
0.000000 0.000000 0.000000
0.000000 0.000000 0.000000
0.000000 0.000000 0.000000
0.000000 0.000000 0.000000
0.000000 0.000000 0.000000
0.000000 0.000000 0.000000
0.000000 0.000000 0.000000
