beta_Ti
1.0
6.309760 0.000000 0.000000
0.000000 9.464640 0.000000
0.000000 0.000000 16.000004
Ti
36
direct
0.875000 0.041667 0.500000 Ti
0.375000 0.041667 0.500000 Ti
0.875000 0.041667 0.687500 Ti
0.375000 0.041667 0.687500 Ti
0.875000 0.041667 0.875000 Ti
0.375000 0.041667 0.875000 Ti
0.875000 0.375000 0.500000 Ti
0.375000 0.375000 0.500000 Ti
0.875000 0.375000 0.687500 Ti
0.375000 0.375000 0.687500 Ti
0.875000 0.375000 0.875000 Ti
0.375000 0.375000 0.875000 Ti
0.875000 0.708333 0.500000 Ti
0.375000 0.708333 0.500000 Ti
0.875000 0.708333 0.687500 Ti
0.375000 0.708333 0.687500 Ti
0.875000 0.708333 0.875000 Ti
0.375000 0.708333 0.875000 Ti
0.125000 0.208333 0.593750 Ti
0.625000 0.208333 0.593750 Ti
0.125000 0.208333 0.781250 Ti
0.625000 0.208333 0.781250 Ti
0.125000 0.208333 0.968750 Ti
0.625000 0.208333 0.968750 Ti
0.125000 0.541667 0.593750 Ti
0.625000 0.541667 0.593750 Ti
0.125000 0.541667 0.781250 Ti
0.625000 0.541667 0.781250 Ti
0.125000 0.541667 0.968750 Ti
0.625000 0.541667 0.968750 Ti
0.125000 0.875000 0.593750 Ti
0.625000 0.875000 0.593750 Ti
0.125000 0.875000 0.781250 Ti
0.625000 0.875000 0.781250 Ti
0.125000 0.875000 0.968750 Ti
0.625000 0.875000 0.968750 Ti
