Ti67
1.0
6.309760 0.000000 0.000000
0.000000 9.464640 0.000000
0.000000 0.000000 18.918326
Ti
67
Selective dynamics
direct
0.126652 0.032341 0.506335 F F F Ti
0.628681 0.042049 0.500771 F F F Ti
0.125455 0.040951 0.659973 F F F Ti
0.625114 0.041451 0.659514 F F F Ti
0.125088 0.041586 0.817751 F F F Ti
0.624975 0.041651 0.817730 F F F Ti
0.626747 0.375400 0.501287 F F F Ti
0.125219 0.374755 0.658935 F F F Ti
0.625240 0.375039 0.659175 F F F Ti
0.125104 0.374912 0.817541 F F F Ti
0.625080 0.374957 0.817591 F F F Ti
0.125273 0.709494 0.500283 F F F Ti
0.623289 0.709557 0.500490 F F F Ti
0.125279 0.707720 0.659198 F F F Ti
0.624570 0.707316 0.659432 F F F Ti
0.125047 0.708109 0.817641 F F F Ti
0.624937 0.708036 0.817698 F F F Ti
0.376404 0.207975 0.580129 F F F Ti
0.874865 0.208057 0.580615 F F F Ti
0.375263 0.208305 0.738452 F F F Ti
0.875055 0.208269 0.738524 F F F Ti
0.375031 0.208441 0.896861 F F F Ti
0.875078 0.208428 0.896865 F F F Ti
0.374752 0.541244 0.579583 F F F Ti
0.875301 0.541852 0.579759 F F F Ti
0.374941 0.541208 0.738358 F F F Ti
0.875266 0.541282 0.738387 F F F Ti
0.374986 0.541507 0.896795 F F F Ti
0.875086 0.541522 0.896787 F F F Ti
0.378404 0.873321 0.580886 F F F Ti
0.872476 0.872791 0.581048 F F F Ti
0.375425 0.874504 0.738705 F F F Ti
0.874728 0.874456 0.738709 F F F Ti
0.375061 0.875083 0.896897 F F F Ti
0.874975 0.875085 0.896887 F F F Ti
0.126492 0.628792 0.356484 F F F Ti
0.623865 0.631029 0.355948 F F F Ti
0.125370 0.626267 0.118788 F F F Ti
0.625153 0.626236 0.118734 F F F Ti
0.632897 0.128074 0.357229 F F F Ti
0.125745 0.126075 0.119213 F F F Ti
0.624973 0.125991 0.119140 F F F Ti
0.125336 0.375506 0.039670 F F F Ti
0.625094 0.375477 0.039656 F F F Ti
0.125171 0.875747 0.039803 F F F Ti
0.624988 0.875751 0.039801 F F F Ti
0.125579 0.380491 0.276936 F F F Ti
0.626073 0.377567 0.276475 F F F Ti
0.125326 0.877748 0.277857 F F F Ti
0.625641 0.878382 0.277483 F F F Ti
0.375127 0.876762 0.158761 F F F Ti
0.875455 0.876538 0.158590 F F F Ti
0.375250 0.376287 0.158459 F F F Ti
0.875538 0.376520 0.158200 F F F Ti
0.387233 0.385365 0.396182 F F F Ti
0.858852 0.391983 0.395923 F F F Ti
0.376640 0.877089 0.396995 F F F Ti
0.873989 0.874071 0.397101 F F F Ti
0.375735 0.627682 0.237442 F F F Ti
0.875145 0.627852 0.237411 F F F Ti
0.375093 0.625511 0.000131 F F F Ti
0.875080 0.625528 0.000123 F F F Ti
0.375389 0.127455 0.238610 F F F Ti
0.875566 0.127306 0.237561 F F F Ti
0.375152 0.125321 0.000320 F F F Ti
0.875183 0.125327 0.000339 F F F Ti
0.102022 0.178580 0.397616 T T T Ti

0.000000 0.000000 0.000000
0.000000 0.000000 0.000000
0.000000 0.000000 0.000000
0.000000 0.000000 0.000000
0.000000 0.000000 0.000000
0.000000 0.000000 0.000000
0.000000 0.000000 0.000000
0.000000 0.000000 0.000000
0.000000 0.000000 0.000000
0.000000 0.000000 0.000000
0.000000 0.000000 0.000000
0.000000 0.000000 0.000000
0.000000 0.000000 0.000000
0.000000 0.000000 0.000000
0.000000 0.000000 0.000000
0.000000 0.000000 0.000000
0.000000 0.000000 0.000000
0.000000 0.000000 0.000000
0.000000 0.000000 0.000000
0.000000 0.000000 0.000000
0.000000 0.000000 0.000000
0.000000 0.000000 0.000000
0.000000 0.000000 0.000000
0.000000 0.000000 0.000000
0.000000 0.000000 0.000000
0.000000 0.000000 0.000000
0.000000 0.000000 0.000000
0.000000 0.000000 0.000000
0.000000 0.000000 0.000000
0.000000 0.000000 0.000000
0.000000 0.000000 0.000000
0.000000 0.000000 0.000000
0.000000 0.000000 0.000000
0.000000 0.000000 0.000000
0.000000 0.000000 0.000000
0.000000 0.000000 0.000000
0.000000 0.000000 0.000000
0.000000 0.000000 0.000000
0.000000 0.000000 0.000000
0.000000 0.000000 0.000000
0.000000 0.000000 0.000000
0.000000 0.000000 0.000000
0.000000 0.000000 0.000000
0.000000 0.000000 0.000000
0.000000 0.000000 0.000000
0.000000 0.000000 0.000000
0.000000 0.000000 0.000000
0.000000 0.000000 0.000000
0.000000 0.000000 0.000000
0.000000 0.000000 0.000000
0.000000 0.000000 0.000000
0.000000 0.000000 0.000000
0.000000 0.000000 0.000000
0.000000 0.000000 0.000000
0.000000 0.000000 0.000000
0.000000 0.000000 0.000000
0.000000 0.000000 0.000000
0.000000 0.000000 0.000000
0.000000 0.000000 0.000000
0.000000 0.000000 0.000000
0.000000 0.000000 0.000000
0.000000 0.000000 0.000000
0.000000 0.000000 0.000000
0.000000 0.000000 0.000000
0.000000 0.000000 0.000000
0.000000 0.000000 0.000000
0.000000 0.000000 0.000000
