beta_Ti
1.0
5.745590 0.000000 0.000000
0.000000 9.072750 0.000000
0.000000 0.000000 21.667173
Ti
28
direct
0.458333 0.625000 0.623477 Ti
0.458333 0.125000 0.623477 Ti
0.958333 0.625000 0.623477 Ti
0.958333 0.125000 0.623477 Ti
0.125000 0.625000 0.746004 Ti
0.125000 0.125000 0.746004 Ti
0.625000 0.625000 0.746004 Ti
0.625000 0.125000 0.746004 Ti
0.291667 0.625000 0.868533 Ti
0.291667 0.125000 0.868533 Ti
0.791667 0.625000 0.868533 Ti
0.791667 0.125000 0.868533 Ti
0.125000 0.875000 0.562212 Ti
0.125000 0.375000 0.562212 Ti
0.625000 0.875000 0.562212 Ti
0.625000 0.375000 0.562212 Ti
0.291667 0.875000 0.684741 Ti
0.291667 0.375000 0.684741 Ti
0.791667 0.875000 0.684741 Ti
0.791667 0.375000 0.684741 Ti
0.458333 0.875000 0.807269 Ti
0.458333 0.375000 0.807269 Ti
0.958333 0.875000 0.807269 Ti
0.958333 0.375000 0.807269 Ti
0.125000 0.875000 0.929796 Ti
0.125000 0.375000 0.929796 Ti
0.625000 0.875000 0.929796 Ti
0.625000 0.375000 0.929796 Ti
