Ti96 Al1
1.0
9.513020 0.000000 0.000000
0.000000 9.350860 0.000000
0.000000 0.000000 18.547230
Ti Al
96 1
Selective dynamics
direct
0.153118 0.388428 0.405196 T T T Ti
0.656209 0.339018 0.421588 T T T Ti
0.130604 0.853961 0.418217 T T T Ti
0.646184 0.852395 0.398964 T T T Ti
0.139274 0.358693 0.243255 T T T Ti
0.657740 0.370184 0.236267 T T T Ti
0.170795 0.864130 0.236844 T T T Ti
0.684036 0.914598 0.232737 T T T Ti
0.166666 0.375000 0.077689 F F F Ti
0.666666 0.375000 0.077689 F F F Ti
0.166666 0.875000 0.077689 F F F Ti
0.666666 0.875000 0.077689 F F F Ti
0.406654 0.375488 0.326934 T T T Ti
0.893129 0.375773 0.330649 T T T Ti
0.355525 0.934475 0.343711 T T T Ti
0.914458 0.876634 0.316029 T T T Ti
0.416667 0.375000 0.155379 F F F Ti
0.916667 0.375000 0.155379 F F F Ti
0.416667 0.875000 0.155379 F F F Ti
0.916667 0.875000 0.155379 F F F Ti
0.416667 0.375000 0.000000 F F F Ti
0.916667 0.375000 0.000000 F F F Ti
0.416667 0.875000 0.000000 F F F Ti
0.916667 0.875000 0.000000 F F F Ti
0.106871 0.124227 0.330648 T T T Ti
0.593346 0.124512 0.326933 T T T Ti
0.085542 0.623366 0.316028 T T T Ti
0.644475 0.565525 0.343710 T T T Ti
0.083333 0.125000 0.155379 F F F Ti
0.583333 0.125000 0.155379 F F F Ti
0.083333 0.625000 0.155379 F F F Ti
0.583333 0.625000 0.155379 F F F Ti
0.083333 0.125000 0.000000 F F F Ti
0.583333 0.125000 0.000000 F F F Ti
0.083333 0.625000 0.000000 F F F Ti
0.583333 0.625000 0.000000 F F F Ti
0.343790 0.160982 0.421588 T T T Ti
0.846881 0.111572 0.405196 T T T Ti
0.353815 0.647605 0.398964 T T T Ti
0.869395 0.646039 0.418217 T T T Ti
0.342259 0.129816 0.236267 T T T Ti
0.860725 0.141307 0.243255 T T T Ti
0.315963 0.585402 0.232737 T T T Ti
0.829204 0.635870 0.236844 T T T Ti
0.333333 0.125000 0.077689 F F F Ti
0.833333 0.125000 0.077689 F F F Ti
0.333333 0.625000 0.077689 F F F Ti
0.833333 0.625000 0.077689 F F F Ti
0.375000 0.375000 0.823738 F F F Ti
0.875000 0.375000 0.823738 F F F Ti
0.375000 0.875000 0.823738 F F F Ti
0.875000 0.875000 0.823738 F F F Ti
0.125000 0.125000 0.823738 F F F Ti
0.625000 0.125000 0.823738 F F F Ti
0.125000 0.625000 0.823738 F F F Ti
0.625000 0.625000 0.823738 F F F Ti
0.125000 0.375000 0.910084 F F F Ti
0.625000 0.375000 0.910084 F F F Ti
0.125000 0.875000 0.910084 F F F Ti
0.625000 0.875000 0.910084 F F F Ti
0.375000 0.125000 0.910084 F F F Ti
0.875000 0.125000 0.910084 F F F Ti
0.375000 0.625000 0.910084 F F F Ti
0.875000 0.625000 0.910084 F F F Ti
0.395166 0.385068 0.656660 T T T Ti
0.898429 0.379188 0.653527 T T T Ti
0.399510 0.884243 0.651513 T T T Ti
0.895005 0.884599 0.655308 T T T Ti
0.101571 0.120812 0.653527 T T T Ti
0.604834 0.114932 0.656660 T T T Ti
0.104995 0.615401 0.655308 T T T Ti
0.600490 0.615757 0.651513 T T T Ti
0.154489 0.362843 0.572304 T T T Ti
0.644686 0.360225 0.575889 T T T Ti
0.150951 0.870387 0.578828 T T T Ti
0.652810 0.864694 0.574919 T T T Ti
0.355314 0.139775 0.575889 T T T Ti
0.845511 0.137157 0.572304 T T T Ti
0.347190 0.635306 0.574919 T T T Ti
0.849049 0.629613 0.578828 T T T Ti
0.403395 0.402895 0.489691 T T T Ti
0.904330 0.378732 0.489108 T T T Ti
0.393185 0.884728 0.493661 T T T Ti
0.900707 0.885366 0.500774 T T T Ti
0.095670 0.121268 0.489108 T T T Ti
0.596605 0.097105 0.489691 T T T Ti
0.099293 0.614634 0.500774 T T T Ti
0.606815 0.615272 0.493661 T T T Ti
0.125000 0.875000 0.737395 F F F Ti
0.625000 0.875000 0.737395 F F F Ti
0.375000 0.625000 0.737395 F F F Ti
0.875000 0.625000 0.737395 F F F Ti
0.125000 0.375000 0.737395 F F F Ti
0.625000 0.375000 0.737395 F F F Ti
0.375000 0.125000 0.737395 F F F Ti
0.875000 0.125000 0.737395 F F F Ti
0.500000 0.750000 0.279636 T T T Al

0.000000 0.000000 0.000000
0.000000 0.000000 0.000000
0.000000 0.000000 0.000000
0.000000 0.000000 0.000000
0.000000 0.000000 0.000000
0.000000 0.000000 0.000000
0.000000 0.000000 0.000000
0.000000 0.000000 0.000000
0.000000 0.000000 0.000000
0.000000 0.000000 0.000000
0.000000 0.000000 0.000000
0.000000 0.000000 0.000000
0.000000 0.000000 0.000000
0.000000 0.000000 0.000000
0.000000 0.000000 0.000000
0.000000 0.000000 0.000000
0.000000 0.000000 0.000000
0.000000 0.000000 0.000000
0.000000 0.000000 0.000000
0.000000 0.000000 0.000000
0.000000 0.000000 0.000000
0.000000 0.000000 0.000000
0.000000 0.000000 0.000000
0.000000 0.000000 0.000000
0.000000 0.000000 0.000000
0.000000 0.000000 0.000000
0.000000 0.000000 0.000000
0.000000 0.000000 0.000000
0.000000 0.000000 0.000000
0.000000 0.000000 0.000000
0.000000 0.000000 0.000000
0.000000 0.000000 0.000000
0.000000 0.000000 0.000000
0.000000 0.000000 0.000000
0.000000 0.000000 0.000000
0.000000 0.000000 0.000000
0.000000 0.000000 0.000000
0.000000 0.000000 0.000000
0.000000 0.000000 0.000000
0.000000 0.000000 0.000000
0.000000 0.000000 0.000000
0.000000 0.000000 0.000000
0.000000 0.000000 0.000000
0.000000 0.000000 0.000000
0.000000 0.000000 0.000000
0.000000 0.000000 0.000000
0.000000 0.000000 0.000000
0.000000 0.000000 0.000000
0.000000 0.000000 0.000000
0.000000 0.000000 0.000000
0.000000 0.000000 0.000000
0.000000 0.000000 0.000000
0.000000 0.000000 0.000000
0.000000 0.000000 0.000000
0.000000 0.000000 0.000000
0.000000 0.000000 0.000000
0.000000 0.000000 0.000000
0.000000 0.000000 0.000000
0.000000 0.000000 0.000000
0.000000 0.000000 0.000000
0.000000 0.000000 0.000000
0.000000 0.000000 0.000000
0.000000 0.000000 0.000000
0.000000 0.000000 0.000000
0.000000 0.000000 0.000000
0.000000 0.000000 0.000000
0.000000 0.000000 0.000000
0.000000 0.000000 0.000000
0.000000 0.000000 0.000000
0.000000 0.000000 0.000000
0.000000 0.000000 0.000000
0.000000 0.000000 0.000000
0.000000 0.000000 0.000000
0.000000 0.000000 0.000000
0.000000 0.000000 0.000000
0.000000 0.000000 0.000000
0.000000 0.000000 0.000000
0.000000 0.000000 0.000000
0.000000 0.000000 0.000000
0.000000 0.000000 0.000000
0.000000 0.000000 0.000000
0.000000 0.000000 0.000000
0.000000 0.000000 0.000000
0.000000 0.000000 0.000000
0.000000 0.000000 0.000000
0.000000 0.000000 0.000000
0.000000 0.000000 0.000000
0.000000 0.000000 0.000000
0.000000 0.000000 0.000000
0.000000 0.000000 0.000000
0.000000 0.000000 0.000000
0.000000 0.000000 0.000000
0.000000 0.000000 0.000000
0.000000 0.000000 0.000000
0.000000 0.000000 0.000000
0.000000 0.000000 0.000000
0.000000 0.000000 0.000000
