beta_Ti
1.0
9.445957 0.000000 0.000000
0.000000 9.093951 0.000000
0.000000 0.000000 26.211864
Ti
48
direct
0.375000 0.375000 0.729074 Ti
0.875000 0.375000 0.729074 Ti
0.375000 0.875000 0.729074 Ti
0.875000 0.875000 0.729074 Ti
0.125000 0.125000 0.729074 Ti
0.625000 0.125000 0.729074 Ti
0.125000 0.625000 0.729074 Ti
0.625000 0.625000 0.729074 Ti
0.125000 0.375000 0.790171 Ti
0.625000 0.375000 0.790171 Ti
0.125000 0.875000 0.790171 Ti
0.625000 0.875000 0.790171 Ti
0.375000 0.125000 0.790171 Ti
0.875000 0.125000 0.790171 Ti
0.375000 0.625000 0.790171 Ti
0.875000 0.625000 0.790171 Ti
0.375000 0.375000 0.606881 Ti
0.875000 0.375000 0.606881 Ti
0.375000 0.875000 0.606881 Ti
0.875000 0.875000 0.606881 Ti
0.125000 0.125000 0.606881 Ti
0.625000 0.125000 0.606881 Ti
0.125000 0.625000 0.606881 Ti
0.625000 0.625000 0.606881 Ti
0.125000 0.375000 0.545785 Ti
0.625000 0.375000 0.545785 Ti
0.125000 0.875000 0.545785 Ti
0.625000 0.875000 0.545785 Ti
0.375000 0.125000 0.545785 Ti
0.875000 0.125000 0.545785 Ti
0.375000 0.625000 0.545785 Ti
0.875000 0.625000 0.545785 Ti
0.375000 0.375000 0.484689 Ti
0.875000 0.375000 0.484689 Ti
0.375000 0.875000 0.484689 Ti
0.875000 0.875000 0.484689 Ti
0.125000 0.125000 0.484689 Ti
0.625000 0.125000 0.484689 Ti
0.125000 0.625000 0.484689 Ti
0.625000 0.625000 0.484689 Ti
0.125000 0.875000 0.667978 Ti
0.625000 0.875000 0.667978 Ti
0.375000 0.625000 0.667978 Ti
0.875000 0.625000 0.667978 Ti
0.125000 0.375000 0.667978 Ti
0.625000 0.375000 0.667978 Ti
0.375000 0.125000 0.667978 Ti
0.875000 0.125000 0.667978 Ti
