Ti96 Sn1
1.0
9.513020 0.000000 0.000000
0.000000 9.350860 0.000000
0.000000 0.000000 18.547230
Ti Sn
96 1
Selective dynamics
direct
0.148032 0.377925 0.403600 T T T Ti
0.644706 0.331987 0.408880 T T T Ti
0.116787 0.852919 0.402156 T T T Ti
0.691978 0.879049 0.392583 T T T Ti
0.156230 0.366867 0.236703 T T T Ti
0.659344 0.372716 0.234571 T T T Ti
0.165813 0.871783 0.233956 T T T Ti
0.662304 0.882547 0.234036 T T T Ti
0.166621 0.374996 0.077524 F F F Ti
0.666715 0.374962 0.077471 F F F Ti
0.166807 0.874982 0.077519 F F F Ti
0.666650 0.875072 0.077500 F F F Ti
0.408745 0.382495 0.316338 T T T Ti
0.896572 0.372837 0.322970 T T T Ti
0.374023 0.913119 0.334392 T T T Ti
0.917669 0.885580 0.307174 T T T Ti
0.416716 0.374828 0.155072 F F F Ti
0.916598 0.374864 0.155052 F F F Ti
0.416612 0.874932 0.155322 F F F Ti
0.916862 0.875263 0.154995 F F F Ti
0.416669 0.375013 -0.000099 F F F Ti
0.916635 0.374986 -0.000118 F F F Ti
0.416697 0.874978 -0.000036 F F F Ti
0.916684 0.875012 -0.000129 F F F Ti
0.103428 0.127164 0.322968 T T T Ti
0.591255 0.117506 0.316337 T T T Ti
0.082331 0.614422 0.307174 T T T Ti
0.625977 0.586882 0.334391 T T T Ti
0.083402 0.125157 0.155050 F F F Ti
0.583287 0.125195 0.155070 F F F Ti
0.083136 0.624763 0.154997 F F F Ti
0.583390 0.625081 0.155321 F F F Ti
0.083368 0.125019 -0.000119 F F F Ti
0.583332 0.124997 -0.000098 F F F Ti
0.083316 0.625000 -0.000128 F F F Ti
0.583306 0.625029 -0.000037 F F F Ti
0.355293 0.168014 0.408880 T T T Ti
0.851967 0.122075 0.403600 T T T Ti
0.308021 0.620952 0.392583 T T T Ti
0.883212 0.647081 0.402156 T T T Ti
0.340656 0.127289 0.234571 T T T Ti
0.843769 0.133138 0.236703 T T T Ti
0.337695 0.617458 0.234036 T T T Ti
0.834185 0.628223 0.233956 T T T Ti
0.333285 0.125054 0.077471 F F F Ti
0.833379 0.125019 0.077524 F F F Ti
0.333349 0.624948 0.077500 F F F Ti
0.833192 0.625037 0.077518 F F F Ti
0.374977 0.375096 0.823828 F F F Ti
0.874960 0.375017 0.823931 F F F Ti
0.375043 0.874913 0.823773 F F F Ti
0.875011 0.874996 0.823740 F F F Ti
0.125048 0.124972 0.823932 F F F Ti
0.625025 0.124891 0.823829 F F F Ti
0.124995 0.624992 0.823742 F F F Ti
0.624969 0.625083 0.823773 F F F Ti
0.125065 0.375113 0.910082 F F F Ti
0.624965 0.375106 0.910055 F F F Ti
0.125093 0.874921 0.910044 F F F Ti
0.624981 0.874944 0.909996 F F F Ti
0.375044 0.124888 0.910056 F F F Ti
0.874943 0.124881 0.910083 F F F Ti
0.375025 0.625054 0.909997 F F F Ti
0.874911 0.625075 0.910042 F F F Ti
0.394472 0.385819 0.659742 T T T Ti
0.891600 0.378438 0.648425 T T T Ti
0.390787 0.892215 0.645640 T T T Ti
0.884152 0.886210 0.668700 T T T Ti
0.108397 0.121555 0.648425 T T T Ti
0.605525 0.114175 0.659741 T T T Ti
0.115846 0.613781 0.668701 T T T Ti
0.609210 0.607777 0.645641 T T T Ti
0.152076 0.372838 0.574438 T T T Ti
0.638999 0.340983 0.571872 T T T Ti
0.123569 0.856712 0.585799 T T T Ti
0.659340 0.865680 0.578953 T T T Ti
0.361000 0.159015 0.571871 T T T Ti
0.847923 0.127160 0.574438 T T T Ti
0.340659 0.634317 0.578954 T T T Ti
0.876431 0.643285 0.585798 T T T Ti
0.407990 0.414842 0.487970 T T T Ti
0.901241 0.368614 0.487335 T T T Ti
0.318981 0.926943 0.492300 T T T Ti
0.905549 0.895394 0.495475 T T T Ti
0.098758 0.131386 0.487334 T T T Ti
0.592009 0.085157 0.487970 T T T Ti
0.094451 0.604605 0.495475 T T T Ti
0.681018 0.573057 0.492300 T T T Ti
0.124976 0.874851 0.737687 F F F Ti
0.625337 0.875065 0.737524 F F F Ti
0.374658 0.624918 0.737528 F F F Ti
0.875010 0.625121 0.737684 F F F Ti
0.125074 0.375087 0.737749 F F F Ti
0.624863 0.374929 0.737766 F F F Ti
0.375122 0.125032 0.737763 F F F Ti
0.874912 0.124878 0.737752 F F F Ti
0.500000 0.750000 0.431397 T T T Sn

0.000000 0.000000 0.000000
0.000000 0.000000 0.000000
0.000000 0.000000 0.000000
0.000000 0.000000 0.000000
0.000000 0.000000 0.000000
0.000000 0.000000 0.000000
0.000000 0.000000 0.000000
0.000000 0.000000 0.000000
0.000000 0.000000 0.000000
0.000000 0.000000 0.000000
0.000000 0.000000 0.000000
0.000000 0.000000 0.000000
0.000000 0.000000 0.000000
0.000000 0.000000 0.000000
0.000000 0.000000 0.000000
0.000000 0.000000 0.000000
0.000000 0.000000 0.000000
0.000000 0.000000 0.000000
0.000000 0.000000 0.000000
0.000000 0.000000 0.000000
0.000000 0.000000 0.000000
0.000000 0.000000 0.000000
0.000000 0.000000 0.000000
0.000000 0.000000 0.000000
0.000000 0.000000 0.000000
0.000000 0.000000 0.000000
0.000000 0.000000 0.000000
0.000000 0.000000 0.000000
0.000000 0.000000 0.000000
0.000000 0.000000 0.000000
0.000000 0.000000 0.000000
0.000000 0.000000 0.000000
0.000000 0.000000 0.000000
0.000000 0.000000 0.000000
0.000000 0.000000 0.000000
0.000000 0.000000 0.000000
0.000000 0.000000 0.000000
0.000000 0.000000 0.000000
0.000000 0.000000 0.000000
0.000000 0.000000 0.000000
0.000000 0.000000 0.000000
0.000000 0.000000 0.000000
0.000000 0.000000 0.000000
0.000000 0.000000 0.000000
0.000000 0.000000 0.000000
0.000000 0.000000 0.000000
0.000000 0.000000 0.000000
0.000000 0.000000 0.000000
0.000000 0.000000 0.000000
0.000000 0.000000 0.000000
0.000000 0.000000 0.000000
0.000000 0.000000 0.000000
0.000000 0.000000 0.000000
0.000000 0.000000 0.000000
0.000000 0.000000 0.000000
0.000000 0.000000 0.000000
0.000000 0.000000 0.000000
0.000000 0.000000 0.000000
0.000000 0.000000 0.000000
0.000000 0.000000 0.000000
0.000000 0.000000 0.000000
0.000000 0.000000 0.000000
0.000000 0.000000 0.000000
0.000000 0.000000 0.000000
0.000000 0.000000 0.000000
0.000000 0.000000 0.000000
0.000000 0.000000 0.000000
0.000000 0.000000 0.000000
0.000000 0.000000 0.000000
0.000000 0.000000 0.000000
0.000000 0.000000 0.000000
0.000000 0.000000 0.000000
0.000000 0.000000 0.000000
0.000000 0.000000 0.000000
0.000000 0.000000 0.000000
0.000000 0.000000 0.000000
0.000000 0.000000 0.000000
0.000000 0.000000 0.000000
0.000000 0.000000 0.000000
0.000000 0.000000 0.000000
0.000000 0.000000 0.000000
0.000000 0.000000 0.000000
0.000000 0.000000 0.000000
0.000000 0.000000 0.000000
0.000000 0.000000 0.000000
0.000000 0.000000 0.000000
0.000000 0.000000 0.000000
0.000000 0.000000 0.000000
0.000000 0.000000 0.000000
0.000000 0.000000 0.000000
0.000000 0.000000 0.000000
0.000000 0.000000 0.000000
0.000000 0.000000 0.000000
0.000000 0.000000 0.000000
0.000000 0.000000 0.000000
0.000000 0.000000 0.000000
0.000000 0.000000 0.000000
