Ti66 Cr1
1.0
6.309760 0.000000 0.000000
0.000000 9.464640 0.000000
0.000000 0.000000 18.918326
Ti Cr
66 1
Selective dynamics
direct
0.117343 0.037628 0.496028 F F F Ti
0.624955 0.040615 0.499564 F F F Ti
0.632911 0.039782 0.659617 F F F Ti
0.125366 0.041893 0.817384 F F F Ti
0.626234 0.041411 0.817646 F F F Ti
0.123367 0.375772 0.499662 F F F Ti
0.622819 0.374933 0.499970 F F F Ti
0.120958 0.381075 0.659861 F F F Ti
0.624876 0.375709 0.659017 F F F Ti
0.124594 0.375846 0.817756 F F F Ti
0.626346 0.376034 0.817856 F F F Ti
0.124411 0.707417 0.499664 F F F Ti
0.625673 0.707294 0.499550 F F F Ti
0.125202 0.709095 0.658570 F F F Ti
0.625572 0.708171 0.658780 F F F Ti
0.125137 0.708766 0.817322 F F F Ti
0.625290 0.708795 0.817426 F F F Ti
0.866611 0.210323 0.578406 F F F Ti
0.380048 0.211336 0.741173 F F F Ti
0.875303 0.209209 0.738245 F F F Ti
0.375224 0.208578 0.896937 F F F Ti
0.875125 0.208427 0.896649 F F F Ti
0.374782 0.541379 0.579361 F F F Ti
0.873864 0.542210 0.579196 F F F Ti
0.375489 0.542666 0.738289 F F F Ti
0.874127 0.542741 0.738331 F F F Ti
0.375079 0.542081 0.896688 F F F Ti
0.875047 0.542091 0.896707 F F F Ti
0.379117 0.869008 0.578066 F F F Ti
0.874985 0.874301 0.578988 F F F Ti
0.376272 0.874644 0.738229 F F F Ti
0.876948 0.875166 0.737960 F F F Ti
0.375078 0.875067 0.896645 F F F Ti
0.875348 0.875061 0.896590 F F F Ti
0.124928 0.624447 0.356727 F F F Ti
0.624464 0.624383 0.356689 F F F Ti
0.124990 0.624926 0.119011 F F F Ti
0.624933 0.624928 0.119008 F F F Ti
0.124828 0.125073 0.356111 F F F Ti
0.624519 0.124914 0.356600 F F F Ti
0.124940 0.124979 0.118997 F F F Ti
0.624930 0.124982 0.118989 F F F Ti
0.124931 0.375042 0.039738 F F F Ti
0.625024 0.375054 0.039755 F F F Ti
0.124958 0.874975 0.039696 F F F Ti
0.625041 0.874957 0.039704 F F F Ti
0.124849 0.374997 0.277388 F F F Ti
0.624757 0.374904 0.277416 F F F Ti
0.124903 0.874728 0.277267 F F F Ti
0.624784 0.874809 0.277260 F F F Ti
0.374996 0.874899 0.158515 F F F Ti
0.874910 0.874904 0.158513 F F F Ti
0.375000 0.374982 0.158564 F F F Ti
0.874977 0.374991 0.158561 F F F Ti
0.374552 0.374684 0.396352 F F F Ti
0.874171 0.374940 0.396270 F F F Ti
0.375413 0.874230 0.395910 F F F Ti
0.873666 0.873963 0.395770 F F F Ti
0.374942 0.624808 0.237839 F F F Ti
0.874900 0.624809 0.237838 F F F Ti
0.374985 0.625060 0.000151 F F F Ti
0.875006 0.625063 0.000151 F F F Ti
0.375071 0.124949 0.237729 F F F Ti
0.874709 0.124961 0.237719 F F F Ti
0.374999 0.124910 0.000238 F F F Ti
0.874950 0.124985 0.000124 F F F Ti
0.250565 0.129243 0.615777 T T T Cr

0.000000 0.000000 0.000000
0.000000 0.000000 0.000000
0.000000 0.000000 0.000000
0.000000 0.000000 0.000000
0.000000 0.000000 0.000000
0.000000 0.000000 0.000000
0.000000 0.000000 0.000000
0.000000 0.000000 0.000000
0.000000 0.000000 0.000000
0.000000 0.000000 0.000000
0.000000 0.000000 0.000000
0.000000 0.000000 0.000000
0.000000 0.000000 0.000000
0.000000 0.000000 0.000000
0.000000 0.000000 0.000000
0.000000 0.000000 0.000000
0.000000 0.000000 0.000000
0.000000 0.000000 0.000000
0.000000 0.000000 0.000000
0.000000 0.000000 0.000000
0.000000 0.000000 0.000000
0.000000 0.000000 0.000000
0.000000 0.000000 0.000000
0.000000 0.000000 0.000000
0.000000 0.000000 0.000000
0.000000 0.000000 0.000000
0.000000 0.000000 0.000000
0.000000 0.000000 0.000000
0.000000 0.000000 0.000000
0.000000 0.000000 0.000000
0.000000 0.000000 0.000000
0.000000 0.000000 0.000000
0.000000 0.000000 0.000000
0.000000 0.000000 0.000000
0.000000 0.000000 0.000000
0.000000 0.000000 0.000000
0.000000 0.000000 0.000000
0.000000 0.000000 0.000000
0.000000 0.000000 0.000000
0.000000 0.000000 0.000000
0.000000 0.000000 0.000000
0.000000 0.000000 0.000000
0.000000 0.000000 0.000000
0.000000 0.000000 0.000000
0.000000 0.000000 0.000000
0.000000 0.000000 0.000000
0.000000 0.000000 0.000000
0.000000 0.000000 0.000000
0.000000 0.000000 0.000000
0.000000 0.000000 0.000000
0.000000 0.000000 0.000000
0.000000 0.000000 0.000000
0.000000 0.000000 0.000000
0.000000 0.000000 0.000000
0.000000 0.000000 0.000000
0.000000 0.000000 0.000000
0.000000 0.000000 0.000000
0.000000 0.000000 0.000000
0.000000 0.000000 0.000000
0.000000 0.000000 0.000000
0.000000 0.000000 0.000000
0.000000 0.000000 0.000000
0.000000 0.000000 0.000000
0.000000 0.000000 0.000000
0.000000 0.000000 0.000000
0.000000 0.000000 0.000000
0.000000 0.000000 0.000000
