alpha_Ti
1.0
4.756512 0.000000 0.000000
0.000000 4.675432 0.000000
0.000000 0.000000 20.511800
Ti
12
direct
0.333333 0.750000 0.351242 Ti
0.333333 0.750000 0.210745 Ti
0.333333 0.750000 0.070248 Ti
0.833334 0.750000 0.280993 Ti
0.833334 0.750000 0.140497 Ti
0.833334 0.750000 -0.000000 Ti
0.166666 0.250000 0.280993 Ti
0.166666 0.250000 0.140497 Ti
0.166666 0.250000 -0.000000 Ti
0.666667 0.250000 0.351242 Ti
0.666667 0.250000 0.210745 Ti
0.666667 0.250000 0.070248 Ti
