substance_top
1.0
   3.5062000000000002    0.0000000000000000    0.0000000000000002
   0.0000000000000019   12.0001999999999995    0.0000000000000007
   0.0000000000000000    0.0000000000000000   29.0149410619999983
Fe
36
Selective dynamics
direct
   0.1415300000000000    0.7221700000000000    0.8006366278449619 F F F Fe
   0.6415299999999999    0.5580400000000000    0.7877399944104702 F F F Fe
   0.6415299999999999    0.7428899999999999    0.7482609120455500 F F F Fe
   0.1415300000000000    0.5787500000000000    0.7353642786110582 F F F Fe
   0.1415300000000000    0.3939000000000000    0.7748333713296308 F F F Fe
   0.6415300000000000    0.2297700000000000    0.7619367378951390 F F F Fe
   0.6415300000000000    0.4146200000000000    0.7224576555302189 F F F Fe
   0.1415300000000000    0.2504800000000000    0.7095610220957270 F F F Fe
   0.1415300000000000    0.0656300000000000    0.7490301148142997 F F F Fe
   0.6415300000000000    0.9015000000000000    0.7361334813798078 F F F Fe
   0.6415300000000000    0.0863500000000000    0.6966543990148878 F F F Fe
   0.1415300000000000    0.9222099999999999    0.6837577655803959 F F F Fe
   0.1415300000000000    0.7635999999999999    0.6958951858924856 F F F Fe
   0.6415300000000000    0.5994699999999999    0.6829885628116463 F F F Fe
   0.6415299999999999    0.7843100000000000    0.6435194700930735 F F F Fe
   0.1415300000000000    0.6201800000000000    0.6306128470122342 F F F Fe
   0.1415300000000000    0.4353300000000000    0.6700919293771543 F F F Fe
   0.6415300000000000    0.2712000000000000    0.6571853062963151 F F F Fe
   0.6415300000000000    0.4560500000000000    0.6177162135777424 F F F Fe
   0.1415300000000000    0.2919100000000000    0.6048095904969032 F F F Fe
   0.1415300000000000    0.1070600000000000    0.6442886728618233 F F F Fe
   0.6415299999999999    0.9429300000000000    0.6313820497809840 F F F Fe
   0.6415300000000000    0.1277800000000000    0.5919129570624112 T T T Fe
   0.1415300000000000    0.9636399999999999    0.5790063339815720 T T T Fe
   0.1415300000000000    0.8050300000000000    0.5911437542936616 T T T Fe
   0.6415300000000000    0.6408900000000000    0.5782471208591697 T T T Fe
   0.6415300000000000    0.8257400000000000    0.5387680384942498 T T T Fe
   0.1415300000000000    0.6616100000000000    0.5258714050597578 T T T Fe
   0.1415300000000000    0.4767600000000000    0.5653404977783305 T T T Fe
   0.6415299999999999    0.3126200000000000    0.5524438643438386 T T T Fe
   0.6415300000000000    0.4974700000000000    0.5129647819789186 T T T Fe
   0.1415300000000000    0.3333333333333333    0.5000681485444267 T T T Fe
   0.1415300000000000    0.1484900000000000    0.5395372412629994 T T T Fe
   0.6415299999999999    0.9843499999999999    0.5266406078285075 T T T Fe
   0.6415300000000000    0.1692000000000000    0.4871615254635874 T T T Fe
   0.1415300000000000    0.0050700000000000    0.4742648920290956 T T T Fe
