substance_top
1.0
   3.5061499999999999    0.0000000000000000    0.0000000000000002
   0.0000000000000019   12.0001999999999995    0.0000000000000007
   0.0000000000000000    0.0000000000000000   26.8716049620000028
Fe
36
Selective dynamics
direct
   0.9933200000000000    0.7184400000000000    0.6278568055335196 F F F Fe
   0.4933200000000000    0.5543100000000000    0.6149380159974680 F F F Fe
   0.4933200000000000    0.7391600000000000    0.5753911095323432 F F F Fe
   0.9933200000000000    0.5750200000000000    0.5624723199962915 F F F Fe
   0.9933200000000001    0.3901700000000000    0.6020092196531003 F F F Fe
   0.4933200000000000    0.2260400000000000    0.5890904301170485 F F F Fe
   0.4933200000000000    0.4108899999999999    0.5495435236519237 F F F Fe
   0.9933200000000001    0.2467500000000000    0.5366247341158721 F F F Fe
   0.9933200000000000    0.0619000000000000    0.5761616337726808 F F F Fe
   0.4933200000000000    0.8977699999999998    0.5632428442366293 F F F Fe
   0.4933200000000000    0.0826200000000000    0.5236959377715044 F F F Fe
   0.9933200000000000    0.9184800000000000    0.5107771482354526 F F F Fe
   0.9933200000000000    0.7598700000000000    0.5229354203394826 F F F Fe
   0.4933200000000000    0.5957300000000000    0.5100066239951149 F F F Fe
   0.4933200000000000    0.7805800000000001    0.4704697243383061 F F F Fe
   0.9933200000000001    0.6164500000000001    0.4575409279939383 F F F Fe
   0.9933200000000001    0.4315999999999999    0.4970878344590632 F F F Fe
   0.4933200000000000    0.2674600000000000    0.4841590381146955 F F F Fe
   0.4933200000000000    0.4523100000000000    0.4446221384578867 F F F Fe
   0.9933200000000001    0.2881800000000000    0.4316933421135190 F F F Fe
   0.9933199999999999    0.1033300000000000    0.4712402485786438 F F F Fe
   0.4933200000000000    0.9391999999999999    0.4583114522342759 F F F Fe
   0.4933200000000000    0.1240400000000000    0.4187745525774672 F F F Fe
   0.9933200000000000    0.9599100000000000    0.4058457562330994 F F F Fe
   0.9933200000000000    0.8013000000000000    0.4180040283371295 F F F Fe
   0.4933200000000000    0.6371599999999998    0.4050852388010779 F F F Fe
   0.4933200000000000    0.8220099999999999    0.3655383323359530 F F F Fe
   0.9933200000000001    0.6578799999999999    0.3526195427999013 F F F Fe
   0.9933200000000001    0.4730300000000000    0.3921564424567101 F F F Fe
   0.4933200000000000    0.3088900000000000    0.3792376529206584 F F F Fe
   0.4933200000000000    0.4937400000000000    0.3396907464555335 F F F Fe
   0.9933200000000000    0.3296100000000000    0.3267719569194819 F F F Fe
   0.9933200000000001    0.1447600000000000    0.3663088565762907 F F F Fe
   0.4933200000000000    0.9806200000000000    0.3533900670402389 F F F Fe
   0.4933200000000000    0.1654700000000000    0.3138431605751141 F F F Fe
   0.9933200000000000    0.0013400000000000    0.3009243710390625 F F F Fe
