beta_Ti
1.0
6.391540 0.000000 0.000000
0.000000 9.587310 0.000000
0.000000 0.000000 21.750000
Ti
36
direct
0.125000 0.083333 0.586207 Ti
0.625000 0.083333 0.586207 Ti
0.125000 0.083333 0.724138 Ti
0.625000 0.083333 0.724138 Ti
0.125000 0.083333 0.862069 Ti
0.625000 0.083333 0.862069 Ti
0.125000 0.416667 0.586207 Ti
0.625000 0.416667 0.586207 Ti
0.125000 0.416667 0.724138 Ti
0.625000 0.416667 0.724138 Ti
0.125000 0.416667 0.862069 Ti
0.625000 0.416667 0.862069 Ti
0.125000 0.750000 0.586207 Ti
0.625000 0.750000 0.586207 Ti
0.125000 0.750000 0.724138 Ti
0.625000 0.750000 0.724138 Ti
0.125000 0.750000 0.862069 Ti
0.625000 0.750000 0.862069 Ti
0.375000 0.250000 0.655172 Ti
0.875000 0.250000 0.655172 Ti
0.375000 0.250000 0.793103 Ti
0.875000 0.250000 0.793103 Ti
0.375000 0.250000 0.931034 Ti
0.875000 0.250000 0.931034 Ti
0.375000 0.583333 0.655172 Ti
0.875000 0.583333 0.655172 Ti
0.375000 0.583333 0.793103 Ti
0.875000 0.583333 0.793103 Ti
0.375000 0.583333 0.931034 Ti
0.875000 0.583333 0.931034 Ti
0.375000 0.916667 0.655172 Ti
0.875000 0.916667 0.655172 Ti
0.375000 0.916667 0.793103 Ti
0.875000 0.916667 0.793103 Ti
0.375000 0.916667 0.931034 Ti
0.875000 0.916667 0.931034 Ti
