Ti66 Sn1
1.0
6.309760 0.000000 0.000000
0.000000 9.464640 0.000000
0.000000 0.000000 18.918326
Ti Sn
66 1
Selective dynamics
direct
0.148364 0.003400 0.478635 T T T Ti
0.653204 0.029816 0.573902 T T T Ti
0.291568 0.023942 0.651526 T T T Ti
0.597620 0.043271 0.757273 F F F Ti
0.164825 0.040967 0.819870 F F F Ti
-0.119437 0.205821 0.620064 T T T Ti
0.637113 0.381624 0.482906 T T T Ti
0.173569 0.389174 0.652271 T T T Ti
0.627635 0.345654 0.649017 T T T Ti
0.146538 0.388594 0.821809 F F F Ti
0.642899 0.369188 0.815838 F F F Ti
0.114125 0.680076 0.489621 T T T Ti
0.626422 0.689560 0.488188 T T T Ti
0.125780 0.711750 0.641252 T T T Ti
0.635542 0.719758 0.657802 T T T Ti
0.135707 0.699050 0.820784 F F F Ti
0.645176 0.715657 0.817629 F F F Ti
0.375509 0.202811 0.545592 T T T Ti
0.806614 0.178576 0.557537 T T T Ti
0.361557 0.235182 0.737682 F F F Ti
0.970980 0.202293 0.738117 F F F Ti
0.388504 0.213842 0.898840 F F F Ti
0.905828 0.205149 0.893203 F F F Ti
0.407012 0.539384 0.577948 T T T Ti
0.856763 0.528174 0.580996 T T T Ti
0.400470 0.546628 0.741599 F F F Ti
0.891126 0.541575 0.739748 F F F Ti
0.398799 0.543457 0.898657 F F F Ti
0.881965 0.540771 0.897202 F F F Ti
0.373702 0.858074 0.553532 T T T Ti
0.822070 0.881669 0.560350 T T T Ti
0.356966 0.844778 0.739624 F F F Ti
0.957431 0.883063 0.734186 F F F Ti
0.385579 0.870881 0.899629 F F F Ti
0.903473 0.879142 0.893552 F F F Ti
0.125524 0.635130 0.361159 T T T Ti
0.625783 0.624793 0.360447 T T T Ti
0.126274 0.625016 0.118586 F F F Ti
0.628292 0.625515 0.117856 F F F Ti
0.636476 0.124903 0.367302 T T T Ti
0.127893 0.124734 0.118418 F F F Ti
0.629655 0.124410 0.118110 F F F Ti
0.128619 0.375174 0.039225 F F F Ti
0.631461 0.373404 0.038248 F F F Ti
0.129144 0.874982 0.040312 F F F Ti
0.631057 0.876659 0.038690 F F F Ti
0.128869 0.404908 0.267621 T T T Ti
0.625393 0.382524 0.273186 T T T Ti
0.126413 0.894285 0.285272 T T T Ti
0.628637 0.881916 0.274818 T T T Ti
0.377162 0.876725 0.158368 F F F Ti
0.879426 0.876892 0.158308 F F F Ti
0.376720 0.373436 0.156571 F F F Ti
0.877428 0.373159 0.156483 F F F Ti
0.374754 0.369779 0.378272 T T T Ti
0.884069 0.375279 0.375763 T T T Ti
0.412258 0.875483 0.398085 T T T Ti
0.842248 0.878937 0.401549 T T T Ti
0.379955 0.634830 0.243288 T T T Ti
0.872650 0.634678 0.243478 T T T Ti
0.380120 0.624441 0.001593 F F F Ti
0.880107 0.626979 -0.000473 F F F Ti
0.368877 0.133368 0.248691 T T T Ti
0.891092 0.133586 0.248688 T T T Ti
0.380322 0.124813 0.000922 F F F Ti
0.884234 0.124658 -0.002381 F F F Ti
0.101243 0.241323 0.444110 T T T Sn

0.000000 0.000000 0.000000
0.000000 0.000000 0.000000
0.000000 0.000000 0.000000
0.000000 0.000000 0.000000
0.000000 0.000000 0.000000
0.000000 0.000000 0.000000
0.000000 0.000000 0.000000
0.000000 0.000000 0.000000
0.000000 0.000000 0.000000
0.000000 0.000000 0.000000
0.000000 0.000000 0.000000
0.000000 0.000000 0.000000
0.000000 0.000000 0.000000
0.000000 0.000000 0.000000
0.000000 0.000000 0.000000
0.000000 0.000000 0.000000
0.000000 0.000000 0.000000
0.000000 0.000000 0.000000
0.000000 0.000000 0.000000
0.000000 0.000000 0.000000
0.000000 0.000000 0.000000
0.000000 0.000000 0.000000
0.000000 0.000000 0.000000
0.000000 0.000000 0.000000
0.000000 0.000000 0.000000
0.000000 0.000000 0.000000
0.000000 0.000000 0.000000
0.000000 0.000000 0.000000
0.000000 0.000000 0.000000
0.000000 0.000000 0.000000
0.000000 0.000000 0.000000
0.000000 0.000000 0.000000
0.000000 0.000000 0.000000
0.000000 0.000000 0.000000
0.000000 0.000000 0.000000
0.000000 0.000000 0.000000
0.000000 0.000000 0.000000
0.000000 0.000000 0.000000
0.000000 0.000000 0.000000
0.000000 0.000000 0.000000
0.000000 0.000000 0.000000
0.000000 0.000000 0.000000
0.000000 0.000000 0.000000
0.000000 0.000000 0.000000
0.000000 0.000000 0.000000
0.000000 0.000000 0.000000
0.000000 0.000000 0.000000
0.000000 0.000000 0.000000
0.000000 0.000000 0.000000
0.000000 0.000000 0.000000
0.000000 0.000000 0.000000
0.000000 0.000000 0.000000
0.000000 0.000000 0.000000
0.000000 0.000000 0.000000
0.000000 0.000000 0.000000
0.000000 0.000000 0.000000
0.000000 0.000000 0.000000
0.000000 0.000000 0.000000
0.000000 0.000000 0.000000
0.000000 0.000000 0.000000
0.000000 0.000000 0.000000
0.000000 0.000000 0.000000
0.000000 0.000000 0.000000
0.000000 0.000000 0.000000
0.000000 0.000000 0.000000
0.000000 0.000000 0.000000
0.000000 0.000000 0.000000
