Ti66 Cr1
1.0
6.309760 0.000000 0.000000
0.000000 9.464640 0.000000
0.000000 0.000000 18.918326
Ti Cr
66 1
Selective dynamics
direct
0.643705 0.037642 0.499128 F F F Ti
0.120875 0.039088 0.661506 F F F Ti
0.625091 0.040654 0.659118 F F F Ti
0.124703 0.041419 0.817715 F F F Ti
0.624488 0.041502 0.817505 F F F Ti
0.118281 0.385212 0.498767 F F F Ti
0.625805 0.376091 0.499496 F F F Ti
0.123809 0.375001 0.658932 F F F Ti
0.623050 0.374774 0.658834 F F F Ti
0.124954 0.374756 0.817404 F F F Ti
0.624532 0.374826 0.817383 F F F Ti
0.125838 0.710268 0.500304 F F F Ti
0.625871 0.707700 0.499928 F F F Ti
0.124932 0.707408 0.659110 F F F Ti
0.625803 0.706870 0.659242 F F F Ti
0.124926 0.707870 0.817510 F F F Ti
0.624701 0.707738 0.817563 F F F Ti
0.866724 0.210958 0.580710 F F F Ti
0.374502 0.207877 0.738045 F F F Ti
0.873781 0.208399 0.738432 F F F Ti
0.374973 0.208295 0.896598 F F F Ti
0.874712 0.208335 0.896653 F F F Ti
0.374663 0.540003 0.579316 F F F Ti
0.874158 0.541945 0.579706 F F F Ti
0.374662 0.540863 0.738055 F F F Ti
0.874954 0.540953 0.738219 F F F Ti
0.374917 0.541352 0.896617 F F F Ti
0.874911 0.541362 0.896639 F F F Ti
0.381435 0.868202 0.581197 F F F Ti
0.876286 0.873666 0.580208 F F F Ti
0.375437 0.874088 0.738575 F F F Ti
0.873745 0.873916 0.738628 F F F Ti
0.375010 0.874791 0.896713 F F F Ti
0.874704 0.874785 0.896726 F F F Ti
0.125179 0.626703 0.356885 F F F Ti
0.624657 0.626192 0.356718 F F F Ti
0.125061 0.625179 0.118952 F F F Ti
0.625003 0.625160 0.118949 F F F Ti
0.124977 0.125852 0.355641 F F F Ti
0.627046 0.125237 0.356199 F F F Ti
0.125085 0.125094 0.118860 F F F Ti
0.625021 0.125083 0.118834 F F F Ti
0.125012 0.375038 0.039713 F F F Ti
0.624892 0.375049 0.039706 F F F Ti
0.124996 0.875038 0.039744 F F F Ti
0.624893 0.875020 0.039739 F F F Ti
0.124882 0.375801 0.277140 F F F Ti
0.625115 0.375546 0.277062 F F F Ti
0.125379 0.875377 0.277330 F F F Ti
0.625618 0.875211 0.277301 F F F Ti
0.375129 0.875104 0.158504 F F F Ti
0.875064 0.875075 0.158494 F F F Ti
0.375047 0.375249 0.158445 F F F Ti
0.875034 0.375274 0.158414 F F F Ti
0.375458 0.377320 0.395603 F F F Ti
0.873121 0.376296 0.395552 F F F Ti
0.376957 0.874749 0.396102 F F F Ti
0.877512 0.875011 0.396232 F F F Ti
0.375020 0.625490 0.237843 F F F Ti
0.875200 0.625472 0.237860 F F F Ti
0.374977 0.625027 0.000065 F F F Ti
0.874987 0.625026 0.000083 F F F Ti
0.375461 0.125251 0.237597 F F F Ti
0.875034 0.125225 0.237497 F F F Ti
0.375015 0.124984 0.000065 F F F Ti
0.874955 0.124971 0.000091 F F F Ti
0.253487 0.117595 0.527718 T T T Cr

0.000000 0.000000 0.000000
0.000000 0.000000 0.000000
0.000000 0.000000 0.000000
0.000000 0.000000 0.000000
0.000000 0.000000 0.000000
0.000000 0.000000 0.000000
0.000000 0.000000 0.000000
0.000000 0.000000 0.000000
0.000000 0.000000 0.000000
0.000000 0.000000 0.000000
0.000000 0.000000 0.000000
0.000000 0.000000 0.000000
0.000000 0.000000 0.000000
0.000000 0.000000 0.000000
0.000000 0.000000 0.000000
0.000000 0.000000 0.000000
0.000000 0.000000 0.000000
0.000000 0.000000 0.000000
0.000000 0.000000 0.000000
0.000000 0.000000 0.000000
0.000000 0.000000 0.000000
0.000000 0.000000 0.000000
0.000000 0.000000 0.000000
0.000000 0.000000 0.000000
0.000000 0.000000 0.000000
0.000000 0.000000 0.000000
0.000000 0.000000 0.000000
0.000000 0.000000 0.000000
0.000000 0.000000 0.000000
0.000000 0.000000 0.000000
0.000000 0.000000 0.000000
0.000000 0.000000 0.000000
0.000000 0.000000 0.000000
0.000000 0.000000 0.000000
0.000000 0.000000 0.000000
0.000000 0.000000 0.000000
0.000000 0.000000 0.000000
0.000000 0.000000 0.000000
0.000000 0.000000 0.000000
0.000000 0.000000 0.000000
0.000000 0.000000 0.000000
0.000000 0.000000 0.000000
0.000000 0.000000 0.000000
0.000000 0.000000 0.000000
0.000000 0.000000 0.000000
0.000000 0.000000 0.000000
0.000000 0.000000 0.000000
0.000000 0.000000 0.000000
0.000000 0.000000 0.000000
0.000000 0.000000 0.000000
0.000000 0.000000 0.000000
0.000000 0.000000 0.000000
0.000000 0.000000 0.000000
0.000000 0.000000 0.000000
0.000000 0.000000 0.000000
0.000000 0.000000 0.000000
0.000000 0.000000 0.000000
0.000000 0.000000 0.000000
0.000000 0.000000 0.000000
0.000000 0.000000 0.000000
0.000000 0.000000 0.000000
0.000000 0.000000 0.000000
0.000000 0.000000 0.000000
0.000000 0.000000 0.000000
0.000000 0.000000 0.000000
0.000000 0.000000 0.000000
0.000000 0.000000 0.000000
