beta_Ti
1.0
8.805261 0.000000 0.000000
-4.402630 7.625580 0.000000
0.000000 0.000000 18.388801
Ti
36
direct
0.967272 0.027818 0.486270 Ti
0.967272 0.527818 0.486270 Ti
0.467272 0.027818 0.486270 Ti
0.467272 0.527818 0.486270 Ti
0.133938 0.361151 0.838237 Ti
0.133938 0.861151 0.838237 Ti
0.633938 0.361151 0.838237 Ti
0.633938 0.861151 0.838237 Ti
0.300605 0.194485 0.888518 Ti
0.300605 0.694485 0.888518 Ti
0.800605 0.194485 0.888518 Ti
0.800605 0.694485 0.888518 Ti
0.133938 0.361151 0.536551 Ti
0.133938 0.861151 0.536551 Ti
0.633938 0.361151 0.536551 Ti
0.633938 0.861151 0.536551 Ti
0.300605 0.194485 0.586832 Ti
0.300605 0.694485 0.586832 Ti
0.800605 0.194485 0.586832 Ti
0.800605 0.694485 0.586832 Ti
0.967272 0.027818 0.637113 Ti
0.967272 0.527818 0.637113 Ti
0.467272 0.027818 0.637113 Ti
0.467272 0.527818 0.637113 Ti
0.133938 0.361151 0.687394 Ti
0.133938 0.861151 0.687394 Ti
0.633938 0.361151 0.687394 Ti
0.633938 0.861151 0.687394 Ti
0.300605 0.194485 0.737675 Ti
0.300605 0.694485 0.737675 Ti
0.800605 0.194485 0.737675 Ti
0.800605 0.694485 0.737675 Ti
0.967272 0.027818 0.787956 Ti
0.967272 0.527818 0.787956 Ti
0.467272 0.027818 0.787956 Ti
0.467272 0.527818 0.787956 Ti
