Ti36
1.0
8.805261 0.000000 0.000000
-4.402630 7.625579 0.000000
0.000000 0.000000 18.888801
Ti
36
direct
0.000000 0.000000 0.486634 Ti
1.000000 0.500000 0.486634 Ti
0.500000 0.000000 0.486634 Ti
0.500000 0.500000 0.486634 Ti
0.166667 0.333333 0.829284 Ti
0.166667 0.833333 0.829284 Ti
0.666667 0.333333 0.829284 Ti
0.666667 0.833333 0.829284 Ti
0.333333 0.166667 0.878234 Ti
0.333333 0.666667 0.878234 Ti
0.833333 0.166667 0.878234 Ti
0.833333 0.666667 0.878234 Ti
0.166667 0.333333 0.535584 Ti
0.166667 0.833333 0.535584 Ti
0.666667 0.333333 0.535584 Ti
0.666667 0.833333 0.535584 Ti
0.333333 0.166667 0.584534 Ti
0.333333 0.666667 0.584534 Ti
0.833333 0.166667 0.584534 Ti
0.833333 0.666667 0.584534 Ti
0.000000 0.000000 0.633484 Ti
1.000000 0.500000 0.633484 Ti
0.500000 0.000000 0.633484 Ti
0.500000 0.500000 0.633484 Ti
0.166667 0.333333 0.682434 Ti
0.166667 0.833333 0.682434 Ti
0.666667 0.333333 0.682434 Ti
0.666667 0.833333 0.682434 Ti
0.333333 0.166667 0.731384 Ti
0.333333 0.666667 0.731384 Ti
0.833333 0.166667 0.731384 Ti
0.833333 0.666667 0.731384 Ti
0.000000 0.000000 0.780334 Ti
1.000000 0.500000 0.780334 Ti
0.500000 0.000000 0.780334 Ti
0.500000 0.500000 0.780334 Ti

0.000000 0.000000 0.000000
0.000000 0.000000 0.000000
0.000000 0.000000 0.000000
0.000000 0.000000 0.000000
0.000000 0.000000 0.000000
0.000000 0.000000 0.000000
0.000000 0.000000 0.000000
0.000000 0.000000 0.000000
0.000000 0.000000 0.000000
0.000000 0.000000 0.000000
0.000000 0.000000 0.000000
0.000000 0.000000 0.000000
0.000000 0.000000 0.000000
0.000000 0.000000 0.000000
0.000000 0.000000 0.000000
0.000000 0.000000 0.000000
0.000000 0.000000 0.000000
0.000000 0.000000 0.000000
0.000000 0.000000 0.000000
0.000000 0.000000 0.000000
0.000000 0.000000 0.000000
0.000000 0.000000 0.000000
0.000000 0.000000 0.000000
0.000000 0.000000 0.000000
0.000000 0.000000 0.000000
0.000000 0.000000 0.000000
0.000000 0.000000 0.000000
0.000000 0.000000 0.000000
0.000000 0.000000 0.000000
0.000000 0.000000 0.000000
0.000000 0.000000 0.000000
0.000000 0.000000 0.000000
0.000000 0.000000 0.000000
0.000000 0.000000 0.000000
0.000000 0.000000 0.000000
0.000000 0.000000 0.000000
