Ti96 Al1
1.0
9.513020 0.000000 0.000000
0.000000 9.350860 0.000000
0.000000 0.000000 18.547230
Ti Al
96 1
Selective dynamics
direct
0.146221 0.379482 0.404991 T T T Ti
0.655494 0.343681 0.415537 T T T Ti
0.141361 0.857689 0.412803 T T T Ti
0.661739 0.875208 0.399656 T T T Ti
0.145066 0.364725 0.241095 T T T Ti
0.660415 0.369959 0.234012 T T T Ti
0.167371 0.867617 0.235688 T T T Ti
0.679810 0.903804 0.233102 T T T Ti
0.166703 0.375128 0.077311 F F F Ti
0.666718 0.375016 0.077309 F F F Ti
0.166711 0.875044 0.077414 F F F Ti
0.666571 0.874865 0.077505 F F F Ti
0.406448 0.371831 0.321672 T T T Ti
0.897653 0.374348 0.325832 T T T Ti
0.361831 0.934715 0.337179 T T T Ti
0.916230 0.876805 0.316317 T T T Ti
0.416824 0.375243 0.154895 F F F Ti
0.916887 0.374844 0.154810 F F F Ti
0.416468 0.875060 0.155351 F F F Ti
0.916808 0.874953 0.154870 F F F Ti
0.416689 0.375070 -0.000177 F F F Ti
0.916655 0.375009 -0.000235 F F F Ti
0.416673 0.874952 -0.000046 F F F Ti
0.916647 0.874965 -0.000187 F F F Ti
0.102347 0.125654 0.325831 T T T Ti
0.593552 0.128171 0.321671 T T T Ti
0.083770 0.623198 0.316316 T T T Ti
0.638169 0.565287 0.337178 T T T Ti
0.083112 0.125191 0.154808 F F F Ti
0.583174 0.124787 0.154897 F F F Ti
0.083193 0.625076 0.154870 F F F Ti
0.583534 0.624946 0.155352 F F F Ti
0.083345 0.125000 -0.000235 F F F Ti
0.583312 0.124943 -0.000176 F F F Ti
0.083353 0.625040 -0.000187 F F F Ti
0.583329 0.625043 -0.000048 F F F Ti
0.344505 0.156319 0.415537 T T T Ti
0.853778 0.120518 0.404991 T T T Ti
0.338260 0.624793 0.399656 T T T Ti
0.858638 0.642311 0.412803 T T T Ti
0.339584 0.130046 0.234012 T T T Ti
0.854933 0.135282 0.241095 T T T Ti
0.320188 0.596201 0.233102 T T T Ti
0.832628 0.632389 0.235688 T T T Ti
0.333282 0.125008 0.077309 F F F Ti
0.833296 0.124896 0.077312 F F F Ti
0.333428 0.625150 0.077503 F F F Ti
0.833289 0.624975 0.077415 F F F Ti
0.375065 0.375107 0.823784 F F F Ti
0.874927 0.374989 0.823776 F F F Ti
0.375022 0.874984 0.823831 F F F Ti
0.874895 0.874954 0.823825 F F F Ti
0.125073 0.124991 0.823776 F F F Ti
0.624942 0.124880 0.823786 F F F Ti
0.125107 0.625026 0.823825 F F F Ti
0.624982 0.624995 0.823830 F F F Ti
0.125032 0.375049 0.909983 F F F Ti
0.624986 0.375037 0.910009 F F F Ti
0.125043 0.874984 0.910018 F F F Ti
0.624941 0.874939 0.910077 F F F Ti
0.375016 0.124950 0.910011 F F F Ti
0.874971 0.124940 0.909983 F F F Ti
0.375058 0.625037 0.910076 F F F Ti
0.874959 0.624997 0.910019 F F F Ti
0.394349 0.391765 0.654931 T T T Ti
0.899513 0.377702 0.652446 T T T Ti
0.394877 0.884261 0.652561 T T T Ti
0.890104 0.884060 0.658370 T T T Ti
0.100486 0.122294 0.652446 T T T Ti
0.605650 0.108230 0.654932 T T T Ti
0.109895 0.615935 0.658370 T T T Ti
0.605123 0.615736 0.652561 T T T Ti
0.153248 0.371340 0.570683 T T T Ti
0.646839 0.354147 0.578964 T T T Ti
0.142807 0.866864 0.579864 T T T Ti
0.651120 0.860750 0.570554 T T T Ti
0.353161 0.145851 0.578964 T T T Ti
0.846751 0.128658 0.570683 T T T Ti
0.348880 0.639249 0.570554 T T T Ti
0.857192 0.633135 0.579864 T T T Ti
0.404198 0.393634 0.490321 T T T Ti
0.900279 0.377149 0.490406 T T T Ti
0.383786 0.900047 0.497384 T T T Ti
0.905453 0.882547 0.494155 T T T Ti
0.099721 0.122851 0.490406 T T T Ti
0.595802 0.106366 0.490321 T T T Ti
0.094547 0.617453 0.494155 T T T Ti
0.616214 0.599953 0.497384 T T T Ti
0.124969 0.875167 0.737528 F F F Ti
0.624799 0.874845 0.737436 F F F Ti
0.375197 0.625137 0.737431 F F F Ti
0.875027 0.624811 0.737530 F F F Ti
0.125009 0.374979 0.737520 F F F Ti
0.624993 0.374844 0.737478 F F F Ti
0.375003 0.125141 0.737476 F F F Ti
0.874988 0.125004 0.737520 F F F Ti
0.500000 0.750001 0.317570 T T T Al

0.000000 0.000000 0.000000
0.000000 0.000000 0.000000
0.000000 0.000000 0.000000
0.000000 0.000000 0.000000
0.000000 0.000000 0.000000
0.000000 0.000000 0.000000
0.000000 0.000000 0.000000
0.000000 0.000000 0.000000
0.000000 0.000000 0.000000
0.000000 0.000000 0.000000
0.000000 0.000000 0.000000
0.000000 0.000000 0.000000
0.000000 0.000000 0.000000
0.000000 0.000000 0.000000
0.000000 0.000000 0.000000
0.000000 0.000000 0.000000
0.000000 0.000000 0.000000
0.000000 0.000000 0.000000
0.000000 0.000000 0.000000
0.000000 0.000000 0.000000
0.000000 0.000000 0.000000
0.000000 0.000000 0.000000
0.000000 0.000000 0.000000
0.000000 0.000000 0.000000
0.000000 0.000000 0.000000
0.000000 0.000000 0.000000
0.000000 0.000000 0.000000
0.000000 0.000000 0.000000
0.000000 0.000000 0.000000
0.000000 0.000000 0.000000
0.000000 0.000000 0.000000
0.000000 0.000000 0.000000
0.000000 0.000000 0.000000
0.000000 0.000000 0.000000
0.000000 0.000000 0.000000
0.000000 0.000000 0.000000
0.000000 0.000000 0.000000
0.000000 0.000000 0.000000
0.000000 0.000000 0.000000
0.000000 0.000000 0.000000
0.000000 0.000000 0.000000
0.000000 0.000000 0.000000
0.000000 0.000000 0.000000
0.000000 0.000000 0.000000
0.000000 0.000000 0.000000
0.000000 0.000000 0.000000
0.000000 0.000000 0.000000
0.000000 0.000000 0.000000
0.000000 0.000000 0.000000
0.000000 0.000000 0.000000
0.000000 0.000000 0.000000
0.000000 0.000000 0.000000
0.000000 0.000000 0.000000
0.000000 0.000000 0.000000
0.000000 0.000000 0.000000
0.000000 0.000000 0.000000
0.000000 0.000000 0.000000
0.000000 0.000000 0.000000
0.000000 0.000000 0.000000
0.000000 0.000000 0.000000
0.000000 0.000000 0.000000
0.000000 0.000000 0.000000
0.000000 0.000000 0.000000
0.000000 0.000000 0.000000
0.000000 0.000000 0.000000
0.000000 0.000000 0.000000
0.000000 0.000000 0.000000
0.000000 0.000000 0.000000
0.000000 0.000000 0.000000
0.000000 0.000000 0.000000
0.000000 0.000000 0.000000
0.000000 0.000000 0.000000
0.000000 0.000000 0.000000
0.000000 0.000000 0.000000
0.000000 0.000000 0.000000
0.000000 0.000000 0.000000
0.000000 0.000000 0.000000
0.000000 0.000000 0.000000
0.000000 0.000000 0.000000
0.000000 0.000000 0.000000
0.000000 0.000000 0.000000
0.000000 0.000000 0.000000
0.000000 0.000000 0.000000
0.000000 0.000000 0.000000
0.000000 0.000000 0.000000
0.000000 0.000000 0.000000
0.000000 0.000000 0.000000
0.000000 0.000000 0.000000
0.000000 0.000000 0.000000
0.000000 0.000000 0.000000
0.000000 0.000000 0.000000
0.000000 0.000000 0.000000
0.000000 0.000000 0.000000
0.000000 0.000000 0.000000
0.000000 0.000000 0.000000
0.000000 0.000000 0.000000
0.000000 0.000000 0.000000
