Ti97
1.0
9.513020 0.000000 0.000000
0.000000 9.350860 0.000000
0.000000 0.000000 18.547230
Ti
97
Selective dynamics
direct
0.147287 0.375503 0.406578 T T T Ti
0.647703 0.337278 0.409580 T T T Ti
0.131984 0.856061 0.399156 T T T Ti
0.678552 0.880874 0.391917 T T T Ti
0.155969 0.369610 0.236024 T T T Ti
0.660029 0.370783 0.234038 T T T Ti
0.163720 0.870960 0.234916 T T T Ti
0.659980 0.880528 0.236090 T T T Ti
0.166623 0.375014 0.077511 F F F Ti
0.666698 0.374946 0.077474 F F F Ti
0.166802 0.874980 0.077530 F F F Ti
0.666631 0.875055 0.077538 F F F Ti
0.405878 0.376694 0.317420 T T T Ti
0.896056 0.372457 0.322778 T T T Ti
0.386535 0.911046 0.330214 T T T Ti
0.914913 0.883038 0.311247 T T T Ti
0.416664 0.374857 0.155081 F F F Ti
0.916547 0.374865 0.155053 F F F Ti
0.416657 0.874901 0.155361 F F F Ti
0.916870 0.875222 0.154998 F F F Ti
0.416671 0.375015 -0.000107 F F F Ti
0.916630 0.374985 -0.000132 F F F Ti
0.416698 0.874971 -0.000037 F F F Ti
0.916679 0.875003 -0.000145 F F F Ti
0.103944 0.127544 0.322777 T T T Ti
0.594122 0.123307 0.317419 T T T Ti
0.085087 0.616964 0.311246 T T T Ti
0.613465 0.588955 0.330213 T T T Ti
0.083453 0.125151 0.155052 F F F Ti
0.583337 0.125162 0.155080 F F F Ti
0.083128 0.624800 0.155000 F F F Ti
0.583345 0.625107 0.155359 F F F Ti
0.083373 0.125017 -0.000133 F F F Ti
0.583329 0.124992 -0.000106 F F F Ti
0.083320 0.625008 -0.000145 F F F Ti
0.583304 0.625034 -0.000038 F F F Ti
0.352296 0.162722 0.409579 T T T Ti
0.852711 0.124497 0.406578 T T T Ti
0.321447 0.619127 0.391917 T T T Ti
0.868015 0.643939 0.399156 T T T Ti
0.339971 0.129221 0.234038 T T T Ti
0.844031 0.130394 0.236025 T T T Ti
0.340019 0.619475 0.236091 T T T Ti
0.836278 0.629045 0.234916 T T T Ti
0.333302 0.125066 0.077474 F F F Ti
0.833377 0.124998 0.077512 F F F Ti
0.333367 0.624959 0.077538 F F F Ti
0.833197 0.625034 0.077529 F F F Ti
0.375030 0.375107 0.823785 F F F Ti
0.874949 0.375035 0.823895 F F F Ti
0.375074 0.874874 0.823721 F F F Ti
0.874975 0.874981 0.823686 F F F Ti
0.125060 0.124954 0.823896 F F F Ti
0.624969 0.124885 0.823786 F F F Ti
0.125029 0.625011 0.823687 F F F Ti
0.624938 0.625126 0.823719 F F F Ti
0.125069 0.375116 0.910048 F F F Ti
0.624948 0.375107 0.910035 F F F Ti
0.125095 0.874909 0.910004 F F F Ti
0.624938 0.874943 0.909968 F F F Ti
0.375060 0.124889 0.910035 F F F Ti
0.874937 0.124881 0.910050 F F F Ti
0.375066 0.625056 0.909968 F F F Ti
0.874907 0.625089 0.910002 F F F Ti
0.394263 0.385102 0.658056 T T T Ti
0.893979 0.373538 0.649413 T T T Ti
0.396052 0.890878 0.645068 T T T Ti
0.885558 0.884383 0.665714 T T T Ti
0.106018 0.126456 0.649413 T T T Ti
0.605735 0.114894 0.658055 T T T Ti
0.114441 0.615611 0.665715 T T T Ti
0.603946 0.609117 0.645069 T T T Ti
0.151002 0.374856 0.569581 T T T Ti
0.642064 0.343320 0.572800 T T T Ti
0.129935 0.861728 0.584333 T T T Ti
0.657120 0.867011 0.577604 T T T Ti
0.357935 0.156679 0.572800 T T T Ti
0.848997 0.125142 0.569581 T T T Ti
0.342880 0.632987 0.577605 T T T Ti
0.870065 0.638269 0.584333 T T T Ti
0.409901 0.409358 0.489267 T T T Ti
0.901638 0.374942 0.488680 T T T Ti
0.336805 0.920674 0.490936 T T T Ti
0.905825 0.880749 0.491251 T T T Ti
0.098362 0.125058 0.488680 T T T Ti
0.590098 0.090642 0.489267 T T T Ti
0.094174 0.619251 0.491251 T T T Ti
0.663195 0.579325 0.490936 T T T Ti
0.124976 0.874778 0.737604 F F F Ti
0.625218 0.875100 0.737412 F F F Ti
0.374780 0.624890 0.737415 F F F Ti
0.875012 0.625200 0.737600 F F F Ti
0.125118 0.375164 0.737697 F F F Ti
0.624890 0.374973 0.737700 F F F Ti
0.375097 0.124994 0.737698 F F F Ti
0.874870 0.124807 0.737703 F F F Ti
0.500000 0.750000 0.436082 T T T Ti

0.000000 0.000000 0.000000
0.000000 0.000000 0.000000
0.000000 0.000000 0.000000
0.000000 0.000000 0.000000
0.000000 0.000000 0.000000
0.000000 0.000000 0.000000
0.000000 0.000000 0.000000
0.000000 0.000000 0.000000
0.000000 0.000000 0.000000
0.000000 0.000000 0.000000
0.000000 0.000000 0.000000
0.000000 0.000000 0.000000
0.000000 0.000000 0.000000
0.000000 0.000000 0.000000
0.000000 0.000000 0.000000
0.000000 0.000000 0.000000
0.000000 0.000000 0.000000
0.000000 0.000000 0.000000
0.000000 0.000000 0.000000
0.000000 0.000000 0.000000
0.000000 0.000000 0.000000
0.000000 0.000000 0.000000
0.000000 0.000000 0.000000
0.000000 0.000000 0.000000
0.000000 0.000000 0.000000
0.000000 0.000000 0.000000
0.000000 0.000000 0.000000
0.000000 0.000000 0.000000
0.000000 0.000000 0.000000
0.000000 0.000000 0.000000
0.000000 0.000000 0.000000
0.000000 0.000000 0.000000
0.000000 0.000000 0.000000
0.000000 0.000000 0.000000
0.000000 0.000000 0.000000
0.000000 0.000000 0.000000
0.000000 0.000000 0.000000
0.000000 0.000000 0.000000
0.000000 0.000000 0.000000
0.000000 0.000000 0.000000
0.000000 0.000000 0.000000
0.000000 0.000000 0.000000
0.000000 0.000000 0.000000
0.000000 0.000000 0.000000
0.000000 0.000000 0.000000
0.000000 0.000000 0.000000
0.000000 0.000000 0.000000
0.000000 0.000000 0.000000
0.000000 0.000000 0.000000
0.000000 0.000000 0.000000
0.000000 0.000000 0.000000
0.000000 0.000000 0.000000
0.000000 0.000000 0.000000
0.000000 0.000000 0.000000
0.000000 0.000000 0.000000
0.000000 0.000000 0.000000
0.000000 0.000000 0.000000
0.000000 0.000000 0.000000
0.000000 0.000000 0.000000
0.000000 0.000000 0.000000
0.000000 0.000000 0.000000
0.000000 0.000000 0.000000
0.000000 0.000000 0.000000
0.000000 0.000000 0.000000
0.000000 0.000000 0.000000
0.000000 0.000000 0.000000
0.000000 0.000000 0.000000
0.000000 0.000000 0.000000
0.000000 0.000000 0.000000
0.000000 0.000000 0.000000
0.000000 0.000000 0.000000
0.000000 0.000000 0.000000
0.000000 0.000000 0.000000
0.000000 0.000000 0.000000
0.000000 0.000000 0.000000
0.000000 0.000000 0.000000
0.000000 0.000000 0.000000
0.000000 0.000000 0.000000
0.000000 0.000000 0.000000
0.000000 0.000000 0.000000
0.000000 0.000000 0.000000
0.000000 0.000000 0.000000
0.000000 0.000000 0.000000
0.000000 0.000000 0.000000
0.000000 0.000000 0.000000
0.000000 0.000000 0.000000
0.000000 0.000000 0.000000
0.000000 0.000000 0.000000
0.000000 0.000000 0.000000
0.000000 0.000000 0.000000
0.000000 0.000000 0.000000
0.000000 0.000000 0.000000
0.000000 0.000000 0.000000
0.000000 0.000000 0.000000
0.000000 0.000000 0.000000
0.000000 0.000000 0.000000
0.000000 0.000000 0.000000
