total_Ti
1.0
9.445957 0.000000 0.000000
0.000000 9.093951 0.000000
0.000000 0.000000 31.211864
Ti
96
direct
0.166666 0.375000 0.230829 Ti
0.666666 0.375000 0.230829 Ti
0.166666 0.875000 0.230829 Ti
0.666666 0.875000 0.230829 Ti
0.166666 0.375000 0.138498 Ti
0.666666 0.375000 0.138498 Ti
0.166666 0.875000 0.138498 Ti
0.666666 0.875000 0.138498 Ti
0.166666 0.375000 0.046166 Ti
0.666666 0.375000 0.046166 Ti
0.166666 0.875000 0.046166 Ti
0.666666 0.875000 0.046166 Ti
0.416667 0.375000 0.184663 Ti
0.916667 0.375000 0.184663 Ti
0.416667 0.875000 0.184663 Ti
0.916667 0.875000 0.184663 Ti
0.416667 0.375000 0.092332 Ti
0.916667 0.375000 0.092332 Ti
0.416667 0.875000 0.092332 Ti
0.916667 0.875000 0.092332 Ti
0.416667 0.375000 -0.000000 Ti
0.916667 0.375000 -0.000000 Ti
0.416667 0.875000 -0.000000 Ti
0.916667 0.875000 -0.000000 Ti
0.083333 0.125000 0.184663 Ti
0.583333 0.125000 0.184663 Ti
0.083333 0.625000 0.184663 Ti
0.583333 0.625000 0.184663 Ti
0.083333 0.125000 0.092332 Ti
0.583333 0.125000 0.092332 Ti
0.083333 0.625000 0.092332 Ti
0.583333 0.625000 0.092332 Ti
0.083333 0.125000 -0.000000 Ti
0.583333 0.125000 -0.000000 Ti
0.083333 0.625000 -0.000000 Ti
0.583333 0.625000 -0.000000 Ti
0.333333 0.125000 0.230829 Ti
0.833333 0.125000 0.230829 Ti
0.333333 0.625000 0.230829 Ti
0.833333 0.625000 0.230829 Ti
0.333333 0.125000 0.138498 Ti
0.833333 0.125000 0.138498 Ti
0.333333 0.625000 0.138498 Ti
0.833333 0.625000 0.138498 Ti
0.333333 0.125000 0.046166 Ti
0.833333 0.125000 0.046166 Ti
0.333333 0.625000 0.046166 Ti
0.833333 0.625000 0.046166 Ti
0.375000 0.375000 0.692377 Ti
0.875000 0.375000 0.692377 Ti
0.375000 0.875000 0.692377 Ti
0.875000 0.875000 0.692377 Ti
0.125000 0.125000 0.692377 Ti
0.625000 0.125000 0.692377 Ti
0.125000 0.625000 0.692377 Ti
0.625000 0.625000 0.692377 Ti
0.125000 0.375000 0.743687 Ti
0.625000 0.375000 0.743687 Ti
0.125000 0.875000 0.743687 Ti
0.625000 0.875000 0.743687 Ti
0.375000 0.125000 0.743687 Ti
0.875000 0.125000 0.743687 Ti
0.375000 0.625000 0.743687 Ti
0.875000 0.625000 0.743687 Ti
0.375000 0.375000 0.589759 Ti
0.875000 0.375000 0.589759 Ti
0.375000 0.875000 0.589759 Ti
0.875000 0.875000 0.589759 Ti
0.125000 0.125000 0.589759 Ti
0.625000 0.125000 0.589759 Ti
0.125000 0.625000 0.589759 Ti
0.625000 0.625000 0.589759 Ti
0.125000 0.375000 0.538451 Ti
0.625000 0.375000 0.538451 Ti
0.125000 0.875000 0.538451 Ti
0.625000 0.875000 0.538451 Ti
0.375000 0.125000 0.538451 Ti
0.875000 0.125000 0.538451 Ti
0.375000 0.625000 0.538451 Ti
0.875000 0.625000 0.538451 Ti
0.375000 0.375000 0.487141 Ti
0.875000 0.375000 0.487141 Ti
0.375000 0.875000 0.487141 Ti
0.875000 0.875000 0.487141 Ti
0.125000 0.125000 0.487141 Ti
0.625000 0.125000 0.487141 Ti
0.125000 0.625000 0.487141 Ti
0.625000 0.625000 0.487141 Ti
0.125000 0.875000 0.641069 Ti
0.625000 0.875000 0.641069 Ti
0.375000 0.625000 0.641069 Ti
0.875000 0.625000 0.641069 Ti
0.125000 0.375000 0.641069 Ti
0.625000 0.375000 0.641069 Ti
0.375000 0.125000 0.641069 Ti
0.875000 0.125000 0.641069 Ti
