beta_Ti
1.0
9.445957 0.000000 0.000000
0.000000 9.093951 0.000000
0.000000 0.000000 31.211864
Ti
48
direct
0.375000 0.375000 0.692377 Ti
0.875000 0.375000 0.692377 Ti
0.375000 0.875000 0.692377 Ti
0.875000 0.875000 0.692377 Ti
0.125000 0.125000 0.692377 Ti
0.625000 0.125000 0.692377 Ti
0.125000 0.625000 0.692377 Ti
0.625000 0.625000 0.692377 Ti
0.125000 0.375000 0.743687 Ti
0.625000 0.375000 0.743687 Ti
0.125000 0.875000 0.743687 Ti
0.625000 0.875000 0.743687 Ti
0.375000 0.125000 0.743687 Ti
0.875000 0.125000 0.743687 Ti
0.375000 0.625000 0.743687 Ti
0.875000 0.625000 0.743687 Ti
0.375000 0.375000 0.589759 Ti
0.875000 0.375000 0.589759 Ti
0.375000 0.875000 0.589759 Ti
0.875000 0.875000 0.589759 Ti
0.125000 0.125000 0.589759 Ti
0.625000 0.125000 0.589759 Ti
0.125000 0.625000 0.589759 Ti
0.625000 0.625000 0.589759 Ti
0.125000 0.375000 0.538451 Ti
0.625000 0.375000 0.538451 Ti
0.125000 0.875000 0.538451 Ti
0.625000 0.875000 0.538451 Ti
0.375000 0.125000 0.538451 Ti
0.875000 0.125000 0.538451 Ti
0.375000 0.625000 0.538451 Ti
0.875000 0.625000 0.538451 Ti
0.375000 0.375000 0.487141 Ti
0.875000 0.375000 0.487141 Ti
0.375000 0.875000 0.487141 Ti
0.875000 0.875000 0.487141 Ti
0.125000 0.125000 0.487141 Ti
0.625000 0.125000 0.487141 Ti
0.125000 0.625000 0.487141 Ti
0.625000 0.625000 0.487141 Ti
0.125000 0.875000 0.641069 Ti
0.625000 0.875000 0.641069 Ti
0.375000 0.625000 0.641069 Ti
0.875000 0.625000 0.641069 Ti
0.125000 0.375000 0.641069 Ti
0.625000 0.375000 0.641069 Ti
0.375000 0.125000 0.641069 Ti
0.875000 0.125000 0.641069 Ti
