total_Ti
1.0
4.756510 0.000000 0.000000
0.000000 4.675430 0.000000
0.000000 0.000000 26.211761
Ti
24
direct
0.333333 0.750000 0.274861 Ti
0.333333 0.750000 0.164917 Ti
0.333333 0.750000 0.054972 Ti
0.833334 0.750000 0.219889 Ti
0.833334 0.750000 0.109945 Ti
0.833334 0.750000 -0.000000 Ti
0.166666 0.250000 0.219889 Ti
0.166666 0.250000 0.109945 Ti
0.166666 0.250000 -0.000000 Ti
0.666667 0.250000 0.274861 Ti
0.666667 0.250000 0.164917 Ti
0.666667 0.250000 0.054972 Ti
0.750000 0.750000 0.790173 Ti
0.250000 0.250000 0.790173 Ti
0.250000 0.750000 0.729077 Ti
0.750000 0.250000 0.729077 Ti
0.750000 0.750000 0.667980 Ti
0.250000 0.250000 0.667980 Ti
0.250000 0.750000 0.606884 Ti
0.750000 0.250000 0.606884 Ti
0.750000 0.750000 0.545787 Ti
0.250000 0.250000 0.545787 Ti
0.250000 0.750000 0.484690 Ti
0.750000 0.250000 0.484690 Ti
