total_Ti
1.0
5.745590 0.000000 0.000000
0.000000 9.072750 0.000000
0.000000 0.000000 26.667173
Ti
64
direct
0.041667 0.875000 0.349983 Ti
0.041667 0.375000 0.349983 Ti
0.541667 0.875000 0.349983 Ti
0.541667 0.375000 0.349983 Ti
0.291667 0.625000 0.381801 Ti
0.291667 0.125000 0.381801 Ti
0.791667 0.625000 0.381801 Ti
0.791667 0.125000 0.381801 Ti
0.291667 0.875000 0.254533 Ti
0.291667 0.375000 0.254533 Ti
0.791667 0.875000 0.254533 Ti
0.791667 0.375000 0.254533 Ti
0.041667 0.625000 0.286350 Ti
0.041667 0.125000 0.286350 Ti
0.541667 0.625000 0.286350 Ti
0.541667 0.125000 0.286350 Ti
0.041667 0.875000 0.159083 Ti
0.041667 0.375000 0.159083 Ti
0.541667 0.875000 0.159083 Ti
0.541667 0.375000 0.159083 Ti
0.291667 0.625000 0.190900 Ti
0.291667 0.125000 0.190900 Ti
0.791667 0.625000 0.190900 Ti
0.791667 0.125000 0.190900 Ti
0.291667 0.875000 0.063633 Ti
0.291667 0.375000 0.063633 Ti
0.791667 0.875000 0.063633 Ti
0.791667 0.375000 0.063633 Ti
0.041667 0.625000 0.095450 Ti
0.041667 0.125000 0.095450 Ti
0.541667 0.625000 0.095450 Ti
0.541667 0.125000 0.095450 Ti
0.458333 0.625000 0.600325 Ti
0.458333 0.125000 0.600325 Ti
0.958333 0.625000 0.600325 Ti
0.958333 0.125000 0.600325 Ti
0.125000 0.625000 0.699879 Ti
0.125000 0.125000 0.699879 Ti
0.625000 0.625000 0.699879 Ti
0.625000 0.125000 0.699879 Ti
0.291667 0.625000 0.799434 Ti
0.291667 0.125000 0.799434 Ti
0.791667 0.625000 0.799434 Ti
0.791667 0.125000 0.799434 Ti
0.125000 0.875000 0.550547 Ti
0.125000 0.375000 0.550547 Ti
0.625000 0.875000 0.550547 Ti
0.625000 0.375000 0.550547 Ti
0.291667 0.875000 0.650102 Ti
0.291667 0.375000 0.650102 Ti
0.791667 0.875000 0.650102 Ti
0.791667 0.375000 0.650102 Ti
0.458333 0.875000 0.749657 Ti
0.458333 0.375000 0.749657 Ti
0.958333 0.875000 0.749657 Ti
0.958333 0.375000 0.749657 Ti
0.125000 0.875000 0.849211 Ti
0.125000 0.375000 0.849211 Ti
0.625000 0.875000 0.849211 Ti
0.625000 0.375000 0.849211 Ti
0.791667 0.125000 0.000000 Ti
0.291667 0.125000 0.000000 Ti
0.791667 0.625000 -0.000000 Ti
0.291667 0.625000 -0.000000 Ti
