Zr1 Ti96
1.0
9.513020 0.000000 0.000000
0.000000 9.350860 0.000000
0.000000 0.000000 18.547230
Ti Zr
96 1
Selective dynamics
direct
0.144034 0.366754 0.404757 T T T Ti
0.638973 0.347221 0.400980 T T T Ti
0.149844 0.850534 0.392485 T T T Ti
0.678000 0.898256 0.396544 T T T Ti
0.155114 0.370269 0.237435 T T T Ti
0.662269 0.373023 0.233694 T T T Ti
0.162454 0.875647 0.234527 T T T Ti
0.662674 0.870787 0.234919 T T T Ti
0.166665 0.375023 0.077634 F F F Ti
0.666684 0.375000 0.077635 F F F Ti
0.166664 0.874996 0.077628 F F F Ti
0.666680 0.874993 0.077619 F F F Ti
0.406164 0.378187 0.310622 T T T Ti
0.893641 0.383308 0.326539 T T T Ti
0.407734 0.884707 0.318930 T T T Ti
0.913479 0.883464 0.311988 T T T Ti
0.416694 0.374994 0.155289 F F F Ti
0.916652 0.374966 0.155266 F F F Ti
0.416644 0.874994 0.155312 F F F Ti
0.916678 0.874987 0.155254 F F F Ti
0.416683 0.375033 0.000044 F F F Ti
0.916628 0.375018 0.000017 F F F Ti
0.416677 0.874974 0.000049 F F F Ti
0.916645 0.874989 0.000002 F F F Ti
0.106359 0.116692 0.326538 T T T Ti
0.593836 0.121814 0.310621 T T T Ti
0.086521 0.616536 0.311988 T T T Ti
0.592266 0.615293 0.318929 T T T Ti
0.083348 0.125044 0.155266 F F F Ti
0.583306 0.125015 0.155289 F F F Ti
0.083322 0.625025 0.155254 F F F Ti
0.583357 0.625015 0.155312 F F F Ti
0.083373 0.124985 0.000016 F F F Ti
0.583317 0.124970 0.000044 F F F Ti
0.083355 0.625019 0.000004 F F F Ti
0.583325 0.625030 0.000050 F F F Ti
0.361026 0.152779 0.400980 T T T Ti
0.855965 0.133246 0.404757 T T T Ti
0.321999 0.601744 0.396544 T T T Ti
0.850155 0.649466 0.392485 T T T Ti
0.337730 0.126978 0.233694 T T T Ti
0.844885 0.129733 0.237435 T T T Ti
0.337325 0.629215 0.234919 T T T Ti
0.837545 0.624355 0.234528 T T T Ti
0.333316 0.125008 0.077635 F F F Ti
0.833335 0.124985 0.077634 F F F Ti
0.333320 0.625018 0.077620 F F F Ti
0.833336 0.625014 0.077629 F F F Ti
0.375009 0.375000 0.823912 F F F Ti
0.874942 0.374913 0.823877 F F F Ti
0.374995 0.874950 0.823841 F F F Ti
0.875081 0.875074 0.823782 F F F Ti
0.125069 0.125083 0.823876 F F F Ti
0.624994 0.125000 0.823912 F F F Ti
0.124917 0.624928 0.823785 F F F Ti
0.625011 0.625040 0.823842 F F F Ti
0.124973 0.375021 0.910153 F F F Ti
0.625006 0.374989 0.910160 F F F Ti
0.125006 0.874978 0.910100 F F F Ti
0.625001 0.874999 0.910122 F F F Ti
0.374999 0.125010 0.910160 F F F Ti
0.875031 0.124977 0.910152 F F F Ti
0.375003 0.625001 0.910123 F F F Ti
0.875000 0.625025 0.910100 F F F Ti
0.387947 0.384994 0.661066 T T T Ti
0.890260 0.373692 0.648754 T T T Ti
0.386868 0.892351 0.651168 T T T Ti
0.889605 0.882523 0.665364 T T T Ti
0.109739 0.126306 0.648753 T T T Ti
0.612051 0.115003 0.661066 T T T Ti
0.110393 0.617473 0.665365 T T T Ti
0.613130 0.607644 0.651169 T T T Ti
0.145610 0.379268 0.568498 T T T Ti
0.642618 0.343798 0.576461 T T T Ti
0.131036 0.858309 0.579846 T T T Ti
0.665946 0.881149 0.576214 T T T Ti
0.357381 0.156202 0.576461 T T T Ti
0.854389 0.120732 0.568497 T T T Ti
0.334053 0.618849 0.576214 T T T Ti
0.868963 0.641689 0.579846 T T T Ti
0.409975 0.394505 0.491492 T T T Ti
0.894741 0.373082 0.488770 T T T Ti
0.328077 0.938364 0.489741 T T T Ti
0.915740 0.879473 0.482853 T T T Ti
0.105258 0.126918 0.488770 T T T Ti
0.590024 0.105495 0.491492 T T T Ti
0.084260 0.620527 0.482853 T T T Ti
0.671923 0.561635 0.489742 T T T Ti
0.125364 0.875016 0.737591 F F F Ti
0.625237 0.875107 0.737712 F F F Ti
0.374751 0.624872 0.737717 F F F Ti
0.874631 0.624973 0.737594 F F F Ti
0.124784 0.374938 0.737676 F F F Ti
0.625052 0.374624 0.737699 F F F Ti
0.374939 0.125356 0.737693 F F F Ti
0.875208 0.125044 0.737673 F F F Ti
0.500000 0.750000 0.484641 T T T Zr

0.000000 0.000000 0.000000
0.000000 0.000000 0.000000
0.000000 0.000000 0.000000
0.000000 0.000000 0.000000
0.000000 0.000000 0.000000
0.000000 0.000000 0.000000
0.000000 0.000000 0.000000
0.000000 0.000000 0.000000
0.000000 0.000000 0.000000
0.000000 0.000000 0.000000
0.000000 0.000000 0.000000
0.000000 0.000000 0.000000
0.000000 0.000000 0.000000
0.000000 0.000000 0.000000
0.000000 0.000000 0.000000
0.000000 0.000000 0.000000
0.000000 0.000000 0.000000
0.000000 0.000000 0.000000
0.000000 0.000000 0.000000
0.000000 0.000000 0.000000
0.000000 0.000000 0.000000
0.000000 0.000000 0.000000
0.000000 0.000000 0.000000
0.000000 0.000000 0.000000
0.000000 0.000000 0.000000
0.000000 0.000000 0.000000
0.000000 0.000000 0.000000
0.000000 0.000000 0.000000
0.000000 0.000000 0.000000
0.000000 0.000000 0.000000
0.000000 0.000000 0.000000
0.000000 0.000000 0.000000
0.000000 0.000000 0.000000
0.000000 0.000000 0.000000
0.000000 0.000000 0.000000
0.000000 0.000000 0.000000
0.000000 0.000000 0.000000
0.000000 0.000000 0.000000
0.000000 0.000000 0.000000
0.000000 0.000000 0.000000
0.000000 0.000000 0.000000
0.000000 0.000000 0.000000
0.000000 0.000000 0.000000
0.000000 0.000000 0.000000
0.000000 0.000000 0.000000
0.000000 0.000000 0.000000
0.000000 0.000000 0.000000
0.000000 0.000000 0.000000
0.000000 0.000000 0.000000
0.000000 0.000000 0.000000
0.000000 0.000000 0.000000
0.000000 0.000000 0.000000
0.000000 0.000000 0.000000
0.000000 0.000000 0.000000
0.000000 0.000000 0.000000
0.000000 0.000000 0.000000
0.000000 0.000000 0.000000
0.000000 0.000000 0.000000
0.000000 0.000000 0.000000
0.000000 0.000000 0.000000
0.000000 0.000000 0.000000
0.000000 0.000000 0.000000
0.000000 0.000000 0.000000
0.000000 0.000000 0.000000
0.000000 0.000000 0.000000
0.000000 0.000000 0.000000
0.000000 0.000000 0.000000
0.000000 0.000000 0.000000
0.000000 0.000000 0.000000
0.000000 0.000000 0.000000
0.000000 0.000000 0.000000
0.000000 0.000000 0.000000
0.000000 0.000000 0.000000
0.000000 0.000000 0.000000
0.000000 0.000000 0.000000
0.000000 0.000000 0.000000
0.000000 0.000000 0.000000
0.000000 0.000000 0.000000
0.000000 0.000000 0.000000
0.000000 0.000000 0.000000
0.000000 0.000000 0.000000
0.000000 0.000000 0.000000
0.000000 0.000000 0.000000
0.000000 0.000000 0.000000
0.000000 0.000000 0.000000
0.000000 0.000000 0.000000
0.000000 0.000000 0.000000
0.000000 0.000000 0.000000
0.000000 0.000000 0.000000
0.000000 0.000000 0.000000
0.000000 0.000000 0.000000
0.000000 0.000000 0.000000
0.000000 0.000000 0.000000
0.000000 0.000000 0.000000
0.000000 0.000000 0.000000
0.000000 0.000000 0.000000
0.000000 0.000000 0.000000
