alpha_Ti
1.0
6.309760 0.000000 0.000000
0.000000 9.464640 0.000000
0.000000 0.000000 33.000004
Ti
32
direct
0.125000 0.625000 0.204545 Ti
0.625000 0.625000 0.204545 Ti
0.125000 0.625000 0.068182 Ti
0.625000 0.625000 0.068182 Ti
0.125000 0.125000 0.204545 Ti
0.625000 0.125000 0.204545 Ti
0.125000 0.125000 0.068182 Ti
0.625000 0.125000 0.068182 Ti
0.125000 0.375000 0.022727 Ti
0.625000 0.375000 0.022727 Ti
0.125000 0.875000 0.022727 Ti
0.625000 0.875000 0.022727 Ti
0.125000 0.375000 0.159091 Ti
0.625000 0.375000 0.159091 Ti
0.125000 0.875000 0.159091 Ti
0.625000 0.875000 0.159091 Ti
0.375000 0.875000 0.090909 Ti
0.875000 0.875000 0.090909 Ti
0.374999 0.375000 0.090909 Ti
0.874999 0.375000 0.090909 Ti
0.375000 0.375000 0.227273 Ti
0.875000 0.375000 0.227273 Ti
0.375000 0.875000 0.227273 Ti
0.875000 0.875000 0.227273 Ti
0.375000 0.625000 0.136364 Ti
0.875000 0.625000 0.136364 Ti
0.375000 0.625000 -0.000000 Ti
0.875000 0.625000 -0.000000 Ti
0.375000 0.125000 0.136364 Ti
0.875000 0.125000 0.136364 Ti
0.375000 0.125000 -0.000000 Ti
0.875000 0.125000 -0.000000 Ti
