Ti97
1.0
9.513020 0.000000 0.000000
0.000000 9.350860 0.000000
0.000000 0.000000 18.547230
Ti
97
Selective dynamics
direct
0.145050 0.377843 0.402901 T T T Ti
0.651285 0.363425 0.399519 T T T Ti
0.167053 0.882028 0.402158 T T T Ti
0.632995 0.928484 0.397651 T T T Ti
0.162585 0.377026 0.235877 T T T Ti
0.659741 0.379930 0.234814 T T T Ti
0.159510 0.875897 0.236400 T T T Ti
0.656493 0.878278 0.233698 T T T Ti
0.166639 0.375012 0.077602 F F F Ti
0.666684 0.375029 0.077601 F F F Ti
0.166704 0.875026 0.077593 F F F Ti
0.666675 0.874981 0.077645 F F F Ti
0.402341 0.373197 0.320008 T T T Ti
0.911305 0.363517 0.310615 T T T Ti
0.409024 0.870084 0.317200 T T T Ti
0.911211 0.874482 0.327092 T T T Ti
0.416576 0.375021 0.155227 F F F Ti
0.916728 0.375019 0.155219 F F F Ti
0.416700 0.874991 0.155267 F F F Ti
0.916773 0.874950 0.155269 F F F Ti
0.416680 0.375004 -0.000015 F F F Ti
0.916647 0.375015 -0.000009 F F F Ti
0.416698 0.875004 0.000000 F F F Ti
0.916652 0.875000 0.000009 F F F Ti
0.097659 0.126804 0.320007 T T T Ti
0.588695 0.136484 0.310614 T T T Ti
0.090975 0.629917 0.317199 T T T Ti
0.588789 0.625519 0.327091 T T T Ti
0.083427 0.124993 0.155227 F F F Ti
0.583269 0.124994 0.155219 F F F Ti
0.083303 0.625020 0.155267 F F F Ti
0.583224 0.625063 0.155268 F F F Ti
0.083323 0.125005 -0.000016 F F F Ti
0.583352 0.124994 -0.000009 F F F Ti
0.083306 0.625001 0.000002 F F F Ti
0.583347 0.625007 0.000009 F F F Ti
0.354949 0.122157 0.402901 T T T Ti
0.848714 0.136575 0.399519 T T T Ti
0.332946 0.617973 0.402158 T T T Ti
0.867004 0.571516 0.397651 T T T Ti
0.337414 0.122977 0.235877 T T T Ti
0.840258 0.120073 0.234813 T T T Ti
0.340489 0.624106 0.236400 T T T Ti
0.843506 0.621725 0.233698 T T T Ti
0.333361 0.125001 0.077602 F F F Ti
0.833316 0.124983 0.077601 F F F Ti
0.333296 0.624986 0.077594 F F F Ti
0.833325 0.625030 0.077646 F F F Ti
0.375008 0.374962 0.823929 F F F Ti
0.875012 0.374955 0.823818 F F F Ti
0.375040 0.875028 0.823919 F F F Ti
0.874953 0.875003 0.823891 F F F Ti
0.124998 0.125029 0.823928 F F F Ti
0.624996 0.125043 0.823818 F F F Ti
0.124963 0.624962 0.823921 F F F Ti
0.625051 0.624992 0.823893 F F F Ti
0.124922 0.375029 0.910135 F F F Ti
0.625059 0.375028 0.910107 F F F Ti
0.124925 0.874981 0.910132 F F F Ti
0.625042 0.874988 0.910088 F F F Ti
0.375082 0.124970 0.910134 F F F Ti
0.874944 0.124970 0.910106 F F F Ti
0.375080 0.625015 0.910132 F F F Ti
0.874964 0.625013 0.910089 F F F Ti
0.394059 0.367307 0.646845 T T T Ti
0.892307 0.364013 0.663612 T T T Ti
0.384382 0.862222 0.662723 T T T Ti
0.892528 0.862143 0.650216 T T T Ti
0.105940 0.132688 0.646845 T T T Ti
0.607691 0.135983 0.663612 T T T Ti
0.115615 0.637771 0.662723 T T T Ti
0.607469 0.637851 0.650217 T T T Ti
0.143486 0.391814 0.573241 T T T Ti
0.654447 0.380385 0.578662 T T T Ti
0.154503 0.879019 0.571988 T T T Ti
0.628043 0.900077 0.581961 T T T Ti
0.356513 0.108184 0.573241 T T T Ti
0.845552 0.119613 0.578661 T T T Ti
0.345497 0.620980 0.571988 T T T Ti
0.871956 0.599921 0.581961 T T T Ti
0.387517 0.363150 0.489226 T T T Ti
0.903232 0.355170 0.494430 T T T Ti
0.410250 0.855718 0.485172 T T T Ti
0.927572 0.909916 0.484367 T T T Ti
0.112483 0.136849 0.489226 T T T Ti
0.596767 0.144830 0.494430 T T T Ti
0.089750 0.644281 0.485172 T T T Ti
0.572428 0.590084 0.484367 T T T Ti
0.125118 0.874924 0.737790 F F F Ti
0.624886 0.875228 0.737627 F F F Ti
0.374868 0.625046 0.737791 F F F Ti
0.875108 0.624753 0.737630 F F F Ti
0.124953 0.374965 0.737682 F F F Ti
0.625172 0.374750 0.737642 F F F Ti
0.375038 0.125016 0.737680 F F F Ti
0.874822 0.125232 0.737640 F F F Ti
0.750000 0.750000 0.451848 T T T Ti

0.000000 0.000000 0.000000
0.000000 0.000000 0.000000
0.000000 0.000000 0.000000
0.000000 0.000000 0.000000
0.000000 0.000000 0.000000
0.000000 0.000000 0.000000
0.000000 0.000000 0.000000
0.000000 0.000000 0.000000
0.000000 0.000000 0.000000
0.000000 0.000000 0.000000
0.000000 0.000000 0.000000
0.000000 0.000000 0.000000
0.000000 0.000000 0.000000
0.000000 0.000000 0.000000
0.000000 0.000000 0.000000
0.000000 0.000000 0.000000
0.000000 0.000000 0.000000
0.000000 0.000000 0.000000
0.000000 0.000000 0.000000
0.000000 0.000000 0.000000
0.000000 0.000000 0.000000
0.000000 0.000000 0.000000
0.000000 0.000000 0.000000
0.000000 0.000000 0.000000
0.000000 0.000000 0.000000
0.000000 0.000000 0.000000
0.000000 0.000000 0.000000
0.000000 0.000000 0.000000
0.000000 0.000000 0.000000
0.000000 0.000000 0.000000
0.000000 0.000000 0.000000
0.000000 0.000000 0.000000
0.000000 0.000000 0.000000
0.000000 0.000000 0.000000
0.000000 0.000000 0.000000
0.000000 0.000000 0.000000
0.000000 0.000000 0.000000
0.000000 0.000000 0.000000
0.000000 0.000000 0.000000
0.000000 0.000000 0.000000
0.000000 0.000000 0.000000
0.000000 0.000000 0.000000
0.000000 0.000000 0.000000
0.000000 0.000000 0.000000
0.000000 0.000000 0.000000
0.000000 0.000000 0.000000
0.000000 0.000000 0.000000
0.000000 0.000000 0.000000
0.000000 0.000000 0.000000
0.000000 0.000000 0.000000
0.000000 0.000000 0.000000
0.000000 0.000000 0.000000
0.000000 0.000000 0.000000
0.000000 0.000000 0.000000
0.000000 0.000000 0.000000
0.000000 0.000000 0.000000
0.000000 0.000000 0.000000
0.000000 0.000000 0.000000
0.000000 0.000000 0.000000
0.000000 0.000000 0.000000
0.000000 0.000000 0.000000
0.000000 0.000000 0.000000
0.000000 0.000000 0.000000
0.000000 0.000000 0.000000
0.000000 0.000000 0.000000
0.000000 0.000000 0.000000
0.000000 0.000000 0.000000
0.000000 0.000000 0.000000
0.000000 0.000000 0.000000
0.000000 0.000000 0.000000
0.000000 0.000000 0.000000
0.000000 0.000000 0.000000
0.000000 0.000000 0.000000
0.000000 0.000000 0.000000
0.000000 0.000000 0.000000
0.000000 0.000000 0.000000
0.000000 0.000000 0.000000
0.000000 0.000000 0.000000
0.000000 0.000000 0.000000
0.000000 0.000000 0.000000
0.000000 0.000000 0.000000
0.000000 0.000000 0.000000
0.000000 0.000000 0.000000
0.000000 0.000000 0.000000
0.000000 0.000000 0.000000
0.000000 0.000000 0.000000
0.000000 0.000000 0.000000
0.000000 0.000000 0.000000
0.000000 0.000000 0.000000
0.000000 0.000000 0.000000
0.000000 0.000000 0.000000
0.000000 0.000000 0.000000
0.000000 0.000000 0.000000
0.000000 0.000000 0.000000
0.000000 0.000000 0.000000
0.000000 0.000000 0.000000
0.000000 0.000000 0.000000
