total_Ti
1.0
8.805261 0.000000 0.000000
-4.402630 7.625580 0.000000
0.000000 0.000000 18.488801
Ti
72
direct
0.967272 0.027818 0.486345 Ti
0.967272 0.527818 0.486345 Ti
0.467272 0.027818 0.486345 Ti
0.467272 0.527818 0.486345 Ti
0.133938 0.361151 0.836408 Ti
0.133938 0.861151 0.836408 Ti
0.633938 0.361151 0.836408 Ti
0.633938 0.861151 0.836408 Ti
0.300605 0.194485 0.886417 Ti
0.300605 0.694485 0.886417 Ti
0.800605 0.194485 0.886417 Ti
0.800605 0.694485 0.886417 Ti
0.133938 0.361151 0.536354 Ti
0.133938 0.861151 0.536354 Ti
0.633938 0.361151 0.536354 Ti
0.633938 0.861151 0.536354 Ti
0.300605 0.194485 0.586363 Ti
0.300605 0.694485 0.586363 Ti
0.800605 0.194485 0.586363 Ti
0.800605 0.694485 0.586363 Ti
0.967272 0.027818 0.636372 Ti
0.967272 0.527818 0.636372 Ti
0.467272 0.027818 0.636372 Ti
0.467272 0.527818 0.636372 Ti
0.133938 0.361151 0.686381 Ti
0.133938 0.861151 0.686381 Ti
0.633938 0.361151 0.686381 Ti
0.633938 0.861151 0.686381 Ti
0.300605 0.194485 0.736390 Ti
0.300605 0.694485 0.736390 Ti
0.800605 0.194485 0.736390 Ti
0.800605 0.694485 0.736390 Ti
0.967272 0.027818 0.786399 Ti
0.967272 0.527818 0.786399 Ti
0.467272 0.027818 0.786399 Ti
0.467272 0.527818 0.786399 Ti
0.111111 0.888889 -0.000000 Ti
0.111111 0.888889 0.248508 Ti
0.111111 0.555556 -0.000000 Ti
0.222222 0.777778 0.124254 Ti
0.111111 0.555556 0.248508 Ti
0.444444 0.888889 -0.000000 Ti
0.111111 0.222222 -0.000000 Ti
0.222222 0.777778 0.372762 Ti
0.222222 0.444444 0.124254 Ti
0.444444 0.888889 0.248508 Ti
0.111111 0.222222 0.248508 Ti
0.444444 0.555556 -0.000000 Ti
0.222222 0.444444 0.372762 Ti
0.555556 0.777778 0.124254 Ti
0.222222 0.111111 0.124254 Ti
0.444444 0.555556 0.248508 Ti
0.777778 0.888889 -0.000000 Ti
0.444444 0.222222 -0.000000 Ti
0.555556 0.777778 0.372762 Ti
0.222222 0.111111 0.372762 Ti
0.555556 0.444444 0.124254 Ti
0.777778 0.888889 0.248508 Ti
0.444444 0.222222 0.248508 Ti
0.777778 0.555556 -0.000000 Ti
0.555556 0.444444 0.372762 Ti
0.888889 0.777778 0.124254 Ti
0.555556 0.111111 0.124254 Ti
0.777778 0.555556 0.248508 Ti
0.777778 0.222222 -0.000000 Ti
0.888889 0.777778 0.372762 Ti
0.555556 0.111111 0.372762 Ti
0.888889 0.444444 0.124254 Ti
0.777778 0.222222 0.248508 Ti
0.888889 0.444444 0.372762 Ti
0.888889 0.111111 0.124254 Ti
0.888889 0.111111 0.372762 Ti
