substance_top
1.0
   3.5061499999999999    0.0000000000000000    0.0000000000000002
   0.0000000000000019   12.0001999999999995    0.0000000000000007
   0.0000000000000000    0.0000000000000000   27.0416049620000045
Fe
36
Selective dynamics
direct
   0.9933200000000000    0.7184400000000000    0.6301963243286578 F F F Fe
   0.4933200000000000    0.5543100000000000    0.6173587501725445 F F F Fe
   0.4933200000000000    0.7391600000000000    0.5780604596497246 F F F Fe
   0.9933200000000000    0.5750200000000000    0.5652228854936113 F F F Fe
   0.9933200000000001    0.3901700000000000    0.6045112321170073 F F F Fe
   0.4933200000000000    0.2260400000000000    0.5916736579608938 F F F Fe
   0.4933200000000000    0.4108899999999999    0.5523753674380740 F F F Fe
   0.9933200000000001    0.2467500000000000    0.5395377932819606 F F F Fe
   0.9933200000000000    0.0619000000000000    0.5788261399053565 F F F Fe
   0.4933200000000000    0.8977699999999998    0.5659885657492432 F F F Fe
   0.4933200000000000    0.0826200000000000    0.5266902752264234 F F F Fe
   0.9933200000000000    0.9184800000000000    0.5138527010703099 F F F Fe
   0.9933200000000000    0.7598700000000000    0.5259345388702152 F F F Fe
   0.4933200000000000    0.5957300000000000    0.5130870208146781 F F F Fe
   0.4933200000000000    0.7805800000000001    0.4737986741912822 F F F Fe
   0.9933200000000001    0.6164500000000001    0.4609511561357448 F F F Fe
   0.9933200000000001    0.4315999999999999    0.5002494466585646 F F F Fe
   0.4933200000000000    0.2674600000000000    0.4874019286030274 F F F Fe
   0.4933200000000000    0.4523100000000000    0.4481135819796315 F F F Fe
   0.9933200000000001    0.2881800000000000    0.4352660639240943 F F F Fe
   0.9933199999999999    0.1033300000000000    0.4745643544469140 F F F Fe
   0.4933200000000000    0.9391999999999999    0.4617168363913767 F F F Fe
   0.4933200000000000    0.1240400000000000    0.4224284897679808 F F F Fe
   0.9933200000000000    0.9599100000000000    0.4095809717124436 F F F Fe
   0.9933200000000000    0.8013000000000000    0.4216628095123489 F F F Fe
   0.4933200000000000    0.6371599999999998    0.4088252353562356 F F F Fe
   0.4933200000000000    0.8220099999999999    0.3695269448334159 F F F Fe
   0.9933200000000001    0.6578799999999999    0.3566893706773023 F F F Fe
   0.9933200000000001    0.4730300000000000    0.3959777173006983 F F F Fe
   0.4933200000000000    0.3088900000000000    0.3831401431445849 F F F Fe
   0.4933200000000000    0.4937400000000000    0.3438418526217651 F F F Fe
   0.9933200000000000    0.3296100000000000    0.3310042784656518 F F F Fe
   0.9933200000000001    0.1447600000000000    0.3702926250890477 F F F Fe
   0.4933200000000000    0.9806200000000000    0.3574550509329342 F F F Fe
   0.4933200000000000    0.1654700000000000    0.3181567604101145 F F F Fe
   0.9933200000000000    0.0013400000000000    0.3053191862540011 F F F Fe
