substance_bottem
1.0
   3.5061499999999999    0.0000000000000000    0.0000000000000002
   0.0000000000000019   12.0001999999999995    0.0000000000000007
   0.0000000000000000    0.0000000000000000   27.0416049620000045
Cr N
16 16
Selective dynamics
direct
   0.0000000000000000    0.0000000000000000    0.2324684807293724 F F F Cr
  -0.0000000000000000    0.2500000000000000    0.2324684807293724 F F F Cr
   0.5000000000000000    0.1250000000000000    0.1549756725197737 F F F Cr
   0.5000000000000000    0.3750000000000000    0.1549756725197736 F F F Cr
   0.0000000000000000    0.0000000000000000    0.0774928082095987 F F F Cr
  -0.0000000000000000    0.2500000000000000    0.0774928082095987 F F F Cr
   0.5000000000000000    0.1250000000000000   -0.0000000000000000 F F F Cr
   0.5000000000000000    0.3750000000000000   -0.0000000000000000 F F F Cr
  -0.0000000000000000    0.5000000000000000    0.2324684807293724 F F F Cr
  -0.0000000000000000    0.7500000000000000    0.2324684807293724 F F F Cr
   0.5000000000000000    0.6250000000000000    0.1549756725197737 F F F Cr
   0.4999999999999999    0.8749999999999999    0.1549756725197737 F F F Cr
  -0.0000000000000000    0.5000000000000000    0.0774928082095987 F F F Cr
  -0.0000000000000000    0.7500000000000000    0.0774928082095987 F F F Cr
   0.5000000000000000    0.6250000000000000   -0.0000000000000000 F F F Cr
   0.4999999999999999    0.8749999999999999   -0.0000000000000000 F F F Cr
   0.5000000000000000    0.1250000000000000    0.2324684807293724 F F F N
   0.5000000000000000    0.3750000000000000    0.2324684807293724 F F F N
   0.0000000000000000    0.0000000000000000    0.1549756725197737 F F F N
  -0.0000000000000000    0.2500000000000000    0.1549756725197737 F F F N
   0.5000000000000000    0.1250000000000000    0.0774928082095987 F F F N
   0.5000000000000000    0.3750000000000000    0.0774928082095987 F F F N
   0.0000000000000000    0.0000000000000000    0.0000000000000000 F F F N
  -0.0000000000000000    0.2500000000000000   -0.0000000000000000 F F F N
   0.5000000000000000    0.6250000000000000    0.2324684807293724 F F F N
   0.4999999999999999    0.8749999999999999    0.2324684807293724 F F F N
  -0.0000000000000000    0.5000000000000000    0.1549756725197737 F F F N
  -0.0000000000000000    0.7500000000000000    0.1549756725197737 F F F N
   0.5000000000000000    0.6250000000000000    0.0774928082095987 F F F N
   0.4999999999999999    0.8749999999999999    0.0774928082095987 F F F N
  -0.0000000000000000    0.5000000000000000   -0.0000000000000000 F F F N
  -0.0000000000000000    0.7500000000000000   -0.0000000000000000 F F F N
