total_Ti
1.0
8.805261 0.000000 0.000000
-4.402631 7.625580 0.000000
0.000000 0.000000 23.183422
Ti
90
direct
0.967272 0.027818 0.588203 Ti
0.967272 0.527818 0.588203 Ti
0.467272 0.027818 0.588203 Ti
0.467272 0.527818 0.588203 Ti
0.133938 0.361151 0.867378 Ti
0.133938 0.861151 0.867378 Ti
0.633938 0.361151 0.867378 Ti
0.633938 0.861151 0.867378 Ti
0.300605 0.194485 0.907261 Ti
0.300605 0.694485 0.907261 Ti
0.800605 0.194485 0.907261 Ti
0.800605 0.694485 0.907261 Ti
0.133938 0.361151 0.628085 Ti
0.133938 0.861151 0.628085 Ti
0.633938 0.361151 0.628085 Ti
0.633938 0.861151 0.628085 Ti
0.300605 0.194485 0.667967 Ti
0.300605 0.694485 0.667967 Ti
0.800605 0.194485 0.667967 Ti
0.800605 0.694485 0.667967 Ti
0.967272 0.027818 0.707849 Ti
0.967272 0.527818 0.707849 Ti
0.467272 0.027818 0.707849 Ti
0.467272 0.527818 0.707849 Ti
0.133938 0.361151 0.747732 Ti
0.133938 0.861151 0.747732 Ti
0.633938 0.361151 0.747732 Ti
0.633938 0.861151 0.747732 Ti
0.300605 0.194485 0.787614 Ti
0.300605 0.694485 0.787614 Ti
0.800605 0.194485 0.787614 Ti
0.800605 0.694485 0.787614 Ti
0.967272 0.027818 0.827496 Ti
0.967272 0.527818 0.827496 Ti
0.467272 0.027818 0.827496 Ti
0.467272 0.527818 0.827496 Ti
0.111111 0.888889 -0.000000 Ti
0.111111 0.888889 0.396371 Ti
0.111111 0.555556 -0.000000 Ti
0.222222 0.777778 0.099093 Ti
0.111111 0.555556 0.396371 Ti
0.444444 0.888889 -0.000000 Ti
0.111111 0.222222 -0.000000 Ti
0.222222 0.777778 0.495464 Ti
0.222222 0.444444 0.099093 Ti
0.444444 0.888889 0.396371 Ti
0.111111 0.222222 0.396371 Ti
0.444444 0.555556 -0.000000 Ti
0.222222 0.444444 0.495464 Ti
0.555556 0.777778 0.099093 Ti
0.222222 0.111111 0.099093 Ti
0.444444 0.555556 0.396371 Ti
0.777778 0.888889 -0.000000 Ti
0.444444 0.222222 -0.000000 Ti
0.555556 0.777778 0.495464 Ti
0.222222 0.111111 0.495464 Ti
0.555556 0.444444 0.099093 Ti
0.777778 0.888889 0.396371 Ti
0.444444 0.222222 0.396371 Ti
0.777778 0.555556 -0.000000 Ti
0.555556 0.444444 0.495464 Ti
0.888889 0.777778 0.099093 Ti
0.555556 0.111111 0.099093 Ti
0.777778 0.555556 0.396371 Ti
0.777778 0.222222 -0.000000 Ti
0.888889 0.777778 0.495464 Ti
0.555556 0.111111 0.495464 Ti
0.888889 0.444444 0.099093 Ti
0.777778 0.222222 0.396371 Ti
0.888889 0.444444 0.495464 Ti
0.888889 0.111111 0.099093 Ti
0.888889 0.111111 0.495464 Ti
0.111111 0.888889 0.198186 Ti
0.111111 0.555556 0.198186 Ti
0.222222 0.777778 0.297278 Ti
0.444444 0.888889 0.198186 Ti
0.111111 0.222222 0.198186 Ti
0.222222 0.444444 0.297278 Ti
0.444444 0.555556 0.198186 Ti
0.555556 0.777778 0.297278 Ti
0.222222 0.111111 0.297278 Ti
0.777778 0.888889 0.198186 Ti
0.444444 0.222222 0.198186 Ti
0.555556 0.444444 0.297278 Ti
0.777778 0.555556 0.198186 Ti
0.888889 0.777778 0.297278 Ti
0.555556 0.111111 0.297278 Ti
0.777778 0.222222 0.198186 Ti
0.888889 0.444444 0.297278 Ti
0.888889 0.111111 0.297278 Ti
