total_structure
1.0
   3.5061499999999999    0.0000000000000000    0.0000000000000002
   0.0000000000000019   12.0001999999999995    0.0000000000000007
   0.0000000000000000    0.0000000000000000   34.0716049620000021
Cr Fe N
16 36 16
Selective dynamics
direct
   0.0000000000000000    0.0000000000000000    0.1845032198809279 F F F Cr
  -0.0000000000000000    0.2500000000000000    0.1845032198809279 F F F Cr
   0.5000000000000000    0.1250000000000000    0.1229995158629592 F F F Cr
   0.5000000000000000    0.3750000000000000    0.1229995158629592 F F F Cr
   0.0000000000000000    0.0000000000000000    0.0615037040179686 F F F Cr
  -0.0000000000000000    0.2500000000000000    0.0615037040179686 F F F Cr
   0.5000000000000000    0.1250000000000000   -0.0000000000000000 F F F Cr
   0.5000000000000000    0.3750000000000000   -0.0000000000000000 F F F Cr
  -0.0000000000000000    0.5000000000000000    0.1845032198809279 F F F Cr
  -0.0000000000000000    0.7500000000000000    0.1845032198809279 F F F Cr
   0.5000000000000000    0.6250000000000000    0.1229995158629592 F F F Cr
   0.4999999999999999    0.8749999999999999    0.1229995158629592 F F F Cr
  -0.0000000000000000    0.5000000000000000    0.0615037040179686 F F F Cr
  -0.0000000000000000    0.7500000000000000    0.0615037040179686 F F F Cr
   0.5000000000000000    0.6250000000000000   -0.0000000000000000 F F F Cr
   0.4999999999999999    0.8749999999999999   -0.0000000000000000 F F F Cr
   0.9933200000000000    0.7184400000000000    0.7064979791191792 F F F Fe
   0.4933200000000000    0.5543100000000000    0.6963091838045125 F F F Fe
   0.4933200000000000    0.7391600000000000    0.6651193161952462 F F F Fe
   0.9933200000000000    0.5750200000000000    0.6549305208805796 F F F Fe
   0.9933200000000001    0.3901700000000000    0.6861124963168678 F F F Fe
   0.4933200000000000    0.2260400000000000    0.6759237010022010 F F F Fe
   0.4933200000000000    0.4108899999999999    0.6447338333929348 F F F Fe
   0.9933200000000001    0.2467500000000000    0.6345450380782681 F F F Fe
   0.9933200000000000    0.0619000000000000    0.6657270135145563 F F F Fe
   0.4933200000000000    0.8977699999999998    0.6555382181998897 F F F Fe
   0.4933200000000000    0.0826200000000000    0.6243483505906234 F F F Fe
   0.9933200000000000    0.9184800000000000    0.6141595552759567 F F F Fe
   0.9933200000000000    0.7598700000000000    0.6237485454442913 F F F Fe
   0.4933200000000000    0.5957300000000000    0.6135518579566467 F F F Fe
   0.4933200000000000    0.7805800000000001    0.5823698825203584 F F F Fe
   0.9933200000000001    0.6164500000000001    0.5721731950327136 F F F Fe
   0.9933200000000001    0.4315999999999999    0.6033630626419799 F F F Fe
   0.4933200000000000    0.2674600000000000    0.5931663751543352 F F F Fe
   0.4933200000000000    0.4523100000000000    0.5619843997180469 F F F Fe
   0.9933200000000001    0.2881800000000000    0.5517877122304021 F F F Fe
   0.9933199999999999    0.1033300000000000    0.5829775798396685 F F F Fe
   0.4933200000000000    0.9391999999999999    0.5727808923520238 F F F Fe
   0.4933200000000000    0.1240400000000000    0.5415989169157355 F F F Fe
   0.9933200000000000    0.9599100000000000    0.5314022294280907 F F F Fe
   0.9933200000000000    0.8013000000000000    0.5409912195964254 F F F Fe
   0.4933200000000000    0.6371599999999998    0.5308024242817587 F F F Fe
   0.4933200000000000    0.8220099999999999    0.4996125566724924 F F F Fe
   0.9933200000000001    0.6578799999999999    0.4894237613578258 F F F Fe
   0.9933200000000001    0.4730300000000000    0.5206057367941139 F F F Fe
   0.4933200000000000    0.3088900000000000    0.5104169414794473 F F F Fe
   0.4933200000000000    0.4937400000000000    0.4792270738701810 F F F Fe
   0.9933200000000000    0.3296100000000000    0.4690382785555143 F F F Fe
   0.9933200000000001    0.1447600000000000    0.5002202539918025 F F F Fe
   0.4933200000000000    0.9806200000000000    0.4900314586771358 F F F Fe
   0.4933200000000000    0.1654700000000000    0.4588415910678695 F F F Fe
   0.9933200000000000    0.0013400000000000    0.4486527957532029 F F F Fe
   0.5000000000000000    0.1250000000000000    0.1845032198809279 F F F N
   0.5000000000000000    0.3750000000000000    0.1845032198809279 F F F N
   0.0000000000000000    0.0000000000000000    0.1229995158629592 F F F N
  -0.0000000000000000    0.2500000000000000    0.1229995158629592 F F F N
   0.5000000000000000    0.1250000000000000    0.0615037040179686 F F F N
   0.5000000000000000    0.3750000000000000    0.0615037040179686 F F F N
   0.0000000000000000    0.0000000000000000    0.0000000000000000 F F F N
  -0.0000000000000000    0.2500000000000000   -0.0000000000000000 F F F N
   0.5000000000000000    0.6250000000000000    0.1845032198809279 F F F N
   0.4999999999999999    0.8749999999999999    0.1845032198809279 F F F N
  -0.0000000000000000    0.5000000000000000    0.1229995158629592 F F F N
  -0.0000000000000000    0.7500000000000000    0.1229995158629592 F F F N
   0.5000000000000000    0.6250000000000000    0.0615037040179686 F F F N
   0.4999999999999999    0.8749999999999999    0.0615037040179687 F F F N
  -0.0000000000000000    0.5000000000000000   -0.0000000000000000 F F F N
  -0.0000000000000000    0.7500000000000000   -0.0000000000000000 F F F N
