Ti66 Nb1
1.0
6.309760 0.000000 0.000000
0.000000 9.464640 0.000000
0.000000 0.000000 18.918326
Ti Nb
66 1
Selective dynamics
direct
0.627583 0.041784 0.499207 F F F Ti
0.629493 0.041713 0.658312 F F F Ti
0.125109 0.041699 0.816581 F F F Ti
0.625251 0.041715 0.816966 F F F Ti
0.125536 0.376031 0.499549 F F F Ti
0.625170 0.378676 0.498487 F F F Ti
0.125624 0.376379 0.658380 F F F Ti
0.625707 0.377462 0.659359 F F F Ti
0.125354 0.374845 0.817149 F F F Ti
0.625089 0.375067 0.817411 F F F Ti
0.125359 0.707231 0.499419 F F F Ti
0.624894 0.705280 0.498265 F F F Ti
0.125443 0.706783 0.658501 F F F Ti
0.625436 0.706223 0.659456 F F F Ti
0.125302 0.708449 0.817253 F F F Ti
0.625087 0.708322 0.817506 F F F Ti
0.388469 0.215223 0.578013 F F F Ti
0.859857 0.217690 0.577629 F F F Ti
0.375997 0.208612 0.737524 F F F Ti
0.874481 0.209344 0.737931 F F F Ti
0.374903 0.208105 0.896270 F F F Ti
0.875303 0.208171 0.896344 F F F Ti
0.375626 0.542090 0.579155 F F F Ti
0.875147 0.542131 0.579125 F F F Ti
0.374867 0.541825 0.738252 F F F Ti
0.875845 0.541762 0.738345 F F F Ti
0.374935 0.541657 0.896548 F F F Ti
0.875294 0.541653 0.896564 F F F Ti
0.388528 0.868158 0.578012 F F F Ti
0.859727 0.865641 0.577685 F F F Ti
0.376018 0.874772 0.737583 F F F Ti
0.874370 0.874034 0.737983 F F F Ti
0.374902 0.875247 0.896287 F F F Ti
0.875279 0.875206 0.896365 F F F Ti
0.124974 0.625047 0.356347 F F F Ti
0.625056 0.625007 0.355960 F F F Ti
0.124944 0.625116 0.118856 F F F Ti
0.624859 0.625092 0.118831 F F F Ti
0.125003 0.124893 0.356949 F F F Ti
0.625191 0.125059 0.356490 F F F Ti
0.124995 0.124946 0.118956 F F F Ti
0.624850 0.124961 0.118910 F F F Ti
0.124994 0.374878 0.039498 F F F Ti
0.624904 0.374892 0.039527 F F F Ti
0.124980 0.875136 0.039462 F F F Ti
0.624864 0.875121 0.039501 F F F Ti
0.124953 0.374881 0.277200 F F F Ti
0.624992 0.374900 0.277101 F F F Ti
0.125021 0.875121 0.277408 F F F Ti
0.624961 0.875092 0.277286 F F F Ti
0.374922 0.875076 0.158453 F F F Ti
0.875019 0.875079 0.158444 F F F Ti
0.374931 0.374941 0.158388 F F F Ti
0.875063 0.374939 0.158365 F F F Ti
0.374704 0.374995 0.395823 F F F Ti
0.875595 0.375148 0.395780 F F F Ti
0.375002 0.875109 0.396307 F F F Ti
0.875299 0.874841 0.396141 F F F Ti
0.374843 0.625062 0.237562 F F F Ti
0.875112 0.625046 0.237545 F F F Ti
0.374919 0.625110 0.000005 F F F Ti
0.875025 0.625103 0.000019 F F F Ti
0.374855 0.124951 0.237807 F F F Ti
0.875165 0.124949 0.237775 F F F Ti
0.374896 0.124972 -0.000134 F F F Ti
0.875063 0.124962 -0.000096 F F F Ti
0.114059 0.042244 0.615991 T T T Nb

0.000000 0.000000 0.000000
0.000000 0.000000 0.000000
0.000000 0.000000 0.000000
0.000000 0.000000 0.000000
0.000000 0.000000 0.000000
0.000000 0.000000 0.000000
0.000000 0.000000 0.000000
0.000000 0.000000 0.000000
0.000000 0.000000 0.000000
0.000000 0.000000 0.000000
0.000000 0.000000 0.000000
0.000000 0.000000 0.000000
0.000000 0.000000 0.000000
0.000000 0.000000 0.000000
0.000000 0.000000 0.000000
0.000000 0.000000 0.000000
0.000000 0.000000 0.000000
0.000000 0.000000 0.000000
0.000000 0.000000 0.000000
0.000000 0.000000 0.000000
0.000000 0.000000 0.000000
0.000000 0.000000 0.000000
0.000000 0.000000 0.000000
0.000000 0.000000 0.000000
0.000000 0.000000 0.000000
0.000000 0.000000 0.000000
0.000000 0.000000 0.000000
0.000000 0.000000 0.000000
0.000000 0.000000 0.000000
0.000000 0.000000 0.000000
0.000000 0.000000 0.000000
0.000000 0.000000 0.000000
0.000000 0.000000 0.000000
0.000000 0.000000 0.000000
0.000000 0.000000 0.000000
0.000000 0.000000 0.000000
0.000000 0.000000 0.000000
0.000000 0.000000 0.000000
0.000000 0.000000 0.000000
0.000000 0.000000 0.000000
0.000000 0.000000 0.000000
0.000000 0.000000 0.000000
0.000000 0.000000 0.000000
0.000000 0.000000 0.000000
0.000000 0.000000 0.000000
0.000000 0.000000 0.000000
0.000000 0.000000 0.000000
0.000000 0.000000 0.000000
0.000000 0.000000 0.000000
0.000000 0.000000 0.000000
0.000000 0.000000 0.000000
0.000000 0.000000 0.000000
0.000000 0.000000 0.000000
0.000000 0.000000 0.000000
0.000000 0.000000 0.000000
0.000000 0.000000 0.000000
0.000000 0.000000 0.000000
0.000000 0.000000 0.000000
0.000000 0.000000 0.000000
0.000000 0.000000 0.000000
0.000000 0.000000 0.000000
0.000000 0.000000 0.000000
0.000000 0.000000 0.000000
0.000000 0.000000 0.000000
0.000000 0.000000 0.000000
0.000000 0.000000 0.000000
0.000000 0.000000 0.000000
