Ti96 Al1
1.0
9.513020 0.000000 0.000000
0.000000 9.350860 0.000000
0.000000 0.000000 18.547230
Ti Al
96 1
Selective dynamics
direct
0.137343 0.365834 0.405113 T T T Ti
0.652898 0.356725 0.405584 T T T Ti
0.159993 0.862110 0.404044 T T T Ti
0.681454 0.911948 0.394416 T T T Ti
0.154086 0.373093 0.239050 T T T Ti
0.663445 0.371616 0.232693 T T T Ti
0.163947 0.872677 0.235093 T T T Ti
0.669323 0.885039 0.235569 T T T Ti
0.166602 0.375036 0.077496 F F F Ti
0.666732 0.374969 0.077461 F F F Ti
0.166645 0.875052 0.077545 F F F Ti
0.666669 0.875020 0.077623 F F F Ti
0.407215 0.367607 0.314177 T T T Ti
0.902334 0.373925 0.319598 T T T Ti
0.392766 0.906415 0.319975 T T T Ti
0.918073 0.876972 0.317496 T T T Ti
0.416663 0.375012 0.155091 F F F Ti
0.916709 0.374932 0.155050 F F F Ti
0.416567 0.874943 0.155320 F F F Ti
0.916728 0.875308 0.155031 F F F Ti
0.416654 0.375035 -0.000074 F F F Ti
0.916644 0.374993 -0.000125 F F F Ti
0.416662 0.874982 0.000014 F F F Ti
0.916652 0.875012 -0.000100 F F F Ti
0.097666 0.126077 0.319597 T T T Ti
0.592785 0.132394 0.314176 T T T Ti
0.081927 0.623030 0.317495 T T T Ti
0.607234 0.593587 0.319974 T T T Ti
0.083291 0.125092 0.155049 F F F Ti
0.583338 0.125013 0.155091 F F F Ti
0.083271 0.624717 0.155035 F F F Ti
0.583434 0.625071 0.155320 F F F Ti
0.083357 0.125015 -0.000126 F F F Ti
0.583345 0.124976 -0.000073 F F F Ti
0.083348 0.624998 -0.000099 F F F Ti
0.583339 0.625020 0.000013 F F F Ti
0.347101 0.143276 0.405584 T T T Ti
0.862656 0.134166 0.405113 T T T Ti
0.318545 0.588053 0.394416 T T T Ti
0.840006 0.637891 0.404044 T T T Ti
0.336555 0.128389 0.232693 T T T Ti
0.845913 0.126912 0.239050 T T T Ti
0.330676 0.614965 0.235570 T T T Ti
0.836052 0.627329 0.235093 T T T Ti
0.333268 0.125051 0.077461 F F F Ti
0.833397 0.124984 0.077497 F F F Ti
0.333330 0.624996 0.077623 F F F Ti
0.833355 0.624967 0.077546 F F F Ti
0.375006 0.375027 0.823881 F F F Ti
0.874925 0.375042 0.823891 F F F Ti
0.375078 0.874917 0.823810 F F F Ti
0.874986 0.874973 0.823818 F F F Ti
0.125079 0.124940 0.823892 F F F Ti
0.624994 0.124962 0.823881 F F F Ti
0.125017 0.625013 0.823819 F F F Ti
0.624927 0.625067 0.823809 F F F Ti
0.125036 0.375065 0.910138 F F F Ti
0.624980 0.375072 0.910171 F F F Ti
0.125093 0.874946 0.910158 F F F Ti
0.624966 0.874954 0.910213 F F F Ti
0.375026 0.124915 0.910172 F F F Ti
0.874966 0.124924 0.910138 F F F Ti
0.375037 0.625026 0.910212 F F F Ti
0.874909 0.625038 0.910157 F F F Ti
0.393148 0.400657 0.652234 T T T Ti
0.900766 0.375770 0.650732 T T T Ti
0.388641 0.884179 0.654212 T T T Ti
0.883110 0.883330 0.662915 T T T Ti
0.099233 0.124225 0.650733 T T T Ti
0.606850 0.099339 0.652234 T T T Ti
0.116889 0.616665 0.662916 T T T Ti
0.611358 0.615816 0.654212 T T T Ti
0.152331 0.383242 0.568112 T T T Ti
0.649166 0.346321 0.583137 T T T Ti
0.131014 0.862009 0.581226 T T T Ti
0.648110 0.855189 0.564227 T T T Ti
0.350833 0.153678 0.583137 T T T Ti
0.847668 0.116757 0.568112 T T T Ti
0.351890 0.644810 0.564227 T T T Ti
0.868986 0.637989 0.581226 T T T Ti
0.405075 0.381513 0.491129 T T T Ti
0.894764 0.374869 0.492309 T T T Ti
0.367337 0.921441 0.503129 T T T Ti
0.911187 0.877996 0.484111 T T T Ti
0.105236 0.125131 0.492309 T T T Ti
0.594925 0.118487 0.491129 T T T Ti
0.088813 0.622003 0.484111 T T T Ti
0.632663 0.578559 0.503129 T T T Ti
0.125207 0.874848 0.737620 F F F Ti
0.625136 0.875067 0.737567 F F F Ti
0.374860 0.624917 0.737569 F F F Ti
0.874788 0.625133 0.737619 F F F Ti
0.124872 0.374972 0.737701 F F F Ti
0.624987 0.375065 0.737649 F F F Ti
0.375007 0.124914 0.737650 F F F Ti
0.875120 0.125004 0.737700 F F F Ti
0.500000 0.750000 0.401385 T T T Al

0.000000 0.000000 0.000000
0.000000 0.000000 0.000000
0.000000 0.000000 0.000000
0.000000 0.000000 0.000000
0.000000 0.000000 0.000000
0.000000 0.000000 0.000000
0.000000 0.000000 0.000000
0.000000 0.000000 0.000000
0.000000 0.000000 0.000000
0.000000 0.000000 0.000000
0.000000 0.000000 0.000000
0.000000 0.000000 0.000000
0.000000 0.000000 0.000000
0.000000 0.000000 0.000000
0.000000 0.000000 0.000000
0.000000 0.000000 0.000000
0.000000 0.000000 0.000000
0.000000 0.000000 0.000000
0.000000 0.000000 0.000000
0.000000 0.000000 0.000000
0.000000 0.000000 0.000000
0.000000 0.000000 0.000000
0.000000 0.000000 0.000000
0.000000 0.000000 0.000000
0.000000 0.000000 0.000000
0.000000 0.000000 0.000000
0.000000 0.000000 0.000000
0.000000 0.000000 0.000000
0.000000 0.000000 0.000000
0.000000 0.000000 0.000000
0.000000 0.000000 0.000000
0.000000 0.000000 0.000000
0.000000 0.000000 0.000000
0.000000 0.000000 0.000000
0.000000 0.000000 0.000000
0.000000 0.000000 0.000000
0.000000 0.000000 0.000000
0.000000 0.000000 0.000000
0.000000 0.000000 0.000000
0.000000 0.000000 0.000000
0.000000 0.000000 0.000000
0.000000 0.000000 0.000000
0.000000 0.000000 0.000000
0.000000 0.000000 0.000000
0.000000 0.000000 0.000000
0.000000 0.000000 0.000000
0.000000 0.000000 0.000000
0.000000 0.000000 0.000000
0.000000 0.000000 0.000000
0.000000 0.000000 0.000000
0.000000 0.000000 0.000000
0.000000 0.000000 0.000000
0.000000 0.000000 0.000000
0.000000 0.000000 0.000000
0.000000 0.000000 0.000000
0.000000 0.000000 0.000000
0.000000 0.000000 0.000000
0.000000 0.000000 0.000000
0.000000 0.000000 0.000000
0.000000 0.000000 0.000000
0.000000 0.000000 0.000000
0.000000 0.000000 0.000000
0.000000 0.000000 0.000000
0.000000 0.000000 0.000000
0.000000 0.000000 0.000000
0.000000 0.000000 0.000000
0.000000 0.000000 0.000000
0.000000 0.000000 0.000000
0.000000 0.000000 0.000000
0.000000 0.000000 0.000000
0.000000 0.000000 0.000000
0.000000 0.000000 0.000000
0.000000 0.000000 0.000000
0.000000 0.000000 0.000000
0.000000 0.000000 0.000000
0.000000 0.000000 0.000000
0.000000 0.000000 0.000000
0.000000 0.000000 0.000000
0.000000 0.000000 0.000000
0.000000 0.000000 0.000000
0.000000 0.000000 0.000000
0.000000 0.000000 0.000000
0.000000 0.000000 0.000000
0.000000 0.000000 0.000000
0.000000 0.000000 0.000000
0.000000 0.000000 0.000000
0.000000 0.000000 0.000000
0.000000 0.000000 0.000000
0.000000 0.000000 0.000000
0.000000 0.000000 0.000000
0.000000 0.000000 0.000000
0.000000 0.000000 0.000000
0.000000 0.000000 0.000000
0.000000 0.000000 0.000000
0.000000 0.000000 0.000000
0.000000 0.000000 0.000000
0.000000 0.000000 0.000000
