Ti96 Nb1
1.0
9.513020 0.000000 0.000000
0.000000 9.350860 0.000000
0.000000 0.000000 18.547230
Ti Nb
96 1
Selective dynamics
direct
0.147618 0.372855 0.402511 T T T Ti
0.660281 0.354818 0.391295 T T T Ti
0.144031 0.865401 0.398320 T T T Ti
0.661236 0.860367 0.407236 T T T Ti
0.162723 0.370167 0.236358 T T T Ti
0.657468 0.373941 0.234759 T T T Ti
0.162232 0.873742 0.235281 T T T Ti
0.660312 0.873040 0.234598 T T T Ti
0.166661 0.375015 0.077679 F F F Ti
0.666675 0.374997 0.077668 F F F Ti
0.166670 0.875006 0.077689 F F F Ti
0.666670 0.875002 0.077686 F F F Ti
0.406546 0.386680 0.317878 T T T Ti
0.910477 0.378528 0.317245 T T T Ti
0.404082 0.877721 0.319596 T T T Ti
0.904862 0.878189 0.315176 T T T Ti
0.416664 0.374972 0.155300 F F F Ti
0.916684 0.374983 0.155311 F F F Ti
0.416674 0.875035 0.155321 F F F Ti
0.916678 0.874979 0.155327 F F F Ti
0.416659 0.375013 0.000001 F F F Ti
0.916660 0.375010 -0.000004 F F F Ti
0.416663 0.875001 -0.000011 F F F Ti
0.916663 0.874992 -0.000010 F F F Ti
0.089523 0.121472 0.317244 T T T Ti
0.593454 0.113320 0.317877 T T T Ti
0.095138 0.621811 0.315175 T T T Ti
0.595918 0.622279 0.319595 T T T Ti
0.083316 0.125022 0.155311 F F F Ti
0.583336 0.125034 0.155299 F F F Ti
0.083322 0.625025 0.155327 F F F Ti
0.583327 0.624970 0.155322 F F F Ti
0.083340 0.124994 -0.000004 F F F Ti
0.583341 0.124992 0.000000 F F F Ti
0.083337 0.625013 -0.000009 F F F Ti
0.583338 0.625005 -0.000010 F F F Ti
0.339718 0.145182 0.391295 T T T Ti
0.852381 0.127145 0.402511 T T T Ti
0.338763 0.639633 0.407236 T T T Ti
0.855968 0.634599 0.398320 T T T Ti
0.342531 0.126060 0.234759 T T T Ti
0.837276 0.129834 0.236358 T T T Ti
0.339687 0.626961 0.234598 T T T Ti
0.837767 0.626259 0.235281 T T T Ti
0.333324 0.125008 0.077668 F F F Ti
0.833338 0.124988 0.077679 F F F Ti
0.333330 0.625003 0.077686 F F F Ti
0.833330 0.624998 0.077690 F F F Ti
0.375004 0.374997 0.823876 F F F Ti
0.874984 0.374939 0.823839 F F F Ti
0.375048 0.875074 0.823801 F F F Ti
0.874932 0.875002 0.823791 F F F Ti
0.125021 0.125056 0.823838 F F F Ti
0.625000 0.125004 0.823877 F F F Ti
0.125068 0.624998 0.823792 F F F Ti
0.624954 0.624922 0.823804 F F F Ti
0.125013 0.375029 0.910128 F F F Ti
0.625008 0.375001 0.910153 F F F Ti
0.125031 0.874997 0.910100 F F F Ti
0.624991 0.874995 0.910122 F F F Ti
0.374994 0.124998 0.910151 F F F Ti
0.874990 0.124972 0.910127 F F F Ti
0.375012 0.625005 0.910122 F F F Ti
0.874973 0.625004 0.910101 F F F Ti
0.382326 0.370958 0.668949 T T T Ti
0.881125 0.389972 0.647601 T T T Ti
0.376307 0.889243 0.660990 T T T Ti
0.903163 0.880289 0.653911 T T T Ti
0.118874 0.110027 0.647601 T T T Ti
0.617673 0.129039 0.668949 T T T Ti
0.096835 0.619709 0.653911 T T T Ti
0.623693 0.610754 0.660991 T T T Ti
0.137026 0.358627 0.571877 T T T Ti
0.630023 0.358382 0.576806 T T T Ti
0.158357 0.851522 0.565630 T T T Ti
0.675638 0.920079 0.573918 T T T Ti
0.369977 0.141617 0.576806 T T T Ti
0.862973 0.141373 0.571877 T T T Ti
0.324362 0.579920 0.573919 T T T Ti
0.841643 0.648478 0.565630 T T T Ti
0.398246 0.371679 0.479359 T T T Ti
0.885811 0.382886 0.489613 T T T Ti
0.375834 -0.073723 0.475108 T T T Ti
0.914333 0.886409 0.485925 T T T Ti
0.114189 0.117114 0.489613 T T T Ti
0.601754 0.128321 0.479359 T T T Ti
0.085667 0.613591 0.485925 T T T Ti
0.624166 0.573723 0.475108 T T T Ti
0.125466 0.875171 0.737565 F F F Ti
0.625105 0.875092 0.737587 F F F Ti
0.374889 0.624897 0.737589 F F F Ti
0.874531 0.624820 0.737571 F F F Ti
0.125072 0.374915 0.737569 F F F Ti
0.625075 0.374800 0.737642 F F F Ti
0.374917 0.125186 0.737639 F F F Ti
0.874925 0.125076 0.737568 F F F Ti
0.500000 0.750000 0.546568 T T T Nb

0.000000 0.000000 0.000000
0.000000 0.000000 0.000000
0.000000 0.000000 0.000000
0.000000 0.000000 0.000000
0.000000 0.000000 0.000000
0.000000 0.000000 0.000000
0.000000 0.000000 0.000000
0.000000 0.000000 0.000000
0.000000 0.000000 0.000000
0.000000 0.000000 0.000000
0.000000 0.000000 0.000000
0.000000 0.000000 0.000000
0.000000 0.000000 0.000000
0.000000 0.000000 0.000000
0.000000 0.000000 0.000000
0.000000 0.000000 0.000000
0.000000 0.000000 0.000000
0.000000 0.000000 0.000000
0.000000 0.000000 0.000000
0.000000 0.000000 0.000000
0.000000 0.000000 0.000000
0.000000 0.000000 0.000000
0.000000 0.000000 0.000000
0.000000 0.000000 0.000000
0.000000 0.000000 0.000000
0.000000 0.000000 0.000000
0.000000 0.000000 0.000000
0.000000 0.000000 0.000000
0.000000 0.000000 0.000000
0.000000 0.000000 0.000000
0.000000 0.000000 0.000000
0.000000 0.000000 0.000000
0.000000 0.000000 0.000000
0.000000 0.000000 0.000000
0.000000 0.000000 0.000000
0.000000 0.000000 0.000000
0.000000 0.000000 0.000000
0.000000 0.000000 0.000000
0.000000 0.000000 0.000000
0.000000 0.000000 0.000000
0.000000 0.000000 0.000000
0.000000 0.000000 0.000000
0.000000 0.000000 0.000000
0.000000 0.000000 0.000000
0.000000 0.000000 0.000000
0.000000 0.000000 0.000000
0.000000 0.000000 0.000000
0.000000 0.000000 0.000000
0.000000 0.000000 0.000000
0.000000 0.000000 0.000000
0.000000 0.000000 0.000000
0.000000 0.000000 0.000000
0.000000 0.000000 0.000000
0.000000 0.000000 0.000000
0.000000 0.000000 0.000000
0.000000 0.000000 0.000000
0.000000 0.000000 0.000000
0.000000 0.000000 0.000000
0.000000 0.000000 0.000000
0.000000 0.000000 0.000000
0.000000 0.000000 0.000000
0.000000 0.000000 0.000000
0.000000 0.000000 0.000000
0.000000 0.000000 0.000000
0.000000 0.000000 0.000000
0.000000 0.000000 0.000000
0.000000 0.000000 0.000000
0.000000 0.000000 0.000000
0.000000 0.000000 0.000000
0.000000 0.000000 0.000000
0.000000 0.000000 0.000000
0.000000 0.000000 0.000000
0.000000 0.000000 0.000000
0.000000 0.000000 0.000000
0.000000 0.000000 0.000000
0.000000 0.000000 0.000000
0.000000 0.000000 0.000000
0.000000 0.000000 0.000000
0.000000 0.000000 0.000000
0.000000 0.000000 0.000000
0.000000 0.000000 0.000000
0.000000 0.000000 0.000000
0.000000 0.000000 0.000000
0.000000 0.000000 0.000000
0.000000 0.000000 0.000000
0.000000 0.000000 0.000000
0.000000 0.000000 0.000000
0.000000 0.000000 0.000000
0.000000 0.000000 0.000000
0.000000 0.000000 0.000000
0.000000 0.000000 0.000000
0.000000 0.000000 0.000000
0.000000 0.000000 0.000000
0.000000 0.000000 0.000000
0.000000 0.000000 0.000000
0.000000 0.000000 0.000000
0.000000 0.000000 0.000000
