total_Ti
1.0
8.805261 0.000000 0.000000
-4.402631 7.625580 0.000000
0.000000 0.000000 23.583422
Ti
90
direct
0.083333 0.916670 0.586707 Ti
0.083333 0.416670 0.586707 Ti
0.583333 0.916670 0.586707 Ti
0.583333 0.416670 0.586707 Ti
0.250000 0.250004 0.861147 Ti
0.250000 0.750004 0.861147 Ti
0.750000 0.250004 0.861147 Ti
0.750000 0.750004 0.861147 Ti
0.416667 0.083337 0.900353 Ti
0.416667 0.583337 0.900353 Ti
0.916667 0.083337 0.900353 Ti
0.916667 0.583337 0.900353 Ti
0.250000 0.250004 0.625912 Ti
0.250000 0.750004 0.625912 Ti
0.750000 0.250004 0.625912 Ti
0.750000 0.750004 0.625912 Ti
0.416667 0.083337 0.665118 Ti
0.416667 0.583337 0.665118 Ti
0.916667 0.083337 0.665118 Ti
0.916667 0.583337 0.665118 Ti
0.083333 0.916670 0.704324 Ti
0.083333 0.416670 0.704324 Ti
0.583333 0.916670 0.704324 Ti
0.583333 0.416670 0.704324 Ti
0.250000 0.250004 0.743530 Ti
0.250000 0.750004 0.743530 Ti
0.750000 0.250004 0.743530 Ti
0.750000 0.750004 0.743530 Ti
0.416667 0.083337 0.782736 Ti
0.416667 0.583337 0.782736 Ti
0.916667 0.083337 0.782736 Ti
0.916667 0.583337 0.782736 Ti
0.083333 0.916670 0.821941 Ti
0.083333 0.416670 0.821941 Ti
0.583333 0.916670 0.821941 Ti
0.583333 0.416670 0.821941 Ti
0.138888 0.861108 -0.000000 Ti
0.138888 0.861108 0.389648 Ti
0.138888 0.527774 -0.000000 Ti
0.249999 0.749996 0.097412 Ti
0.138888 0.527774 0.389648 Ti
0.472221 0.861108 -0.000000 Ti
0.138888 0.194441 -0.000000 Ti
0.249999 0.749996 0.487060 Ti
0.250000 0.416663 0.097412 Ti
0.472221 0.861108 0.389648 Ti
0.138888 0.194441 0.389648 Ti
0.472222 0.527774 -0.000000 Ti
0.250000 0.416663 0.487060 Ti
0.583333 0.749996 0.097412 Ti
0.250000 0.083330 0.097412 Ti
0.472222 0.527774 0.389648 Ti
0.805555 0.861108 -0.000000 Ti
0.472222 0.194441 -0.000000 Ti
0.583333 0.749996 0.487060 Ti
0.250000 0.083330 0.487060 Ti
0.583333 0.416663 0.097412 Ti
0.805555 0.861108 0.389648 Ti
0.472222 0.194441 0.389648 Ti
0.805555 0.527774 -0.000000 Ti
0.583333 0.416663 0.487060 Ti
0.916666 0.749996 0.097412 Ti
0.583333 0.083330 0.097412 Ti
0.805555 0.527774 0.389648 Ti
0.805555 0.194441 -0.000000 Ti
0.916666 0.749996 0.487060 Ti
0.583333 0.083330 0.487060 Ti
0.916666 0.416663 0.097412 Ti
0.805555 0.194441 0.389648 Ti
0.916666 0.416663 0.487060 Ti
0.916666 0.083330 0.097412 Ti
0.916666 0.083330 0.487060 Ti
0.138888 0.861108 0.194824 Ti
0.138888 0.527774 0.194824 Ti
0.249999 0.749996 0.292236 Ti
0.472221 0.861108 0.194824 Ti
0.138888 0.194441 0.194824 Ti
0.250000 0.416663 0.292236 Ti
0.472222 0.527774 0.194824 Ti
0.583333 0.749996 0.292236 Ti
0.250000 0.083330 0.292236 Ti
0.805555 0.861108 0.194824 Ti
0.472222 0.194441 0.194824 Ti
0.583333 0.416663 0.292236 Ti
0.805555 0.527774 0.194824 Ti
0.916666 0.749996 0.292236 Ti
0.583333 0.083330 0.292236 Ti
0.805555 0.194441 0.194824 Ti
0.916666 0.416663 0.292236 Ti
0.916666 0.083330 0.292236 Ti
