beta_Ti
1.0
5.745590 0.000000 0.000000
0.000000 9.072750 0.000000
0.000000 0.000000 36.625032
Ti
32
direct
0.291667 0.625000 0.500561 Ti
0.291667 0.125000 0.500561 Ti
0.791667 0.625000 0.500561 Ti
0.791667 0.125000 0.500561 Ti
0.458333 0.625000 0.573048 Ti
0.458333 0.125000 0.573048 Ti
0.958333 0.625000 0.573048 Ti
0.958333 0.125000 0.573048 Ti
0.125000 0.625000 0.645535 Ti
0.125000 0.125000 0.645535 Ti
0.625000 0.625000 0.645535 Ti
0.625000 0.125000 0.645535 Ti
0.291667 0.625000 0.718022 Ti
0.291667 0.125000 0.718022 Ti
0.791667 0.625000 0.718022 Ti
0.791667 0.125000 0.718022 Ti
0.125000 0.875000 0.536804 Ti
0.125000 0.375000 0.536804 Ti
0.625000 0.875000 0.536804 Ti
0.625000 0.375000 0.536804 Ti
0.291667 0.875000 0.609292 Ti
0.291667 0.375000 0.609292 Ti
0.791667 0.875000 0.609292 Ti
0.791667 0.375000 0.609292 Ti
0.458333 0.875000 0.681779 Ti
0.458333 0.375000 0.681779 Ti
0.958333 0.875000 0.681779 Ti
0.958333 0.375000 0.681779 Ti
0.125000 0.875000 0.754265 Ti
0.125000 0.375000 0.754265 Ti
0.625000 0.875000 0.754265 Ti
0.625000 0.375000 0.754265 Ti
