alpha_Ti
1.0
9.445957 0.000000 0.000000
0.000000 9.093951 0.000000
0.000000 0.000000 18.071864
Ti
48
direct
0.166666 0.375000 0.398663 Ti
0.666666 0.375000 0.398663 Ti
0.166666 0.875000 0.398663 Ti
0.666666 0.875000 0.398663 Ti
0.166666 0.375000 0.239199 Ti
0.666666 0.375000 0.239199 Ti
0.166666 0.875000 0.239199 Ti
0.666666 0.875000 0.239199 Ti
0.166666 0.375000 0.079733 Ti
0.666666 0.375000 0.079733 Ti
0.166666 0.875000 0.079733 Ti
0.666666 0.875000 0.079733 Ti
0.416667 0.375000 0.318932 Ti
0.916667 0.375000 0.318932 Ti
0.416667 0.875000 0.318932 Ti
0.916667 0.875000 0.318932 Ti
0.416667 0.375000 0.159466 Ti
0.916667 0.375000 0.159466 Ti
0.416667 0.875000 0.159466 Ti
0.916667 0.875000 0.159466 Ti
0.416667 0.375000 -0.000000 Ti
0.916667 0.375000 -0.000000 Ti
0.416667 0.875000 -0.000000 Ti
0.916667 0.875000 -0.000000 Ti
0.083333 0.125000 0.318930 Ti
0.583333 0.125000 0.318930 Ti
0.083333 0.625000 0.318930 Ti
0.583333 0.625000 0.318930 Ti
0.083333 0.125000 0.159466 Ti
0.583333 0.125000 0.159466 Ti
0.083333 0.625000 0.159466 Ti
0.583333 0.625000 0.159466 Ti
0.083333 0.125000 -0.000000 Ti
0.583333 0.125000 -0.000000 Ti
0.083333 0.625000 -0.000000 Ti
0.583333 0.625000 -0.000000 Ti
0.333333 0.125000 0.398663 Ti
0.833333 0.125000 0.398663 Ti
0.333333 0.625000 0.398663 Ti
0.833333 0.625000 0.398663 Ti
0.333333 0.125000 0.239199 Ti
0.833333 0.125000 0.239199 Ti
0.333333 0.625000 0.239199 Ti
0.833333 0.625000 0.239199 Ti
0.333333 0.125000 0.079733 Ti
0.833333 0.125000 0.079733 Ti
0.333333 0.625000 0.079733 Ti
0.833333 0.625000 0.079733 Ti
