beta_Ti
1.0
9.445957 0.000000 0.000000
0.000000 9.093951 0.000000
0.000000 0.000000 18.071864
Ti
48
direct
0.375000 0.375000 0.832254 Ti
0.875000 0.375000 0.832254 Ti
0.375000 0.875000 0.832254 Ti
0.875000 0.875000 0.832254 Ti
0.125000 0.125000 0.832254 Ti
0.625000 0.125000 0.832254 Ti
0.125000 0.625000 0.832254 Ti
0.625000 0.625000 0.832254 Ti
0.125000 0.375000 0.920870 Ti
0.625000 0.375000 0.920870 Ti
0.125000 0.875000 0.920870 Ti
0.625000 0.875000 0.920870 Ti
0.375000 0.125000 0.920870 Ti
0.875000 0.125000 0.920870 Ti
0.375000 0.625000 0.920870 Ti
0.875000 0.625000 0.920870 Ti
0.375000 0.375000 0.655023 Ti
0.875000 0.375000 0.655023 Ti
0.375000 0.875000 0.655023 Ti
0.875000 0.875000 0.655023 Ti
0.125000 0.125000 0.655023 Ti
0.625000 0.125000 0.655023 Ti
0.125000 0.625000 0.655023 Ti
0.625000 0.625000 0.655023 Ti
0.125000 0.375000 0.566408 Ti
0.625000 0.375000 0.566408 Ti
0.125000 0.875000 0.566408 Ti
0.625000 0.875000 0.566408 Ti
0.375000 0.125000 0.566408 Ti
0.875000 0.125000 0.566408 Ti
0.375000 0.625000 0.566408 Ti
0.875000 0.625000 0.566408 Ti
0.375000 0.375000 0.477792 Ti
0.875000 0.375000 0.477792 Ti
0.375000 0.875000 0.477792 Ti
0.875000 0.875000 0.477792 Ti
0.125000 0.125000 0.477792 Ti
0.625000 0.125000 0.477792 Ti
0.125000 0.625000 0.477792 Ti
0.625000 0.625000 0.477792 Ti
0.125000 0.875000 0.743639 Ti
0.625000 0.875000 0.743639 Ti
0.375000 0.625000 0.743639 Ti
0.875000 0.625000 0.743639 Ti
0.125000 0.375000 0.743639 Ti
0.625000 0.375000 0.743639 Ti
0.375000 0.125000 0.743639 Ti
0.875000 0.125000 0.743639 Ti
