Ti96 Mo1
1.0
9.513020 0.000000 0.000000
0.000000 9.350860 0.000000
0.000000 0.000000 18.547230
Ti Mo
96 1
Selective dynamics
direct
0.133985 0.360719 0.404327 T T T Ti
0.653417 0.353883 0.400727 T T T Ti
0.167463 0.856485 0.401599 T T T Ti
0.676647 0.914281 0.405771 T T T Ti
0.158835 0.377455 0.237520 T T T Ti
0.664742 0.368732 0.229360 T T T Ti
0.158706 0.872207 0.234139 T T T Ti
0.657218 0.862812 0.243801 T T T Ti
0.166666 0.374984 0.077598 F F F Ti
0.666669 0.374993 0.077657 F F F Ti
0.166692 0.875020 0.077641 F F F Ti
0.666668 0.875028 0.077635 F F F Ti
0.404776 0.370702 0.312741 T T T Ti
0.901236 0.379552 0.317601 T T T Ti
0.400242 0.902346 0.314728 T T T Ti
0.914447 0.878794 0.320508 T T T Ti
0.416690 0.374876 0.155220 F F F Ti
0.916590 0.374974 0.155188 F F F Ti
0.416641 0.875068 0.155273 F F F Ti
0.916798 0.875011 0.155160 F F F Ti
0.416692 0.375033 0.000059 F F F Ti
0.916602 0.375023 0.000011 F F F Ti
0.416685 0.874974 0.000112 F F F Ti
0.916635 0.874986 0.000034 F F F Ti
0.098764 0.120449 0.317600 T T T Ti
0.595224 0.129300 0.312740 T T T Ti
0.085553 0.621208 0.320507 T T T Ti
0.599758 0.597656 0.314727 T T T Ti
0.083410 0.125046 0.155188 F F F Ti
0.583310 0.125145 0.155219 F F F Ti
0.083201 0.625012 0.155161 F F F Ti
0.583361 0.624950 0.155274 F F F Ti
0.083399 0.124984 0.000011 F F F Ti
0.583309 0.124972 0.000059 F F F Ti
0.083364 0.625023 0.000035 F F F Ti
0.583317 0.625025 0.000114 F F F Ti
0.346582 0.146117 0.400727 T T T Ti
0.866014 0.139282 0.404327 T T T Ti
0.323352 0.585719 0.405771 T T T Ti
0.832536 0.643515 0.401599 T T T Ti
0.335258 0.131272 0.229360 T T T Ti
0.841164 0.122550 0.237520 T T T Ti
0.342781 0.637193 0.243801 T T T Ti
0.841293 0.627798 0.234139 T T T Ti
0.333330 0.125021 0.077657 F F F Ti
0.833334 0.125033 0.077598 F F F Ti
0.333332 0.624988 0.077636 F F F Ti
0.833307 0.624995 0.077642 F F F Ti
0.374937 0.375029 0.823997 F F F Ti
0.874969 0.374912 0.823924 F F F Ti
0.375022 0.874970 0.823954 F F F Ti
0.875086 0.875032 0.823912 F F F Ti
0.125039 0.125078 0.823925 F F F Ti
0.625065 0.124968 0.823997 F F F Ti
0.124915 0.624967 0.823914 F F F Ti
0.624987 0.625005 0.823954 F F F Ti
0.124947 0.375021 0.910176 F F F Ti
0.625017 0.374976 0.910203 F F F Ti
0.125030 0.874982 0.910183 F F F Ti
0.625002 0.874983 0.910196 F F F Ti
0.374986 0.125016 0.910205 F F F Ti
0.875057 0.124974 0.910175 F F F Ti
0.375004 0.625009 0.910197 F F F Ti
0.874976 0.625012 0.910183 F F F Ti
0.385988 0.389143 0.659734 T T T Ti
0.895395 0.386698 0.650046 T T T Ti
0.388095 0.879138 0.657139 T T T Ti
0.893225 0.884505 0.655991 T T T Ti
0.104605 0.113297 0.650046 T T T Ti
0.614010 0.110850 0.659734 T T T Ti
0.106773 0.615490 0.655991 T T T Ti
0.611903 0.620855 0.657139 T T T Ti
0.142483 0.366838 0.568173 T T T Ti
0.645617 0.358177 0.586089 T T T Ti
0.147615 0.854641 0.573718 T T T Ti
0.656880 0.878409 0.565239 T T T Ti
0.354382 0.141821 0.586089 T T T Ti
0.857517 0.133161 0.568173 T T T Ti
0.343120 0.621589 0.565239 T T T Ti
0.852384 0.645357 0.573719 T T T Ti
0.400690 0.363000 0.493611 T T T Ti
0.885652 0.386023 0.491132 T T T Ti
0.381584 0.931204 0.494918 T T T Ti
0.918640 0.883764 0.484474 T T T Ti
0.114348 0.113977 0.491132 T T T Ti
0.599310 0.137000 0.493611 T T T Ti
0.081360 0.616236 0.484474 T T T Ti
0.618416 0.568795 0.494918 T T T Ti
0.125271 0.874825 0.737741 F F F Ti
0.625169 0.874856 0.737762 F F F Ti
0.374820 0.625119 0.737762 F F F Ti
0.874722 0.625153 0.737742 F F F Ti
0.124465 0.375005 0.737669 F F F Ti
0.625147 0.374725 0.737807 F F F Ti
0.374841 0.125248 0.737805 F F F Ti
0.875531 0.124978 0.737663 F F F Ti
0.500000 0.750000 0.446164 T T T Mo

0.000000 0.000000 0.000000
0.000000 0.000000 0.000000
0.000000 0.000000 0.000000
0.000000 0.000000 0.000000
0.000000 0.000000 0.000000
0.000000 0.000000 0.000000
0.000000 0.000000 0.000000
0.000000 0.000000 0.000000
0.000000 0.000000 0.000000
0.000000 0.000000 0.000000
0.000000 0.000000 0.000000
0.000000 0.000000 0.000000
0.000000 0.000000 0.000000
0.000000 0.000000 0.000000
0.000000 0.000000 0.000000
0.000000 0.000000 0.000000
0.000000 0.000000 0.000000
0.000000 0.000000 0.000000
0.000000 0.000000 0.000000
0.000000 0.000000 0.000000
0.000000 0.000000 0.000000
0.000000 0.000000 0.000000
0.000000 0.000000 0.000000
0.000000 0.000000 0.000000
0.000000 0.000000 0.000000
0.000000 0.000000 0.000000
0.000000 0.000000 0.000000
0.000000 0.000000 0.000000
0.000000 0.000000 0.000000
0.000000 0.000000 0.000000
0.000000 0.000000 0.000000
0.000000 0.000000 0.000000
0.000000 0.000000 0.000000
0.000000 0.000000 0.000000
0.000000 0.000000 0.000000
0.000000 0.000000 0.000000
0.000000 0.000000 0.000000
0.000000 0.000000 0.000000
0.000000 0.000000 0.000000
0.000000 0.000000 0.000000
0.000000 0.000000 0.000000
0.000000 0.000000 0.000000
0.000000 0.000000 0.000000
0.000000 0.000000 0.000000
0.000000 0.000000 0.000000
0.000000 0.000000 0.000000
0.000000 0.000000 0.000000
0.000000 0.000000 0.000000
0.000000 0.000000 0.000000
0.000000 0.000000 0.000000
0.000000 0.000000 0.000000
0.000000 0.000000 0.000000
0.000000 0.000000 0.000000
0.000000 0.000000 0.000000
0.000000 0.000000 0.000000
0.000000 0.000000 0.000000
0.000000 0.000000 0.000000
0.000000 0.000000 0.000000
0.000000 0.000000 0.000000
0.000000 0.000000 0.000000
0.000000 0.000000 0.000000
0.000000 0.000000 0.000000
0.000000 0.000000 0.000000
0.000000 0.000000 0.000000
0.000000 0.000000 0.000000
0.000000 0.000000 0.000000
0.000000 0.000000 0.000000
0.000000 0.000000 0.000000
0.000000 0.000000 0.000000
0.000000 0.000000 0.000000
0.000000 0.000000 0.000000
0.000000 0.000000 0.000000
0.000000 0.000000 0.000000
0.000000 0.000000 0.000000
0.000000 0.000000 0.000000
0.000000 0.000000 0.000000
0.000000 0.000000 0.000000
0.000000 0.000000 0.000000
0.000000 0.000000 0.000000
0.000000 0.000000 0.000000
0.000000 0.000000 0.000000
0.000000 0.000000 0.000000
0.000000 0.000000 0.000000
0.000000 0.000000 0.000000
0.000000 0.000000 0.000000
0.000000 0.000000 0.000000
0.000000 0.000000 0.000000
0.000000 0.000000 0.000000
0.000000 0.000000 0.000000
0.000000 0.000000 0.000000
0.000000 0.000000 0.000000
0.000000 0.000000 0.000000
0.000000 0.000000 0.000000
0.000000 0.000000 0.000000
0.000000 0.000000 0.000000
0.000000 0.000000 0.000000
0.000000 0.000000 0.000000
