Ti67
1.0
6.309760 0.000000 0.000000
0.000000 9.464640 0.000000
0.000000 0.000000 18.918326
Ti
67
Selective dynamics
direct
0.124879 0.041317 0.500051 F F F Ti
0.625189 0.041530 0.500027 F F F Ti
0.124991 0.041628 0.658612 F F F Ti
0.625082 0.041617 0.658621 F F F Ti
0.125000 0.041665 0.817165 F F F Ti
0.625008 0.041664 0.817167 F F F Ti
0.627493 0.375041 0.500394 F F F Ti
0.125026 0.374999 0.658587 F F F Ti
0.625124 0.375004 0.658650 F F F Ti
0.124997 0.375000 0.817160 F F F Ti
0.625011 0.375001 0.817168 F F F Ti
0.124890 0.708642 0.500049 F F F Ti
0.625157 0.708472 0.500025 F F F Ti
0.124989 0.708367 0.658604 F F F Ti
0.625069 0.708388 0.658617 F F F Ti
0.124997 0.708336 0.817162 F F F Ti
0.625005 0.708338 0.817166 F F F Ti
0.375355 0.208056 0.579507 F F F Ti
0.875149 0.208226 0.579341 F F F Ti
0.375007 0.208325 0.737893 F F F Ti
0.875015 0.208327 0.737881 F F F Ti
0.375001 0.208333 0.896446 F F F Ti
0.875000 0.208333 0.896444 F F F Ti
0.375345 0.541938 0.579500 F F F Ti
0.875157 0.541774 0.579340 F F F Ti
0.375006 0.541676 0.737893 F F F Ti
0.875016 0.541674 0.737881 F F F Ti
0.375000 0.541668 0.896446 F F F Ti
0.875000 0.541667 0.896444 F F F Ti
0.375050 0.875034 0.579316 F F F Ti
0.874966 0.875005 0.579325 F F F Ti
0.375004 0.875003 0.737884 F F F Ti
0.875002 0.874999 0.737885 F F F Ti
0.375001 0.875001 0.896446 F F F Ti
0.874999 0.875000 0.896445 F F F Ti
0.124562 0.625591 0.356594 F F F Ti
0.625022 0.625145 0.356765 F F F Ti
0.124999 0.625008 0.118918 F F F Ti
0.624987 0.625006 0.118919 F F F Ti
0.124552 0.124411 0.356589 F F F Ti
0.625049 0.124866 0.356762 F F F Ti
0.125000 0.124995 0.118917 F F F Ti
0.624988 0.124997 0.118918 F F F Ti
0.125000 0.375001 0.039636 F F F Ti
0.624995 0.375001 0.039636 F F F Ti
0.124999 0.875002 0.039638 F F F Ti
0.624995 0.875002 0.039638 F F F Ti
0.124764 0.375002 0.277358 F F F Ti
0.624822 0.375003 0.277451 F F F Ti
0.124986 0.875026 0.277461 F F F Ti
0.624962 0.875018 0.277489 F F F Ti
0.375009 0.875004 0.158561 F F F Ti
0.874980 0.875006 0.158555 F F F Ti
0.375002 0.375001 0.158559 F F F Ti
0.874944 0.375001 0.158541 F F F Ti
0.872544 0.374999 0.396077 F F F Ti
0.375043 0.875090 0.396438 F F F Ti
0.874901 0.875043 0.396434 F F F Ti
0.375014 0.625019 0.237840 F F F Ti
0.874893 0.625039 0.237808 F F F Ti
0.375001 0.625002 -0.000002 F F F Ti
0.874995 0.625003 -0.000004 F F F Ti
0.375015 0.124986 0.237839 F F F Ti
0.874892 0.124964 0.237808 F F F Ti
0.375000 0.124997 -0.000002 F F F Ti
0.874995 0.124997 -0.000004 F F F Ti
0.254096 0.374727 0.445950 T T T Ti

0.000000 0.000000 0.000000
0.000000 0.000000 0.000000
0.000000 0.000000 0.000000
0.000000 0.000000 0.000000
0.000000 0.000000 0.000000
0.000000 0.000000 0.000000
0.000000 0.000000 0.000000
0.000000 0.000000 0.000000
0.000000 0.000000 0.000000
0.000000 0.000000 0.000000
0.000000 0.000000 0.000000
0.000000 0.000000 0.000000
0.000000 0.000000 0.000000
0.000000 0.000000 0.000000
0.000000 0.000000 0.000000
0.000000 0.000000 0.000000
0.000000 0.000000 0.000000
0.000000 0.000000 0.000000
0.000000 0.000000 0.000000
0.000000 0.000000 0.000000
0.000000 0.000000 0.000000
0.000000 0.000000 0.000000
0.000000 0.000000 0.000000
0.000000 0.000000 0.000000
0.000000 0.000000 0.000000
0.000000 0.000000 0.000000
0.000000 0.000000 0.000000
0.000000 0.000000 0.000000
0.000000 0.000000 0.000000
0.000000 0.000000 0.000000
0.000000 0.000000 0.000000
0.000000 0.000000 0.000000
0.000000 0.000000 0.000000
0.000000 0.000000 0.000000
0.000000 0.000000 0.000000
0.000000 0.000000 0.000000
0.000000 0.000000 0.000000
0.000000 0.000000 0.000000
0.000000 0.000000 0.000000
0.000000 0.000000 0.000000
0.000000 0.000000 0.000000
0.000000 0.000000 0.000000
0.000000 0.000000 0.000000
0.000000 0.000000 0.000000
0.000000 0.000000 0.000000
0.000000 0.000000 0.000000
0.000000 0.000000 0.000000
0.000000 0.000000 0.000000
0.000000 0.000000 0.000000
0.000000 0.000000 0.000000
0.000000 0.000000 0.000000
0.000000 0.000000 0.000000
0.000000 0.000000 0.000000
0.000000 0.000000 0.000000
0.000000 0.000000 0.000000
0.000000 0.000000 0.000000
0.000000 0.000000 0.000000
0.000000 0.000000 0.000000
0.000000 0.000000 0.000000
0.000000 0.000000 0.000000
0.000000 0.000000 0.000000
0.000000 0.000000 0.000000
0.000000 0.000000 0.000000
0.000000 0.000000 0.000000
0.000000 0.000000 0.000000
0.000000 0.000000 0.000000
0.000000 0.000000 0.000000
