Ti66 Mo1
1.0
6.309760 0.000000 0.000000
0.000000 9.464640 0.000000
0.000000 0.000000 18.918326
Ti Mo
66 1
Selective dynamics
direct
0.625000 0.085729 0.469823 T T T Ti
0.125000 0.047871 0.655711 T T T Ti
0.625000 0.053066 0.637716 T T T Ti
0.125000 0.041667 0.817153 F F F Ti
0.625000 0.041667 0.817153 F F F Ti
0.125000 0.419481 0.492984 T T T Ti
0.625000 0.400541 0.493163 T T T Ti
0.125000 0.364399 0.647031 T T T Ti
0.625000 0.352083 0.646577 T T T Ti
0.125000 0.375000 0.817153 F F F Ti
0.625000 0.375000 0.817153 F F F Ti
0.125000 0.703845 0.493527 T T T Ti
0.625000 0.733441 0.496715 T T T Ti
0.125000 0.734510 0.644605 T T T Ti
0.625000 0.747199 0.645812 T T T Ti
0.125000 0.708333 0.817153 F F F Ti
0.625000 0.708333 0.817153 F F F Ti
0.340314 0.204060 0.545667 T T T Ti
0.909686 0.204060 0.545667 T T T Ti
0.375000 0.208333 0.737865 F F F Ti
0.875000 0.208333 0.737865 F F F Ti
0.375000 0.208333 0.896441 F F F Ti
0.875000 0.208333 0.896441 F F F Ti
0.390193 0.549697 0.586757 T T T Ti
0.859807 0.549697 0.586757 T T T Ti
0.375000 0.541667 0.737865 F F F Ti
0.875000 0.541667 0.737865 F F F Ti
0.375000 0.541667 0.896441 F F F Ti
0.875000 0.541667 0.896441 F F F Ti
0.340937 0.917030 0.549234 T T T Ti
0.909063 0.917030 0.549234 T T T Ti
0.375000 0.875000 0.737865 F F F Ti
0.875000 0.875000 0.737865 F F F Ti
0.375000 0.875000 0.896441 F F F Ti
0.875000 0.875000 0.896441 F F F Ti
0.125000 0.606562 0.365957 T T T Ti
0.625000 0.603423 0.370862 T T T Ti
0.125000 0.625000 0.118932 F F F Ti
0.625000 0.625000 0.118932 F F F Ti
0.625000 0.082096 0.350205 T T T Ti
0.125000 0.125000 0.118932 F F F Ti
0.625000 0.125000 0.118932 F F F Ti
0.125000 0.375000 0.039644 F F F Ti
0.625000 0.375000 0.039644 F F F Ti
0.125000 0.875000 0.039644 F F F Ti
0.625000 0.875000 0.039644 F F F Ti
0.125000 0.385026 0.276628 T T T Ti
0.625000 0.377674 0.279628 T T T Ti
0.125000 0.878578 0.281481 T T T Ti
0.625000 0.858387 0.273190 T T T Ti
0.375000 0.875000 0.158576 F F F Ti
0.875000 0.875000 0.158576 F F F Ti
0.374999 0.375000 0.158576 F F F Ti
0.874999 0.375000 0.158576 F F F Ti
0.367465 0.304304 0.389855 T T T Ti
0.882535 0.304304 0.389855 T T T Ti
0.366761 0.867092 0.399551 T T T Ti
0.883239 0.867092 0.399551 T T T Ti
0.369695 0.626007 0.246853 T T T Ti
0.880305 0.626007 0.246853 T T T Ti
0.375000 0.625000 0.000000 F F F Ti
0.875000 0.625000 0.000000 F F F Ti
0.368688 0.126988 0.249017 T T T Ti
0.881312 0.126988 0.249017 T T T Ti
0.375000 0.125000 0.000000 F F F Ti
0.875000 0.125000 0.000000 F F F Ti
0.125000 0.092588 0.408094 T T T Mo
