Ti97
1.0
9.513020 0.000000 0.000000
0.000000 9.350860 0.000000
0.000000 0.000000 18.547230
Ti
97
Selective dynamics
direct
0.143757 0.377699 0.406145 T T T Ti
0.649754 0.363942 0.408266 T T T Ti
0.166942 0.883022 0.401001 T T T Ti
0.627520 0.930948 0.418064 T T T Ti
0.158719 0.378170 0.236913 T T T Ti
0.658995 0.373653 0.233285 T T T Ti
0.163105 0.876906 0.237215 T T T Ti
0.653102 0.887114 0.230751 T T T Ti
0.166642 0.375006 0.077439 F F F Ti
0.666705 0.375021 0.077513 F F F Ti
0.166683 0.874986 0.077460 F F F Ti
0.666673 0.875001 0.077663 F F F Ti
0.397072 0.363776 0.321077 T T T Ti
0.904491 0.367064 0.316544 T T T Ti
0.417228 0.864141 0.320487 T T T Ti
0.926792 0.904695 0.323498 T T T Ti
0.416683 0.375025 0.154992 F F F Ti
0.916719 0.375037 0.155090 F F F Ti
0.416791 0.875119 0.155141 F F F Ti
0.916560 0.874937 0.155182 F F F Ti
0.416683 0.375019 -0.000136 F F F Ti
0.916619 0.375015 -0.000096 F F F Ti
0.416727 0.875002 -0.000080 F F F Ti
0.916592 0.874973 -0.000054 F F F Ti
0.102928 0.136225 0.321076 T T T Ti
0.595509 0.132937 0.316543 T T T Ti
0.082772 0.635861 0.320486 T T T Ti
0.573208 0.595306 0.323498 T T T Ti
0.083323 0.124999 0.154992 F F F Ti
0.583278 0.124982 0.155091 F F F Ti
0.083212 0.624897 0.155143 F F F Ti
0.583439 0.625080 0.155182 F F F Ti
0.083320 0.124990 -0.000136 F F F Ti
0.583376 0.124990 -0.000095 F F F Ti
0.083275 0.625000 -0.000081 F F F Ti
0.583406 0.625031 -0.000056 F F F Ti
0.356242 0.122302 0.406145 T T T Ti
0.850245 0.136058 0.408266 T T T Ti
0.333057 0.616978 0.401001 T T T Ti
0.872479 0.569053 0.418065 T T T Ti
0.341281 0.121834 0.236913 T T T Ti
0.841004 0.126352 0.233285 T T T Ti
0.336895 0.623099 0.237215 T T T Ti
0.846897 0.612891 0.230751 T T T Ti
0.333358 0.125011 0.077440 F F F Ti
0.833294 0.124994 0.077514 F F F Ti
0.333315 0.625032 0.077459 F F F Ti
0.833327 0.625009 0.077662 F F F Ti
0.374961 0.375047 0.823800 F F F Ti
0.874967 0.375014 0.823825 F F F Ti
0.375046 0.874962 0.823816 F F F Ti
0.875025 0.874925 0.823675 F F F Ti
0.125039 0.124942 0.823800 F F F Ti
0.625034 0.124975 0.823826 F F F Ti
0.124956 0.625022 0.823815 F F F Ti
0.624981 0.625066 0.823675 F F F Ti
0.124928 0.375040 0.910087 F F F Ti
0.625049 0.375099 0.910102 F F F Ti
0.124902 0.874954 0.910095 F F F Ti
0.625099 0.874928 0.910130 F F F Ti
0.375076 0.124950 0.910088 F F F Ti
0.874954 0.124891 0.910103 F F F Ti
0.375101 0.625033 0.910094 F F F Ti
0.874903 0.625058 0.910128 F F F Ti
0.397497 0.363374 0.648759 T T T Ti
0.893946 0.363848 0.657494 T T T Ti
0.384713 0.865794 0.661614 T T T Ti
0.888017 0.865997 0.660666 T T T Ti
0.102502 0.136623 0.648759 T T T Ti
0.606053 0.136148 0.657494 T T T Ti
0.115285 0.634201 0.661614 T T T Ti
0.611982 0.633999 0.660666 T T T Ti
0.152556 0.389400 0.572782 T T T Ti
0.654602 0.396222 0.575239 T T T Ti
0.141756 0.881253 0.577996 T T T Ti
0.631902 0.883172 0.579646 T T T Ti
0.347444 0.110599 0.572782 T T T Ti
0.845397 0.103777 0.575239 T T T Ti
0.358244 0.618746 0.577996 T T T Ti
0.868098 0.616827 0.579646 T T T Ti
0.395683 0.370887 0.490843 T T T Ti
0.906360 0.352390 0.500974 T T T Ti
0.391653 0.856580 0.491192 T T T Ti
0.910818 0.875693 0.481672 T T T Ti
0.104317 0.129112 0.490843 T T T Ti
0.593639 0.147610 0.500974 T T T Ti
0.108347 0.643420 0.491191 T T T Ti
0.589181 0.624306 0.481672 T T T Ti
0.125122 0.874996 0.737501 F F F Ti
0.625137 0.874947 0.737480 F F F Ti
0.374874 0.624989 0.737501 F F F Ti
0.874859 0.625040 0.737480 F F F Ti
0.125041 0.374941 0.737572 F F F Ti
0.624787 0.375285 0.737552 F F F Ti
0.374954 0.125040 0.737572 F F F Ti
0.875208 0.124698 0.737555 F F F Ti
0.750000 0.750000 0.371605 T T T Ti

0.000000 0.000000 0.000000
0.000000 0.000000 0.000000
0.000000 0.000000 0.000000
0.000000 0.000000 0.000000
0.000000 0.000000 0.000000
0.000000 0.000000 0.000000
0.000000 0.000000 0.000000
0.000000 0.000000 0.000000
0.000000 0.000000 0.000000
0.000000 0.000000 0.000000
0.000000 0.000000 0.000000
0.000000 0.000000 0.000000
0.000000 0.000000 0.000000
0.000000 0.000000 0.000000
0.000000 0.000000 0.000000
0.000000 0.000000 0.000000
0.000000 0.000000 0.000000
0.000000 0.000000 0.000000
0.000000 0.000000 0.000000
0.000000 0.000000 0.000000
0.000000 0.000000 0.000000
0.000000 0.000000 0.000000
0.000000 0.000000 0.000000
0.000000 0.000000 0.000000
0.000000 0.000000 0.000000
0.000000 0.000000 0.000000
0.000000 0.000000 0.000000
0.000000 0.000000 0.000000
0.000000 0.000000 0.000000
0.000000 0.000000 0.000000
0.000000 0.000000 0.000000
0.000000 0.000000 0.000000
0.000000 0.000000 0.000000
0.000000 0.000000 0.000000
0.000000 0.000000 0.000000
0.000000 0.000000 0.000000
0.000000 0.000000 0.000000
0.000000 0.000000 0.000000
0.000000 0.000000 0.000000
0.000000 0.000000 0.000000
0.000000 0.000000 0.000000
0.000000 0.000000 0.000000
0.000000 0.000000 0.000000
0.000000 0.000000 0.000000
0.000000 0.000000 0.000000
0.000000 0.000000 0.000000
0.000000 0.000000 0.000000
0.000000 0.000000 0.000000
0.000000 0.000000 0.000000
0.000000 0.000000 0.000000
0.000000 0.000000 0.000000
0.000000 0.000000 0.000000
0.000000 0.000000 0.000000
0.000000 0.000000 0.000000
0.000000 0.000000 0.000000
0.000000 0.000000 0.000000
0.000000 0.000000 0.000000
0.000000 0.000000 0.000000
0.000000 0.000000 0.000000
0.000000 0.000000 0.000000
0.000000 0.000000 0.000000
0.000000 0.000000 0.000000
0.000000 0.000000 0.000000
0.000000 0.000000 0.000000
0.000000 0.000000 0.000000
0.000000 0.000000 0.000000
0.000000 0.000000 0.000000
0.000000 0.000000 0.000000
0.000000 0.000000 0.000000
0.000000 0.000000 0.000000
0.000000 0.000000 0.000000
0.000000 0.000000 0.000000
0.000000 0.000000 0.000000
0.000000 0.000000 0.000000
0.000000 0.000000 0.000000
0.000000 0.000000 0.000000
0.000000 0.000000 0.000000
0.000000 0.000000 0.000000
0.000000 0.000000 0.000000
0.000000 0.000000 0.000000
0.000000 0.000000 0.000000
0.000000 0.000000 0.000000
0.000000 0.000000 0.000000
0.000000 0.000000 0.000000
0.000000 0.000000 0.000000
0.000000 0.000000 0.000000
0.000000 0.000000 0.000000
0.000000 0.000000 0.000000
0.000000 0.000000 0.000000
0.000000 0.000000 0.000000
0.000000 0.000000 0.000000
0.000000 0.000000 0.000000
0.000000 0.000000 0.000000
0.000000 0.000000 0.000000
0.000000 0.000000 0.000000
0.000000 0.000000 0.000000
0.000000 0.000000 0.000000
