Ti66 Al1
1.0
6.309760 0.000000 0.000000
0.000000 9.464640 0.000000
0.000000 0.000000 18.918326
Ti Al
66 1
Selective dynamics
direct
0.625000 -0.032096 0.485851 T T T Ti
0.125000 0.031659 0.651796 T T T Ti
0.625000 0.037374 0.636872 T T T Ti
0.125000 0.041667 0.817153 F F F Ti
0.625000 0.041667 0.817153 F F F Ti
0.125000 0.368736 0.486874 T T T Ti
0.625000 0.338212 0.508488 T T T Ti
0.125000 0.323166 0.632487 T T T Ti
0.625000 0.334946 0.649732 T T T Ti
0.125000 0.375000 0.817153 F F F Ti
0.625000 0.375000 0.817153 F F F Ti
0.125000 0.653288 0.482215 T T T Ti
0.625000 0.653719 0.488367 T T T Ti
0.125000 0.712198 0.657630 T T T Ti
0.625000 0.727411 0.645766 T T T Ti
0.125000 0.708333 0.817153 F F F Ti
0.625000 0.708333 0.817153 F F F Ti
0.335813 0.140588 0.525968 T T T Ti
0.914187 0.140588 0.525968 T T T Ti
0.375000 0.208333 0.737865 F F F Ti
0.875000 0.208333 0.737865 F F F Ti
0.375000 0.208333 0.896441 F F F Ti
0.875000 0.208333 0.896441 F F F Ti
0.379940 0.525405 0.583750 T T T Ti
0.870060 0.525405 0.583750 T T T Ti
0.375000 0.541667 0.737865 F F F Ti
0.875000 0.541667 0.737865 F F F Ti
0.375000 0.541667 0.896441 F F F Ti
0.875000 0.541667 0.896441 F F F Ti
0.334291 0.851473 0.557025 T T T Ti
0.915709 0.851473 0.557025 T T T Ti
0.375000 0.875000 0.737865 F F F Ti
0.875000 0.875000 0.737865 F F F Ti
0.375000 0.875000 0.896441 F F F Ti
0.875000 0.875000 0.896441 F F F Ti
0.125000 0.642837 0.355040 T T T Ti
0.625000 0.677110 0.356097 T T T Ti
0.125000 0.625000 0.118932 F F F Ti
0.625000 0.625000 0.118932 F F F Ti
0.625000 0.173094 0.381960 T T T Ti
0.125000 0.125000 0.118932 F F F Ti
0.625000 0.125000 0.118932 F F F Ti
0.125000 0.375000 0.039644 F F F Ti
0.625000 0.375000 0.039644 F F F Ti
0.125000 0.875000 0.039644 F F F Ti
0.625000 0.875000 0.039644 F F F Ti
0.125000 0.382834 0.282689 T T T Ti
0.625000 0.414972 0.275073 T T T Ti
0.125000 0.900582 0.281224 T T T Ti
0.625000 0.920837 0.287332 T T T Ti
0.375000 0.875000 0.158576 F F F Ti
0.875000 0.875000 0.158576 F F F Ti
0.374999 0.375000 0.158576 F F F Ti
0.874999 0.375000 0.158576 F F F Ti
0.407723 0.436251 0.395432 T T T Ti
0.842277 0.436251 0.395432 T T T Ti
0.337643 0.894527 0.404380 T T T Ti
0.912357 0.894527 0.404380 T T T Ti
0.362987 0.636475 0.242419 T T T Ti
0.887013 0.636475 0.242419 T T T Ti
0.375000 0.625000 0.000000 F F F Ti
0.875000 0.625000 0.000000 F F F Ti
0.383223 0.144211 0.251128 T T T Ti
0.866777 0.144211 0.251128 T T T Ti
0.375000 0.125000 0.000000 F F F Ti
0.875000 0.125000 0.000000 F F F Ti
0.125000 0.158478 0.381763 T T T Al
