Ti83
1.0
6.391540 0.000000 0.000000
0.000000 9.587310 0.000000
0.000000 0.000000 23.271695
Ti
83
Selective dynamics
direct
0.123484 0.083493 0.580826 F F F Ti
0.622983 0.083541 0.580879 F F F Ti
0.124880 0.083363 0.709574 F F F Ti
0.624764 0.083365 0.709577 F F F Ti
0.124994 0.083343 0.838431 F F F Ti
0.624969 0.083343 0.838431 F F F Ti
0.124718 0.417806 0.581440 F F F Ti
0.625048 0.417005 0.580743 F F F Ti
0.124953 0.416761 0.709672 F F F Ti
0.624851 0.416727 0.709603 F F F Ti
0.124994 0.416674 0.838449 F F F Ti
0.624966 0.416671 0.838443 F F F Ti
0.124790 0.750123 0.580835 F F F Ti
0.624770 0.750083 0.580750 F F F Ti
0.124956 0.750110 0.709615 F F F Ti
0.624838 0.750120 0.709610 F F F Ti
0.124991 0.750028 0.838445 F F F Ti
0.624962 0.750031 0.838445 F F F Ti
0.374727 0.250137 0.645112 F F F Ti
0.874428 0.250095 0.645256 F F F Ti
0.374967 0.250002 0.773996 F F F Ti
0.874919 0.250002 0.774023 F F F Ti
0.374994 0.249987 0.902852 F F F Ti
0.875008 0.249988 0.902857 F F F Ti
0.375257 0.583634 0.645238 F F F Ti
0.874570 0.583653 0.645310 F F F Ti
0.374999 0.583388 0.774032 F F F Ti
0.874923 0.583385 0.774044 F F F Ti
0.374989 0.583325 0.902860 F F F Ti
0.874993 0.583326 0.902862 F F F Ti
0.374654 0.916754 0.645066 F F F Ti
0.874552 0.916684 0.645186 F F F Ti
0.374938 0.916704 0.773988 F F F Ti
0.874934 0.916694 0.774010 F F F Ti
0.374982 0.916679 0.902847 F F F Ti
0.875002 0.916677 0.902850 F F F Ti
0.635779 0.167523 0.385540 F F F Ti
0.124371 0.665840 0.386582 F F F Ti
0.626842 0.665284 0.386527 F F F Ti
0.125020 0.166665 -0.000023 F F F Ti
0.625005 0.166662 -0.000029 F F F Ti
0.125018 0.666656 -0.000039 F F F Ti
0.625010 0.666650 -0.000043 F F F Ti
0.125041 0.833310 0.096589 F F F Ti
0.625069 0.833305 0.096572 F F F Ti
0.123143 0.831258 0.483560 F F F Ti
0.624657 0.832452 0.483510 F F F Ti
0.125070 0.333296 0.096637 F F F Ti
0.625042 0.333332 0.096612 F F F Ti
0.116964 0.341636 0.484987 F F F Ti
0.626589 0.335000 0.483464 F F F Ti
0.375697 0.584217 0.483551 F F F Ti
0.873420 0.584740 0.483613 F F F Ti
0.375015 0.583278 0.096591 F F F Ti
0.875117 0.583271 0.096580 F F F Ti
0.375029 0.083339 0.096619 F F F Ti
0.875126 0.083346 0.096608 F F F Ti
0.862892 0.082355 0.484799 F F F Ti
0.376856 0.418698 0.386516 F F F Ti
0.875080 0.417528 0.386588 F F F Ti
0.382510 0.908325 0.384749 F F F Ti
0.873327 0.914986 0.386619 F F F Ti
0.374988 0.416649 -0.000028 F F F Ti
0.875016 0.416644 -0.000028 F F F Ti
0.374998 0.916666 -0.000032 F F F Ti
0.875014 0.916667 -0.000032 F F F Ti
0.376667 0.082920 0.289672 F F F Ti
0.876428 0.082874 0.289824 F F F Ti
0.125242 0.166637 0.193329 F F F Ti
0.625361 0.166633 0.193202 F F F Ti
0.125582 0.333050 0.290134 F F F Ti
0.625779 0.333583 0.289699 F F F Ti
0.375001 0.416564 0.193268 F F F Ti
0.875341 0.416538 0.193254 F F F Ti
0.375191 0.583194 0.289761 F F F Ti
0.875711 0.583074 0.289766 F F F Ti
0.125089 0.666496 0.193181 F F F Ti
0.625218 0.666392 0.193113 F F F Ti
0.124763 0.832876 0.289755 F F F Ti
0.626885 0.832500 0.289395 F F F Ti
0.375104 0.916522 0.193176 F F F Ti
0.875211 0.916627 0.193177 F F F Ti
0.247936 0.123283 0.435150 T T T Ti

0.000000 0.000000 0.000000
0.000000 0.000000 0.000000
0.000000 0.000000 0.000000
0.000000 0.000000 0.000000
0.000000 0.000000 0.000000
0.000000 0.000000 0.000000
0.000000 0.000000 0.000000
0.000000 0.000000 0.000000
0.000000 0.000000 0.000000
0.000000 0.000000 0.000000
0.000000 0.000000 0.000000
0.000000 0.000000 0.000000
0.000000 0.000000 0.000000
0.000000 0.000000 0.000000
0.000000 0.000000 0.000000
0.000000 0.000000 0.000000
0.000000 0.000000 0.000000
0.000000 0.000000 0.000000
0.000000 0.000000 0.000000
0.000000 0.000000 0.000000
0.000000 0.000000 0.000000
0.000000 0.000000 0.000000
0.000000 0.000000 0.000000
0.000000 0.000000 0.000000
0.000000 0.000000 0.000000
0.000000 0.000000 0.000000
0.000000 0.000000 0.000000
0.000000 0.000000 0.000000
0.000000 0.000000 0.000000
0.000000 0.000000 0.000000
0.000000 0.000000 0.000000
0.000000 0.000000 0.000000
0.000000 0.000000 0.000000
0.000000 0.000000 0.000000
0.000000 0.000000 0.000000
0.000000 0.000000 0.000000
0.000000 0.000000 0.000000
0.000000 0.000000 0.000000
0.000000 0.000000 0.000000
0.000000 0.000000 0.000000
0.000000 0.000000 0.000000
0.000000 0.000000 0.000000
0.000000 0.000000 0.000000
0.000000 0.000000 0.000000
0.000000 0.000000 0.000000
0.000000 0.000000 0.000000
0.000000 0.000000 0.000000
0.000000 0.000000 0.000000
0.000000 0.000000 0.000000
0.000000 0.000000 0.000000
0.000000 0.000000 0.000000
0.000000 0.000000 0.000000
0.000000 0.000000 0.000000
0.000000 0.000000 0.000000
0.000000 0.000000 0.000000
0.000000 0.000000 0.000000
0.000000 0.000000 0.000000
0.000000 0.000000 0.000000
0.000000 0.000000 0.000000
0.000000 0.000000 0.000000
0.000000 0.000000 0.000000
0.000000 0.000000 0.000000
0.000000 0.000000 0.000000
0.000000 0.000000 0.000000
0.000000 0.000000 0.000000
0.000000 0.000000 0.000000
0.000000 0.000000 0.000000
0.000000 0.000000 0.000000
0.000000 0.000000 0.000000
0.000000 0.000000 0.000000
0.000000 0.000000 0.000000
0.000000 0.000000 0.000000
0.000000 0.000000 0.000000
0.000000 0.000000 0.000000
0.000000 0.000000 0.000000
0.000000 0.000000 0.000000
0.000000 0.000000 0.000000
0.000000 0.000000 0.000000
0.000000 0.000000 0.000000
0.000000 0.000000 0.000000
0.000000 0.000000 0.000000
0.000000 0.000000 0.000000
0.000000 0.000000 0.000000
