Ti66 Cr1
1.0
6.309760 0.000000 0.000000
0.000000 9.464640 0.000000
0.000000 0.000000 18.918326
Ti Cr
66 1
Selective dynamics
direct
0.125135 0.041991 0.500108 F F F Ti
0.625258 0.041475 0.500214 F F F Ti
0.125102 0.041489 0.658762 F F F Ti
0.625067 0.041427 0.658778 F F F Ti
0.125051 0.041512 0.817217 F F F Ti
0.624968 0.041488 0.817206 F F F Ti
0.125586 0.375274 0.500994 F F F Ti
0.625058 0.375062 0.502422 F F F Ti
0.124961 0.375072 0.658968 F F F Ti
0.625050 0.375053 0.659137 F F F Ti
0.124995 0.375033 0.817282 F F F Ti
0.624933 0.375040 0.817285 F F F Ti
0.125139 0.708185 0.499899 F F F Ti
0.624599 0.708949 0.500102 F F F Ti
0.124995 0.708598 0.658721 F F F Ti
0.624935 0.708690 0.658763 F F F Ti
0.124995 0.708309 0.817274 F F F Ti
0.624913 0.708331 0.817268 F F F Ti
0.374962 0.207966 0.579799 F F F Ti
0.875313 0.207975 0.579852 F F F Ti
0.375008 0.208221 0.738045 F F F Ti
0.875021 0.208211 0.738061 F F F Ti
0.374984 0.208231 0.896294 F F F Ti
0.875001 0.208244 0.896268 F F F Ti
0.374988 0.542287 0.579858 F F F Ti
0.875147 0.542371 0.579891 F F F Ti
0.374975 0.541832 0.738075 F F F Ti
0.874986 0.541853 0.738089 F F F Ti
0.374922 0.541673 0.896476 F F F Ti
0.874996 0.541685 0.896465 F F F Ti
0.374786 0.875185 0.579289 F F F Ti
0.875276 0.875124 0.579295 F F F Ti
0.374954 0.874972 0.737956 F F F Ti
0.875018 0.874970 0.737960 F F F Ti
0.374973 0.874794 0.896440 F F F Ti
0.875036 0.874780 0.896422 F F F Ti
0.125326 0.624075 0.357170 F F F Ti
0.625020 0.625678 0.356795 F F F Ti
0.125248 0.623420 0.119222 F F F Ti
0.624545 0.624393 0.119130 F F F Ti
0.628676 0.124514 0.356995 F F F Ti
0.125441 0.123569 0.118367 F F F Ti
0.625358 0.123695 0.117475 F F F Ti
0.125382 0.374409 0.039392 F F F Ti
0.624809 0.374791 0.038976 F F F Ti
0.125017 0.874235 0.039574 F F F Ti
0.624818 0.874099 0.039411 F F F Ti
0.632361 0.373864 0.277694 F F F Ti
0.125194 0.876141 0.277455 F F F Ti
0.624251 0.872688 0.277627 F F F Ti
0.374773 0.873394 0.158453 F F F Ti
0.875278 0.873027 0.158297 F F F Ti
0.378170 0.373500 0.157937 F F F Ti
0.871704 0.374050 0.156897 F F F Ti
0.386250 0.377258 0.399645 F F F Ti
0.863775 0.378425 0.400773 F F F Ti
0.373942 0.876640 0.396233 F F F Ti
0.876312 0.876013 0.396269 F F F Ti
0.373353 0.621932 0.238354 F F F Ti
0.876715 0.623196 0.238119 F F F Ti
0.374697 0.624644 0.000080 F F F Ti
0.875172 0.624658 0.000075 F F F Ti
0.385560 0.119442 0.236241 F F F Ti
0.864283 0.117751 0.235369 F F F Ti
0.374879 0.124422 -0.000378 F F F Ti
0.875294 0.124418 -0.000415 F F F Ti
0.112308 0.326667 0.290554 T T T Cr

0.000000 0.000000 0.000000
0.000000 0.000000 0.000000
0.000000 0.000000 0.000000
0.000000 0.000000 0.000000
0.000000 0.000000 0.000000
0.000000 0.000000 0.000000
0.000000 0.000000 0.000000
0.000000 0.000000 0.000000
0.000000 0.000000 0.000000
0.000000 0.000000 0.000000
0.000000 0.000000 0.000000
0.000000 0.000000 0.000000
0.000000 0.000000 0.000000
0.000000 0.000000 0.000000
0.000000 0.000000 0.000000
0.000000 0.000000 0.000000
0.000000 0.000000 0.000000
0.000000 0.000000 0.000000
0.000000 0.000000 0.000000
0.000000 0.000000 0.000000
0.000000 0.000000 0.000000
0.000000 0.000000 0.000000
0.000000 0.000000 0.000000
0.000000 0.000000 0.000000
0.000000 0.000000 0.000000
0.000000 0.000000 0.000000
0.000000 0.000000 0.000000
0.000000 0.000000 0.000000
0.000000 0.000000 0.000000
0.000000 0.000000 0.000000
0.000000 0.000000 0.000000
0.000000 0.000000 0.000000
0.000000 0.000000 0.000000
0.000000 0.000000 0.000000
0.000000 0.000000 0.000000
0.000000 0.000000 0.000000
0.000000 0.000000 0.000000
0.000000 0.000000 0.000000
0.000000 0.000000 0.000000
0.000000 0.000000 0.000000
0.000000 0.000000 0.000000
0.000000 0.000000 0.000000
0.000000 0.000000 0.000000
0.000000 0.000000 0.000000
0.000000 0.000000 0.000000
0.000000 0.000000 0.000000
0.000000 0.000000 0.000000
0.000000 0.000000 0.000000
0.000000 0.000000 0.000000
0.000000 0.000000 0.000000
0.000000 0.000000 0.000000
0.000000 0.000000 0.000000
0.000000 0.000000 0.000000
0.000000 0.000000 0.000000
0.000000 0.000000 0.000000
0.000000 0.000000 0.000000
0.000000 0.000000 0.000000
0.000000 0.000000 0.000000
0.000000 0.000000 0.000000
0.000000 0.000000 0.000000
0.000000 0.000000 0.000000
0.000000 0.000000 0.000000
0.000000 0.000000 0.000000
0.000000 0.000000 0.000000
0.000000 0.000000 0.000000
0.000000 0.000000 0.000000
0.000000 0.000000 0.000000
