Ti82 Cr1
1.0
6.391540 0.000000 0.000000
0.000000 9.587310 0.000000
0.000000 0.000000 23.271695
Ti Cr
82 1
Selective dynamics
direct
0.634890 0.080350 0.579837 F F F Ti
0.121318 0.080875 0.711284 F F F Ti
0.625987 0.082651 0.709764 F F F Ti
0.124869 0.083237 0.838689 F F F Ti
0.624803 0.083306 0.838545 F F F Ti
0.119716 0.422881 0.579675 F F F Ti
0.626771 0.417718 0.580280 F F F Ti
0.123999 0.417529 0.709826 F F F Ti
0.624473 0.416543 0.709491 F F F Ti
0.124990 0.416656 0.838511 F F F Ti
0.624831 0.416643 0.838473 F F F Ti
0.125065 0.750728 0.580566 F F F Ti
0.625434 0.749704 0.580468 F F F Ti
0.124879 0.749632 0.709685 F F F Ti
0.625379 0.749556 0.709689 F F F Ti
0.124985 0.749804 0.838552 F F F Ti
0.624864 0.749770 0.838574 F F F Ti
0.873425 0.250617 0.645257 F F F Ti
0.374821 0.249868 0.774062 F F F Ti
0.874461 0.250198 0.774129 F F F Ti
0.375008 0.250010 0.902932 F F F Ti
0.874884 0.250025 0.902939 F F F Ti
0.375088 0.583635 0.645056 F F F Ti
0.874375 0.583922 0.645237 F F F Ti
0.375054 0.583241 0.774061 F F F Ti
0.874734 0.583213 0.774108 F F F Ti
0.374986 0.583253 0.902939 F F F Ti
0.874961 0.583235 0.902942 F F F Ti
0.377191 0.913670 0.645499 F F F Ti
0.876231 0.916373 0.645232 F F F Ti
0.375411 0.916177 0.774229 F F F Ti
0.874259 0.915986 0.774288 F F F Ti
0.375019 0.916574 0.902967 F F F Ti
0.874875 0.916572 0.902965 F F F Ti
0.125189 0.166703 0.386630 F F F Ti
0.625329 0.166667 0.386609 F F F Ti
0.125083 0.666707 0.386683 F F F Ti
0.624955 0.666676 0.386631 F F F Ti
0.124987 0.166661 0.000044 F F F Ti
0.624970 0.166659 0.000043 F F F Ti
0.124990 0.666632 0.000037 F F F Ti
0.624965 0.666630 0.000040 F F F Ti
0.124994 0.833327 0.096697 F F F Ti
0.624988 0.833327 0.096697 F F F Ti
0.125250 0.833588 0.483387 F F F Ti
0.625330 0.833222 0.483263 F F F Ti
0.124995 0.333332 0.096692 F F F Ti
0.624986 0.333332 0.096691 F F F Ti
0.124821 0.334041 0.483037 F F F Ti
0.625855 0.333551 0.483143 F F F Ti
0.375338 0.583798 0.483210 F F F Ti
0.874682 0.583892 0.483138 F F F Ti
0.375004 0.583324 0.096692 F F F Ti
0.875012 0.583324 0.096692 F F F Ti
0.374996 0.083335 0.096695 F F F Ti
0.875001 0.083334 0.096693 F F F Ti
0.376280 0.083211 0.483083 F F F Ti
0.876695 0.083563 0.483224 F F F Ti
0.375152 0.416726 0.386614 F F F Ti
0.875002 0.416763 0.386584 F F F Ti
0.375072 0.916639 0.386653 F F F Ti
0.875158 0.916686 0.386684 F F F Ti
0.374982 0.416659 0.000039 F F F Ti
0.874973 0.416660 0.000040 F F F Ti
0.374985 0.916644 0.000064 F F F Ti
0.874968 0.916644 0.000061 F F F Ti
0.375025 0.083330 0.290008 F F F Ti
0.875038 0.083323 0.290009 F F F Ti
0.124995 0.166661 0.193353 F F F Ti
0.624999 0.166657 0.193349 F F F Ti
0.125009 0.333345 0.289998 F F F Ti
0.625009 0.333341 0.289984 F F F Ti
0.374988 0.416670 0.193347 F F F Ti
0.874991 0.416670 0.193346 F F F Ti
0.375009 0.583363 0.289994 F F F Ti
0.875032 0.583369 0.289992 F F F Ti
0.124994 0.666663 0.193357 F F F Ti
0.624987 0.666662 0.193353 F F F Ti
0.124992 0.833341 0.290018 F F F Ti
0.625029 0.833342 0.290006 F F F Ti
0.374988 0.916659 0.193357 F F F Ti
0.874995 0.916659 0.193356 F F F Ti
0.284121 0.189446 0.618699 T T T Cr

0.000000 0.000000 0.000000
0.000000 0.000000 0.000000
0.000000 0.000000 0.000000
0.000000 0.000000 0.000000
0.000000 0.000000 0.000000
0.000000 0.000000 0.000000
0.000000 0.000000 0.000000
0.000000 0.000000 0.000000
0.000000 0.000000 0.000000
0.000000 0.000000 0.000000
0.000000 0.000000 0.000000
0.000000 0.000000 0.000000
0.000000 0.000000 0.000000
0.000000 0.000000 0.000000
0.000000 0.000000 0.000000
0.000000 0.000000 0.000000
0.000000 0.000000 0.000000
0.000000 0.000000 0.000000
0.000000 0.000000 0.000000
0.000000 0.000000 0.000000
0.000000 0.000000 0.000000
0.000000 0.000000 0.000000
0.000000 0.000000 0.000000
0.000000 0.000000 0.000000
0.000000 0.000000 0.000000
0.000000 0.000000 0.000000
0.000000 0.000000 0.000000
0.000000 0.000000 0.000000
0.000000 0.000000 0.000000
0.000000 0.000000 0.000000
0.000000 0.000000 0.000000
0.000000 0.000000 0.000000
0.000000 0.000000 0.000000
0.000000 0.000000 0.000000
0.000000 0.000000 0.000000
0.000000 0.000000 0.000000
0.000000 0.000000 0.000000
0.000000 0.000000 0.000000
0.000000 0.000000 0.000000
0.000000 0.000000 0.000000
0.000000 0.000000 0.000000
0.000000 0.000000 0.000000
0.000000 0.000000 0.000000
0.000000 0.000000 0.000000
0.000000 0.000000 0.000000
0.000000 0.000000 0.000000
0.000000 0.000000 0.000000
0.000000 0.000000 0.000000
0.000000 0.000000 0.000000
0.000000 0.000000 0.000000
0.000000 0.000000 0.000000
0.000000 0.000000 0.000000
0.000000 0.000000 0.000000
0.000000 0.000000 0.000000
0.000000 0.000000 0.000000
0.000000 0.000000 0.000000
0.000000 0.000000 0.000000
0.000000 0.000000 0.000000
0.000000 0.000000 0.000000
0.000000 0.000000 0.000000
0.000000 0.000000 0.000000
0.000000 0.000000 0.000000
0.000000 0.000000 0.000000
0.000000 0.000000 0.000000
0.000000 0.000000 0.000000
0.000000 0.000000 0.000000
0.000000 0.000000 0.000000
0.000000 0.000000 0.000000
0.000000 0.000000 0.000000
0.000000 0.000000 0.000000
0.000000 0.000000 0.000000
0.000000 0.000000 0.000000
0.000000 0.000000 0.000000
0.000000 0.000000 0.000000
0.000000 0.000000 0.000000
0.000000 0.000000 0.000000
0.000000 0.000000 0.000000
0.000000 0.000000 0.000000
0.000000 0.000000 0.000000
0.000000 0.000000 0.000000
0.000000 0.000000 0.000000
0.000000 0.000000 0.000000
0.000000 0.000000 0.000000
