Ti66 Nb1
1.0
6.309760 0.000000 0.000000
0.000000 9.464640 0.000000
0.000000 0.000000 18.918326
Ti Nb
66 1
Selective dynamics
direct
0.124921 0.041486 0.500031 F F F Ti
0.625106 0.041578 0.500021 F F F Ti
0.124996 0.041646 0.658595 F F F Ti
0.625036 0.041641 0.658599 F F F Ti
0.125000 0.041665 0.817159 F F F Ti
0.625003 0.041665 0.817160 F F F Ti
0.626712 0.375025 0.500318 F F F Ti
0.125008 0.374999 0.658582 F F F Ti
0.625058 0.375002 0.658622 F F F Ti
0.124998 0.375000 0.817156 F F F Ti
0.625004 0.375001 0.817161 F F F Ti
0.124927 0.708492 0.500030 F F F Ti
0.625090 0.708423 0.500019 F F F Ti
0.124994 0.708351 0.658591 F F F Ti
0.625029 0.708361 0.658598 F F F Ti
0.124998 0.708335 0.817157 F F F Ti
0.625002 0.708336 0.817159 F F F Ti
0.375144 0.208198 0.579403 F F F Ti
0.875095 0.208265 0.579323 F F F Ti
0.375001 0.208329 0.737880 F F F Ti
0.875008 0.208329 0.737874 F F F Ti
0.375000 0.208333 0.896443 F F F Ti
0.875000 0.208333 0.896442 F F F Ti
0.375140 0.541800 0.579400 F F F Ti
0.875098 0.541735 0.579323 F F F Ti
0.375001 0.541672 0.737879 F F F Ti
0.875008 0.541671 0.737875 F F F Ti
0.375000 0.541667 0.896443 F F F Ti
0.875000 0.541667 0.896443 F F F Ti
0.375019 0.875019 0.579303 F F F Ti
0.874985 0.875002 0.579308 F F F Ti
0.375001 0.875001 0.737874 F F F Ti
0.875001 0.874999 0.737875 F F F Ti
0.375001 0.875000 0.896443 F F F Ti
0.874999 0.875000 0.896443 F F F Ti
0.124668 0.625396 0.356675 F F F Ti
0.625045 0.625092 0.356777 F F F Ti
0.124998 0.625005 0.118924 F F F Ti
0.624994 0.625003 0.118925 F F F Ti
0.124660 0.124605 0.356672 F F F Ti
0.625062 0.124912 0.356775 F F F Ti
0.124998 0.124997 0.118923 F F F Ti
0.624994 0.124999 0.118924 F F F Ti
0.125000 0.375000 0.039640 F F F Ti
0.624998 0.375000 0.039640 F F F Ti
0.124999 0.875002 0.039640 F F F Ti
0.624998 0.875001 0.039641 F F F Ti
0.124804 0.375001 0.277395 F F F Ti
0.624922 0.375001 0.277487 F F F Ti
0.124990 0.875018 0.277481 F F F Ti
0.624979 0.875011 0.277498 F F F Ti
0.375005 0.875003 0.158568 F F F Ti
0.874988 0.875003 0.158564 F F F Ti
0.375004 0.375000 0.158566 F F F Ti
0.874960 0.375000 0.158555 F F F Ti
0.873750 0.375000 0.396289 F F F Ti
0.375021 0.875057 0.396440 F F F Ti
0.874940 0.875025 0.396440 F F F Ti
0.375007 0.625015 0.237849 F F F Ti
0.874932 0.625024 0.237832 F F F Ti
0.375001 0.625001 -0.000001 F F F Ti
0.874997 0.625002 -0.000002 F F F Ti
0.375007 0.124988 0.237849 F F F Ti
0.874932 0.124978 0.237832 F F F Ti
0.375000 0.124999 -0.000001 F F F Ti
0.874997 0.124998 -0.000002 F F F Ti
0.287155 0.374837 0.436347 T T T Nb

0.000000 0.000000 0.000000
0.000000 0.000000 0.000000
0.000000 0.000000 0.000000
0.000000 0.000000 0.000000
0.000000 0.000000 0.000000
0.000000 0.000000 0.000000
0.000000 0.000000 0.000000
0.000000 0.000000 0.000000
0.000000 0.000000 0.000000
0.000000 0.000000 0.000000
0.000000 0.000000 0.000000
0.000000 0.000000 0.000000
0.000000 0.000000 0.000000
0.000000 0.000000 0.000000
0.000000 0.000000 0.000000
0.000000 0.000000 0.000000
0.000000 0.000000 0.000000
0.000000 0.000000 0.000000
0.000000 0.000000 0.000000
0.000000 0.000000 0.000000
0.000000 0.000000 0.000000
0.000000 0.000000 0.000000
0.000000 0.000000 0.000000
0.000000 0.000000 0.000000
0.000000 0.000000 0.000000
0.000000 0.000000 0.000000
0.000000 0.000000 0.000000
0.000000 0.000000 0.000000
0.000000 0.000000 0.000000
0.000000 0.000000 0.000000
0.000000 0.000000 0.000000
0.000000 0.000000 0.000000
0.000000 0.000000 0.000000
0.000000 0.000000 0.000000
0.000000 0.000000 0.000000
0.000000 0.000000 0.000000
0.000000 0.000000 0.000000
0.000000 0.000000 0.000000
0.000000 0.000000 0.000000
0.000000 0.000000 0.000000
0.000000 0.000000 0.000000
0.000000 0.000000 0.000000
0.000000 0.000000 0.000000
0.000000 0.000000 0.000000
0.000000 0.000000 0.000000
0.000000 0.000000 0.000000
0.000000 0.000000 0.000000
0.000000 0.000000 0.000000
0.000000 0.000000 0.000000
0.000000 0.000000 0.000000
0.000000 0.000000 0.000000
0.000000 0.000000 0.000000
0.000000 0.000000 0.000000
0.000000 0.000000 0.000000
0.000000 0.000000 0.000000
0.000000 0.000000 0.000000
0.000000 0.000000 0.000000
0.000000 0.000000 0.000000
0.000000 0.000000 0.000000
0.000000 0.000000 0.000000
0.000000 0.000000 0.000000
0.000000 0.000000 0.000000
0.000000 0.000000 0.000000
0.000000 0.000000 0.000000
0.000000 0.000000 0.000000
0.000000 0.000000 0.000000
0.000000 0.000000 0.000000
