Ti66 Cr1
1.0
6.309760 0.000000 0.000000
0.000000 9.464640 0.000000
0.000000 0.000000 18.918326
Ti Cr
66 1
Selective dynamics
direct
0.125174 0.042295 0.500153 F F F Ti
0.625585 0.041845 0.500072 F F F Ti
0.125128 0.041544 0.658728 F F F Ti
0.625083 0.041477 0.658723 F F F Ti
0.125077 0.041532 0.817199 F F F Ti
0.624940 0.041505 0.817175 F F F Ti
0.125630 0.376230 0.501159 F F F Ti
0.625472 0.375285 0.502826 F F F Ti
0.124964 0.375187 0.659009 F F F Ti
0.625092 0.375126 0.659208 F F F Ti
0.125004 0.375064 0.817289 F F F Ti
0.624909 0.375069 0.817291 F F F Ti
0.125201 0.707911 0.499631 F F F Ti
0.624064 0.709347 0.500039 F F F Ti
0.125004 0.708672 0.658664 F F F Ti
0.624845 0.708841 0.658752 F F F Ti
0.125014 0.708267 0.817272 F F F Ti
0.624887 0.708302 0.817261 F F F Ti
0.374990 0.208153 0.579784 F F F Ti
0.875425 0.208175 0.579886 F F F Ti
0.375015 0.208244 0.738025 F F F Ti
0.875032 0.208232 0.738052 F F F Ti
0.375029 0.208319 0.896218 F F F Ti
0.875014 0.208330 0.896179 F F F Ti
0.375134 0.542575 0.579967 F F F Ti
0.875011 0.542768 0.580015 F F F Ti
0.374983 0.541893 0.738087 F F F Ti
0.874970 0.541929 0.738104 F F F Ti
0.374957 0.541656 0.896458 F F F Ti
0.874998 0.541680 0.896438 F F F Ti
0.374711 0.875351 0.579205 F F F Ti
0.875339 0.875194 0.579227 F F F Ti
0.374929 0.875002 0.737923 F F F Ti
0.875028 0.874992 0.737929 F F F Ti
0.374987 0.874742 0.896348 F F F Ti
0.875068 0.874727 0.896317 F F F Ti
0.125649 0.623350 0.356788 F F F Ti
0.624264 0.627182 0.356543 F F F Ti
0.125326 0.623451 0.119150 F F F Ti
0.624539 0.624123 0.119100 F F F Ti
0.632803 0.125413 0.356750 F F F Ti
0.125569 0.123793 0.118124 F F F Ti
0.625132 0.124037 0.116483 F F F Ti
0.125293 0.374535 0.039415 F F F Ti
0.624846 0.375051 0.039107 F F F Ti
0.125072 0.874111 0.039358 F F F Ti
0.624888 0.873804 0.039112 F F F Ti
0.631185 0.374678 0.277460 F F F Ti
0.125181 0.876377 0.277141 F F F Ti
0.624749 0.872637 0.277489 F F F Ti
0.375082 0.872920 0.158127 F F F Ti
0.875086 0.872352 0.157902 F F F Ti
0.376419 0.373694 0.158349 F F F Ti
0.874037 0.374515 0.157513 F F F Ti
0.390340 0.382018 0.400006 F F F Ti
0.859438 0.385058 0.401113 F F F Ti
0.373463 0.877715 0.395983 F F F Ti
0.876978 0.876300 0.396120 F F F Ti
0.373273 0.622064 0.238266 F F F Ti
0.877013 0.622917 0.238150 F F F Ti
0.374729 0.624508 0.000057 F F F Ti
0.875200 0.624535 0.000046 F F F Ti
0.391474 0.118915 0.234391 F F F Ti
0.857290 0.117309 0.232686 F F F Ti
0.374730 0.124527 -0.000549 F F F Ti
0.875531 0.124523 -0.000593 F F F Ti
0.108729 0.246924 0.317585 T T T Cr

0.000000 0.000000 0.000000
0.000000 0.000000 0.000000
0.000000 0.000000 0.000000
0.000000 0.000000 0.000000
0.000000 0.000000 0.000000
0.000000 0.000000 0.000000
0.000000 0.000000 0.000000
0.000000 0.000000 0.000000
0.000000 0.000000 0.000000
0.000000 0.000000 0.000000
0.000000 0.000000 0.000000
0.000000 0.000000 0.000000
0.000000 0.000000 0.000000
0.000000 0.000000 0.000000
0.000000 0.000000 0.000000
0.000000 0.000000 0.000000
0.000000 0.000000 0.000000
0.000000 0.000000 0.000000
0.000000 0.000000 0.000000
0.000000 0.000000 0.000000
0.000000 0.000000 0.000000
0.000000 0.000000 0.000000
0.000000 0.000000 0.000000
0.000000 0.000000 0.000000
0.000000 0.000000 0.000000
0.000000 0.000000 0.000000
0.000000 0.000000 0.000000
0.000000 0.000000 0.000000
0.000000 0.000000 0.000000
0.000000 0.000000 0.000000
0.000000 0.000000 0.000000
0.000000 0.000000 0.000000
0.000000 0.000000 0.000000
0.000000 0.000000 0.000000
0.000000 0.000000 0.000000
0.000000 0.000000 0.000000
0.000000 0.000000 0.000000
0.000000 0.000000 0.000000
0.000000 0.000000 0.000000
0.000000 0.000000 0.000000
0.000000 0.000000 0.000000
0.000000 0.000000 0.000000
0.000000 0.000000 0.000000
0.000000 0.000000 0.000000
0.000000 0.000000 0.000000
0.000000 0.000000 0.000000
0.000000 0.000000 0.000000
0.000000 0.000000 0.000000
0.000000 0.000000 0.000000
0.000000 0.000000 0.000000
0.000000 0.000000 0.000000
0.000000 0.000000 0.000000
0.000000 0.000000 0.000000
0.000000 0.000000 0.000000
0.000000 0.000000 0.000000
0.000000 0.000000 0.000000
0.000000 0.000000 0.000000
0.000000 0.000000 0.000000
0.000000 0.000000 0.000000
0.000000 0.000000 0.000000
0.000000 0.000000 0.000000
0.000000 0.000000 0.000000
0.000000 0.000000 0.000000
0.000000 0.000000 0.000000
0.000000 0.000000 0.000000
0.000000 0.000000 0.000000
0.000000 0.000000 0.000000
