alpha_Ti
1.0
8.805261 0.000000 0.000000
-4.402631 7.625580 0.000000
0.000000 0.000000 23.083422
Ti
54
direct
0.111111 0.888889 -0.000000 Ti
0.111111 0.888889 0.398088 Ti
0.111111 0.555556 -0.000000 Ti
0.222222 0.777778 0.099522 Ti
0.111111 0.555556 0.398088 Ti
0.444444 0.888889 -0.000000 Ti
0.111111 0.222222 -0.000000 Ti
0.222222 0.777778 0.497610 Ti
0.222222 0.444444 0.099522 Ti
0.444444 0.888889 0.398088 Ti
0.111111 0.222222 0.398088 Ti
0.444444 0.555556 -0.000000 Ti
0.222222 0.444444 0.497610 Ti
0.555556 0.777778 0.099522 Ti
0.222222 0.111111 0.099522 Ti
0.444444 0.555556 0.398088 Ti
0.777778 0.888889 -0.000000 Ti
0.444444 0.222222 -0.000000 Ti
0.555556 0.777778 0.497610 Ti
0.222222 0.111111 0.497610 Ti
0.555556 0.444444 0.099522 Ti
0.777778 0.888889 0.398088 Ti
0.444444 0.222222 0.398088 Ti
0.777778 0.555556 -0.000000 Ti
0.555556 0.444444 0.497610 Ti
0.888889 0.777778 0.099522 Ti
0.555556 0.111111 0.099522 Ti
0.777778 0.555556 0.398088 Ti
0.777778 0.222222 -0.000000 Ti
0.888889 0.777778 0.497610 Ti
0.555556 0.111111 0.497610 Ti
0.888889 0.444444 0.099522 Ti
0.777778 0.222222 0.398088 Ti
0.888889 0.444444 0.497610 Ti
0.888889 0.111111 0.099522 Ti
0.888889 0.111111 0.497610 Ti
0.111111 0.888889 0.199044 Ti
0.111111 0.555556 0.199044 Ti
0.222222 0.777778 0.298566 Ti
0.444444 0.888889 0.199044 Ti
0.111111 0.222222 0.199044 Ti
0.222222 0.444444 0.298566 Ti
0.444444 0.555556 0.199044 Ti
0.555556 0.777778 0.298566 Ti
0.222222 0.111111 0.298566 Ti
0.777778 0.888889 0.199044 Ti
0.444444 0.222222 0.199044 Ti
0.555556 0.444444 0.298566 Ti
0.777778 0.555556 0.199044 Ti
0.888889 0.777778 0.298566 Ti
0.555556 0.111111 0.298566 Ti
0.777778 0.222222 0.199044 Ti
0.888889 0.444444 0.298566 Ti
0.888889 0.111111 0.298566 Ti
