beta_Ti
1.0
8.805261 0.000000 0.000000
-4.402631 7.625580 0.000000
0.000000 0.000000 23.083422
Ti
36
direct
0.967272 0.027818 0.588585 Ti
0.967272 0.527818 0.588585 Ti
0.467272 0.027818 0.588585 Ti
0.467272 0.527818 0.588585 Ti
0.133938 0.361151 0.868970 Ti
0.133938 0.861151 0.868970 Ti
0.633938 0.361151 0.868970 Ti
0.633938 0.861151 0.868970 Ti
0.300605 0.194485 0.909025 Ti
0.300605 0.694485 0.909025 Ti
0.800605 0.194485 0.909025 Ti
0.800605 0.694485 0.909025 Ti
0.133938 0.361151 0.628640 Ti
0.133938 0.861151 0.628640 Ti
0.633938 0.361151 0.628640 Ti
0.633938 0.861151 0.628640 Ti
0.300605 0.194485 0.668695 Ti
0.300605 0.694485 0.668695 Ti
0.800605 0.194485 0.668695 Ti
0.800605 0.694485 0.668695 Ti
0.967272 0.027818 0.708750 Ti
0.967272 0.527818 0.708750 Ti
0.467272 0.027818 0.708750 Ti
0.467272 0.527818 0.708750 Ti
0.133938 0.361151 0.748805 Ti
0.133938 0.861151 0.748805 Ti
0.633938 0.361151 0.748805 Ti
0.633938 0.861151 0.748805 Ti
0.300605 0.194485 0.788860 Ti
0.300605 0.694485 0.788860 Ti
0.800605 0.194485 0.788860 Ti
0.800605 0.694485 0.788860 Ti
0.967272 0.027818 0.828915 Ti
0.967272 0.527818 0.828915 Ti
0.467272 0.027818 0.828915 Ti
0.467272 0.527818 0.828915 Ti
