total_Ti
1.0
8.805261 0.000000 0.000000
-4.402631 7.625580 0.000000
0.000000 0.000000 23.783422
Ti
90
direct
0.967272 0.027818 0.585978 Ti
0.967272 0.527818 0.585978 Ti
0.467272 0.027818 0.585978 Ti
0.467272 0.527818 0.585978 Ti
0.133938 0.361151 0.858110 Ti
0.133938 0.861151 0.858110 Ti
0.633938 0.361151 0.858110 Ti
0.633938 0.861151 0.858110 Ti
0.300605 0.194485 0.896986 Ti
0.300605 0.694485 0.896986 Ti
0.800605 0.194485 0.896986 Ti
0.800605 0.694485 0.896986 Ti
0.133938 0.361151 0.624854 Ti
0.133938 0.861151 0.624854 Ti
0.633938 0.361151 0.624854 Ti
0.633938 0.861151 0.624854 Ti
0.300605 0.194485 0.663730 Ti
0.300605 0.694485 0.663730 Ti
0.800605 0.194485 0.663730 Ti
0.800605 0.694485 0.663730 Ti
0.967272 0.027818 0.702606 Ti
0.967272 0.527818 0.702606 Ti
0.467272 0.027818 0.702606 Ti
0.467272 0.527818 0.702606 Ti
0.133938 0.361151 0.741482 Ti
0.133938 0.861151 0.741482 Ti
0.633938 0.361151 0.741482 Ti
0.633938 0.861151 0.741482 Ti
0.300605 0.194485 0.780358 Ti
0.300605 0.694485 0.780358 Ti
0.800605 0.194485 0.780358 Ti
0.800605 0.694485 0.780358 Ti
0.967272 0.027818 0.819234 Ti
0.967272 0.527818 0.819234 Ti
0.467272 0.027818 0.819234 Ti
0.467272 0.527818 0.819234 Ti
0.111111 0.888889 -0.000000 Ti
0.111111 0.888889 0.386372 Ti
0.111111 0.555556 -0.000000 Ti
0.222222 0.777778 0.096593 Ti
0.111111 0.555556 0.386372 Ti
0.444444 0.888889 -0.000000 Ti
0.111111 0.222222 -0.000000 Ti
0.222222 0.777778 0.482965 Ti
0.222222 0.444444 0.096593 Ti
0.444444 0.888889 0.386372 Ti
0.111111 0.222222 0.386372 Ti
0.444444 0.555556 -0.000000 Ti
0.222222 0.444444 0.482965 Ti
0.555556 0.777778 0.096593 Ti
0.222222 0.111111 0.096593 Ti
0.444444 0.555556 0.386372 Ti
0.777778 0.888889 -0.000000 Ti
0.444444 0.222222 -0.000000 Ti
0.555556 0.777778 0.482965 Ti
0.222222 0.111111 0.482965 Ti
0.555556 0.444444 0.096593 Ti
0.777778 0.888889 0.386372 Ti
0.444444 0.222222 0.386372 Ti
0.777778 0.555556 -0.000000 Ti
0.555556 0.444444 0.482965 Ti
0.888889 0.777778 0.096593 Ti
0.555556 0.111111 0.096593 Ti
0.777778 0.555556 0.386372 Ti
0.777778 0.222222 -0.000000 Ti
0.888889 0.777778 0.482965 Ti
0.555556 0.111111 0.482965 Ti
0.888889 0.444444 0.096593 Ti
0.777778 0.222222 0.386372 Ti
0.888889 0.444444 0.482965 Ti
0.888889 0.111111 0.096593 Ti
0.888889 0.111111 0.482965 Ti
0.111111 0.888889 0.193186 Ti
0.111111 0.555556 0.193186 Ti
0.222222 0.777778 0.289779 Ti
0.444444 0.888889 0.193186 Ti
0.111111 0.222222 0.193186 Ti
0.222222 0.444444 0.289779 Ti
0.444444 0.555556 0.193186 Ti
0.555556 0.777778 0.289779 Ti
0.222222 0.111111 0.289779 Ti
0.777778 0.888889 0.193186 Ti
0.444444 0.222222 0.193186 Ti
0.555556 0.444444 0.289779 Ti
0.777778 0.555556 0.193186 Ti
0.888889 0.777778 0.289779 Ti
0.555556 0.111111 0.289779 Ti
0.777778 0.222222 0.193186 Ti
0.888889 0.444444 0.289779 Ti
0.888889 0.111111 0.289779 Ti
