Ti72
1.0
8.805261 0.000000 0.000000
-4.402630 7.625580 0.000000
0.000000 0.000000 32.288801
Ti
72
direct
0.222214 0.944436 0.492181 Ti
0.222214 0.444436 0.492181 Ti
0.722214 0.944436 0.492181 Ti
0.722214 0.444436 0.492181 Ti
0.388880 0.277769 0.692630 Ti
0.388880 0.777769 0.692630 Ti
0.888880 0.277769 0.692630 Ti
0.888880 0.777769 0.692630 Ti
0.555547 0.111102 0.721265 Ti
0.555547 0.611103 0.721265 Ti
0.055556 0.111102 0.721265 Ti
0.055556 0.611103 0.721265 Ti
0.388880 0.277769 0.520816 Ti
0.388880 0.777769 0.520816 Ti
0.888880 0.277769 0.520816 Ti
0.888880 0.777769 0.520816 Ti
0.555547 0.111102 0.549452 Ti
0.555547 0.611103 0.549452 Ti
0.055556 0.111102 0.549452 Ti
0.055556 0.611103 0.549452 Ti
0.222214 0.944436 0.578087 Ti
0.222214 0.444436 0.578087 Ti
0.722214 0.944436 0.578087 Ti
0.722214 0.444436 0.578087 Ti
0.388880 0.277769 0.606723 Ti
0.388880 0.777769 0.606723 Ti
0.888880 0.277769 0.606723 Ti
0.888880 0.777769 0.606723 Ti
0.555547 0.111102 0.635358 Ti
0.555547 0.611103 0.635358 Ti
0.055556 0.111102 0.635358 Ti
0.055556 0.611103 0.635358 Ti
0.222214 0.944436 0.663994 Ti
0.222214 0.444436 0.663994 Ti
0.722214 0.944436 0.663994 Ti
0.722214 0.444436 0.663994 Ti
0.166666 0.833342 -0.000000 Ti
0.166666 0.833342 0.142298 Ti
0.166666 0.500009 -0.000000 Ti
0.277778 0.722231 0.071149 Ti
0.166666 0.500009 0.142298 Ti
0.500000 0.833342 -0.000000 Ti
0.166666 0.166675 -0.000000 Ti
0.277778 0.722231 0.213446 Ti
0.277778 0.388897 0.071149 Ti
0.500000 0.833342 0.142298 Ti
0.166666 0.166675 0.142298 Ti
0.500000 0.500009 -0.000000 Ti
0.277778 0.388897 0.213446 Ti
0.611111 0.722231 0.071149 Ti
0.277778 0.055564 0.071149 Ti
0.500000 0.500009 0.142298 Ti
0.833333 0.833342 -0.000000 Ti
0.500000 0.166675 0.000000 Ti
0.611111 0.722231 0.213446 Ti
0.277778 0.055564 0.213446 Ti
0.611111 0.388897 0.071149 Ti
0.833333 0.833342 0.142298 Ti
0.500000 0.166675 0.142298 Ti
0.833333 0.500009 -0.000000 Ti
0.611111 0.388897 0.213446 Ti
0.944444 0.722231 0.071149 Ti
0.611111 0.055564 0.071149 Ti
0.833333 0.500009 0.142298 Ti
0.833333 0.166675 -0.000000 Ti
0.944444 0.722231 0.213446 Ti
0.611111 0.055564 0.213446 Ti
0.944444 0.388897 0.071149 Ti
0.833333 0.166675 0.142298 Ti
0.944444 0.388897 0.213446 Ti
0.944444 0.055564 0.071149 Ti
0.944444 0.055564 0.213446 Ti
