total_Ti
1.0
8.805261 0.000000 0.000000
-4.402631 7.625580 0.000000
0.000000 0.000000 28.883422
Ti
90
direct
0.083333 0.916670 0.570796 Ti
0.083333 0.416670 0.570796 Ti
0.583333 0.916670 0.570796 Ti
0.583333 0.416670 0.570796 Ti
0.250000 0.250004 0.794878 Ti
0.250000 0.750004 0.794878 Ti
0.750000 0.250004 0.794878 Ti
0.750000 0.750004 0.794878 Ti
0.416667 0.083337 0.826890 Ti
0.416667 0.583337 0.826890 Ti
0.916667 0.083337 0.826890 Ti
0.916667 0.583337 0.826890 Ti
0.250000 0.250004 0.602808 Ti
0.250000 0.750004 0.602808 Ti
0.750000 0.250004 0.602808 Ti
0.750000 0.750004 0.602808 Ti
0.416667 0.083337 0.634820 Ti
0.416667 0.583337 0.634820 Ti
0.916667 0.083337 0.634820 Ti
0.916667 0.583337 0.634820 Ti
0.083333 0.916670 0.666831 Ti
0.083333 0.416670 0.666831 Ti
0.583333 0.916670 0.666831 Ti
0.583333 0.416670 0.666831 Ti
0.250000 0.250004 0.698843 Ti
0.250000 0.750004 0.698843 Ti
0.750000 0.250004 0.698843 Ti
0.750000 0.750004 0.698843 Ti
0.416667 0.083337 0.730855 Ti
0.416667 0.583337 0.730855 Ti
0.916667 0.083337 0.730855 Ti
0.916667 0.583337 0.730855 Ti
0.083333 0.916670 0.762866 Ti
0.083333 0.416670 0.762866 Ti
0.583333 0.916670 0.762866 Ti
0.583333 0.416670 0.762866 Ti
0.138888 0.861108 -0.000000 Ti
0.138888 0.861108 0.318149 Ti
0.138888 0.527774 -0.000000 Ti
0.249999 0.749996 0.079537 Ti
0.138888 0.527774 0.318149 Ti
0.472221 0.861108 -0.000000 Ti
0.138888 0.194441 -0.000000 Ti
0.249999 0.749996 0.397687 Ti
0.250000 0.416663 0.079537 Ti
0.472221 0.861108 0.318149 Ti
0.138888 0.194441 0.318149 Ti
0.472222 0.527774 -0.000000 Ti
0.250000 0.416663 0.397687 Ti
0.583333 0.749996 0.079537 Ti
0.250000 0.083330 0.079537 Ti
0.472222 0.527774 0.318149 Ti
0.805555 0.861108 -0.000000 Ti
0.472222 0.194441 -0.000000 Ti
0.583333 0.749996 0.397687 Ti
0.250000 0.083330 0.397687 Ti
0.583333 0.416663 0.079537 Ti
0.805555 0.861108 0.318149 Ti
0.472222 0.194441 0.318149 Ti
0.805555 0.527774 -0.000000 Ti
0.583333 0.416663 0.397687 Ti
0.916666 0.749996 0.079537 Ti
0.583333 0.083330 0.079537 Ti
0.805555 0.527774 0.318149 Ti
0.805555 0.194441 -0.000000 Ti
0.916666 0.749996 0.397687 Ti
0.583333 0.083330 0.397687 Ti
0.916666 0.416663 0.079537 Ti
0.805555 0.194441 0.318149 Ti
0.916666 0.416663 0.397687 Ti
0.916666 0.083330 0.079537 Ti
0.916666 0.083330 0.397687 Ti
0.138888 0.861108 0.159075 Ti
0.138888 0.527774 0.159075 Ti
0.249999 0.749996 0.238612 Ti
0.472221 0.861108 0.159075 Ti
0.138888 0.194441 0.159075 Ti
0.250000 0.416663 0.238612 Ti
0.472222 0.527774 0.159075 Ti
0.583333 0.749996 0.238612 Ti
0.250000 0.083330 0.238612 Ti
0.805555 0.861108 0.159075 Ti
0.472222 0.194441 0.159075 Ti
0.583333 0.416663 0.238612 Ti
0.805555 0.527774 0.159075 Ti
0.916666 0.749996 0.238612 Ti
0.583333 0.083330 0.238612 Ti
0.805555 0.194441 0.159075 Ti
0.916666 0.416663 0.238612 Ti
0.916666 0.083330 0.238612 Ti
