Ti82 Cr1
1.0
6.391540 0.000000 0.000000
0.000000 9.587310 0.000000
0.000000 0.000000 23.271695
Ti Cr
82 1
Selective dynamics
direct
0.122116 0.083260 0.581959 F F F Ti
0.625637 0.083495 0.580243 F F F Ti
0.124933 0.083345 0.709725 F F F Ti
0.624905 0.083361 0.709508 F F F Ti
0.124991 0.083336 0.838460 F F F Ti
0.625001 0.083339 0.838431 F F F Ti
0.124774 0.417793 0.581284 F F F Ti
0.625206 0.416924 0.580658 F F F Ti
0.124987 0.416781 0.709682 F F F Ti
0.624976 0.416728 0.709589 F F F Ti
0.124994 0.416677 0.838463 F F F Ti
0.625000 0.416675 0.838448 F F F Ti
0.124707 0.749500 0.581022 F F F Ti
0.625157 0.750191 0.580569 F F F Ti
0.124957 0.750005 0.709654 F F F Ti
0.624974 0.750063 0.709581 F F F Ti
0.124984 0.750008 0.838461 F F F Ti
0.624999 0.750016 0.838449 F F F Ti
0.375257 0.250196 0.645224 F F F Ti
0.874581 0.250184 0.645145 F F F Ti
0.375083 0.250023 0.774030 F F F Ti
0.874901 0.250005 0.774001 F F F Ti
0.375029 0.249990 0.902871 F F F Ti
0.874998 0.249987 0.902864 F F F Ti
0.375440 0.583588 0.645220 F F F Ti
0.874572 0.583459 0.645252 F F F Ti
0.375064 0.583383 0.774038 F F F Ti
0.874925 0.583350 0.774032 F F F Ti
0.375016 0.583329 0.902876 F F F Ti
0.874990 0.583320 0.902872 F F F Ti
0.375252 0.916609 0.645179 F F F Ti
0.874561 0.916577 0.645116 F F F Ti
0.375068 0.916668 0.774023 F F F Ti
0.874898 0.916678 0.773994 F F F Ti
0.375020 0.916671 0.902867 F F F Ti
0.874991 0.916673 0.902861 F F F Ti
0.632199 0.167202 0.385691 F F F Ti
0.124667 0.665506 0.386455 F F F Ti
0.627263 0.666043 0.386559 F F F Ti
0.125019 0.166659 -0.000006 F F F Ti
0.625026 0.166656 -0.000000 F F F Ti
0.125010 0.666661 -0.000016 F F F Ti
0.625029 0.666663 -0.000009 F F F Ti
0.125058 0.833330 0.096632 F F F Ti
0.625111 0.833332 0.096647 F F F Ti
0.121790 0.828439 0.483673 F F F Ti
0.627274 0.833409 0.483246 F F F Ti
0.125077 0.333304 0.096652 F F F Ti
0.625069 0.333299 0.096664 F F F Ti
0.118408 0.340921 0.484163 F F F Ti
0.628534 0.334758 0.483322 F F F Ti
0.376304 0.584035 0.483450 F F F Ti
0.873972 0.583800 0.483460 F F F Ti
0.375073 0.583293 0.096628 F F F Ti
0.875097 0.583268 0.096635 F F F Ti
0.375089 0.083329 0.096657 F F F Ti
0.875145 0.083339 0.096672 F F F Ti
0.886508 0.084229 0.482904 F F F Ti
0.376206 0.417471 0.386590 F F F Ti
0.877324 0.416095 0.386613 F F F Ti
0.378388 0.910237 0.384646 F F F Ti
0.879981 0.917567 0.386977 F F F Ti
0.375021 0.416650 -0.000005 F F F Ti
0.875014 0.416642 -0.000003 F F F Ti
0.375028 0.916664 -0.000003 F F F Ti
0.875017 0.916673 -0.000002 F F F Ti
0.375893 0.083158 0.290000 F F F Ti
0.877721 0.083191 0.290146 F F F Ti
0.125344 0.166646 0.193331 F F F Ti
0.625376 0.166563 0.193353 F F F Ti
0.125872 0.333161 0.290036 F F F Ti
0.625468 0.333410 0.289852 F F F Ti
0.375136 0.416567 0.193304 F F F Ti
0.875367 0.416503 0.193324 F F F Ti
0.375470 0.583134 0.289840 F F F Ti
0.875712 0.582913 0.289908 F F F Ti
0.125092 0.666502 0.193213 F F F Ti
0.625295 0.666548 0.193247 F F F Ti
0.124801 0.832769 0.289701 F F F Ti
0.627136 0.833043 0.289762 F F F Ti
0.375283 0.916617 0.193308 F F F Ti
0.875338 0.916741 0.193314 F F F Ti
0.345290 0.102028 0.461539 T T T Cr

0.000000 0.000000 0.000000
0.000000 0.000000 0.000000
0.000000 0.000000 0.000000
0.000000 0.000000 0.000000
0.000000 0.000000 0.000000
0.000000 0.000000 0.000000
0.000000 0.000000 0.000000
0.000000 0.000000 0.000000
0.000000 0.000000 0.000000
0.000000 0.000000 0.000000
0.000000 0.000000 0.000000
0.000000 0.000000 0.000000
0.000000 0.000000 0.000000
0.000000 0.000000 0.000000
0.000000 0.000000 0.000000
0.000000 0.000000 0.000000
0.000000 0.000000 0.000000
0.000000 0.000000 0.000000
0.000000 0.000000 0.000000
0.000000 0.000000 0.000000
0.000000 0.000000 0.000000
0.000000 0.000000 0.000000
0.000000 0.000000 0.000000
0.000000 0.000000 0.000000
0.000000 0.000000 0.000000
0.000000 0.000000 0.000000
0.000000 0.000000 0.000000
0.000000 0.000000 0.000000
0.000000 0.000000 0.000000
0.000000 0.000000 0.000000
0.000000 0.000000 0.000000
0.000000 0.000000 0.000000
0.000000 0.000000 0.000000
0.000000 0.000000 0.000000
0.000000 0.000000 0.000000
0.000000 0.000000 0.000000
0.000000 0.000000 0.000000
0.000000 0.000000 0.000000
0.000000 0.000000 0.000000
0.000000 0.000000 0.000000
0.000000 0.000000 0.000000
0.000000 0.000000 0.000000
0.000000 0.000000 0.000000
0.000000 0.000000 0.000000
0.000000 0.000000 0.000000
0.000000 0.000000 0.000000
0.000000 0.000000 0.000000
0.000000 0.000000 0.000000
0.000000 0.000000 0.000000
0.000000 0.000000 0.000000
0.000000 0.000000 0.000000
0.000000 0.000000 0.000000
0.000000 0.000000 0.000000
0.000000 0.000000 0.000000
0.000000 0.000000 0.000000
0.000000 0.000000 0.000000
0.000000 0.000000 0.000000
0.000000 0.000000 0.000000
0.000000 0.000000 0.000000
0.000000 0.000000 0.000000
0.000000 0.000000 0.000000
0.000000 0.000000 0.000000
0.000000 0.000000 0.000000
0.000000 0.000000 0.000000
0.000000 0.000000 0.000000
0.000000 0.000000 0.000000
0.000000 0.000000 0.000000
0.000000 0.000000 0.000000
0.000000 0.000000 0.000000
0.000000 0.000000 0.000000
0.000000 0.000000 0.000000
0.000000 0.000000 0.000000
0.000000 0.000000 0.000000
0.000000 0.000000 0.000000
0.000000 0.000000 0.000000
0.000000 0.000000 0.000000
0.000000 0.000000 0.000000
0.000000 0.000000 0.000000
0.000000 0.000000 0.000000
0.000000 0.000000 0.000000
0.000000 0.000000 0.000000
0.000000 0.000000 0.000000
0.000000 0.000000 0.000000
