Ti82 Cr1
1.0
6.391540 0.000000 0.000000
0.000000 9.587310 0.000000
0.000000 0.000000 23.271695
Ti Cr
82 1
Selective dynamics
direct
0.124685 0.083400 0.580970 F F F Ti
0.623858 0.083471 0.580711 F F F Ti
0.125001 0.083344 0.709625 F F F Ti
0.624919 0.083344 0.709578 F F F Ti
0.125009 0.083337 0.838449 F F F Ti
0.625006 0.083337 0.838444 F F F Ti
0.125006 0.417851 0.581608 F F F Ti
0.625244 0.416789 0.580723 F F F Ti
0.125023 0.416747 0.709717 F F F Ti
0.624964 0.416694 0.709620 F F F Ti
0.125006 0.416668 0.838467 F F F Ti
0.624994 0.416663 0.838457 F F F Ti
0.124982 0.750011 0.580937 F F F Ti
0.625095 0.750140 0.580772 F F F Ti
0.125003 0.750092 0.709652 F F F Ti
0.624966 0.750130 0.709631 F F F Ti
0.124997 0.750022 0.838463 F F F Ti
0.624992 0.750029 0.838462 F F F Ti
0.375123 0.250089 0.645208 F F F Ti
0.874661 0.250003 0.645243 F F F Ti
0.375048 0.249992 0.774030 F F F Ti
0.874947 0.249986 0.774033 F F F Ti
0.375007 0.249977 0.902859 F F F Ti
0.875023 0.249978 0.902859 F F F Ti
0.375518 0.583626 0.645298 F F F Ti
0.874596 0.583595 0.645331 F F F Ti
0.375061 0.583385 0.774059 F F F Ti
0.874940 0.583374 0.774059 F F F Ti
0.374998 0.583311 0.902868 F F F Ti
0.875002 0.583308 0.902867 F F F Ti
0.375002 0.916692 0.645150 F F F Ti
0.874798 0.916729 0.645179 F F F Ti
0.375008 0.916691 0.774020 F F F Ti
0.874963 0.916691 0.774021 F F F Ti
0.374989 0.916681 0.902855 F F F Ti
0.875015 0.916681 0.902856 F F F Ti
0.630924 0.166577 0.386462 F F F Ti
0.124744 0.665555 0.386709 F F F Ti
0.628140 0.665419 0.386645 F F F Ti
0.125032 0.166659 -0.000002 F F F Ti
0.625042 0.166654 -0.000002 F F F Ti
0.125019 0.666650 -0.000022 F F F Ti
0.625044 0.666650 -0.000020 F F F Ti
0.125037 0.833303 0.096623 F F F Ti
0.625241 0.833309 0.096621 F F F Ti
0.124833 0.831350 0.483751 F F F Ti
0.625707 0.833123 0.483628 F F F Ti
0.125127 0.333274 0.096675 F F F Ti
0.625136 0.333286 0.096665 F F F Ti
0.121240 0.340373 0.485527 F F F Ti
0.625424 0.333668 0.483501 F F F Ti
0.376419 0.584257 0.483713 F F F Ti
0.874132 0.584123 0.483697 F F F Ti
0.375086 0.583260 0.096617 F F F Ti
0.875168 0.583224 0.096623 F F F Ti
0.375131 0.083330 0.096653 F F F Ti
0.875244 0.083326 0.096674 F F F Ti
0.871237 0.082911 0.484480 F F F Ti
0.379082 0.420078 0.386688 F F F Ti
0.876495 0.416544 0.386855 F F F Ti
0.384918 0.907895 0.385612 F F F Ti
0.875658 0.915312 0.386881 F F F Ti
0.375022 0.416634 -0.000006 F F F Ti
0.875037 0.416626 -0.000003 F F F Ti
0.375029 0.916661 -0.000012 F F F Ti
0.875047 0.916676 -0.000009 F F F Ti
0.378797 0.082244 0.289422 F F F Ti
0.878584 0.083239 0.290482 F F F Ti
0.125530 0.166579 0.193402 F F F Ti
0.625964 0.166577 0.193337 F F F Ti
0.126606 0.333291 0.290107 F F F Ti
0.626083 0.333191 0.289982 F F F Ti
0.375387 0.416508 0.193315 F F F Ti
0.875525 0.416395 0.193374 F F F Ti
0.375755 0.583310 0.289775 F F F Ti
0.876113 0.582761 0.289894 F F F Ti
0.125167 0.666443 0.193209 F F F Ti
0.625541 0.666404 0.193183 F F F Ti
0.125579 0.832535 0.289838 F F F Ti
0.627729 0.832609 0.289579 F F F Ti
0.375474 0.916379 0.193190 F F F Ti
0.875572 0.916797 0.193376 F F F Ti
0.187155 0.139458 0.406460 T T T Cr

0.000000 0.000000 0.000000
0.000000 0.000000 0.000000
0.000000 0.000000 0.000000
0.000000 0.000000 0.000000
0.000000 0.000000 0.000000
0.000000 0.000000 0.000000
0.000000 0.000000 0.000000
0.000000 0.000000 0.000000
0.000000 0.000000 0.000000
0.000000 0.000000 0.000000
0.000000 0.000000 0.000000
0.000000 0.000000 0.000000
0.000000 0.000000 0.000000
0.000000 0.000000 0.000000
0.000000 0.000000 0.000000
0.000000 0.000000 0.000000
0.000000 0.000000 0.000000
0.000000 0.000000 0.000000
0.000000 0.000000 0.000000
0.000000 0.000000 0.000000
0.000000 0.000000 0.000000
0.000000 0.000000 0.000000
0.000000 0.000000 0.000000
0.000000 0.000000 0.000000
0.000000 0.000000 0.000000
0.000000 0.000000 0.000000
0.000000 0.000000 0.000000
0.000000 0.000000 0.000000
0.000000 0.000000 0.000000
0.000000 0.000000 0.000000
0.000000 0.000000 0.000000
0.000000 0.000000 0.000000
0.000000 0.000000 0.000000
0.000000 0.000000 0.000000
0.000000 0.000000 0.000000
0.000000 0.000000 0.000000
0.000000 0.000000 0.000000
0.000000 0.000000 0.000000
0.000000 0.000000 0.000000
0.000000 0.000000 0.000000
0.000000 0.000000 0.000000
0.000000 0.000000 0.000000
0.000000 0.000000 0.000000
0.000000 0.000000 0.000000
0.000000 0.000000 0.000000
0.000000 0.000000 0.000000
0.000000 0.000000 0.000000
0.000000 0.000000 0.000000
0.000000 0.000000 0.000000
0.000000 0.000000 0.000000
0.000000 0.000000 0.000000
0.000000 0.000000 0.000000
0.000000 0.000000 0.000000
0.000000 0.000000 0.000000
0.000000 0.000000 0.000000
0.000000 0.000000 0.000000
0.000000 0.000000 0.000000
0.000000 0.000000 0.000000
0.000000 0.000000 0.000000
0.000000 0.000000 0.000000
0.000000 0.000000 0.000000
0.000000 0.000000 0.000000
0.000000 0.000000 0.000000
0.000000 0.000000 0.000000
0.000000 0.000000 0.000000
0.000000 0.000000 0.000000
0.000000 0.000000 0.000000
0.000000 0.000000 0.000000
0.000000 0.000000 0.000000
0.000000 0.000000 0.000000
0.000000 0.000000 0.000000
0.000000 0.000000 0.000000
0.000000 0.000000 0.000000
0.000000 0.000000 0.000000
0.000000 0.000000 0.000000
0.000000 0.000000 0.000000
0.000000 0.000000 0.000000
0.000000 0.000000 0.000000
0.000000 0.000000 0.000000
0.000000 0.000000 0.000000
0.000000 0.000000 0.000000
0.000000 0.000000 0.000000
0.000000 0.000000 0.000000
