alpha_Ti
1.0
6.309760 0.000000 0.000000
0.000000 9.464640 0.000000
0.000000 0.000000 34.000004
Ti
32
direct
0.125000 0.625000 0.198529 Ti
0.625000 0.625000 0.198529 Ti
0.125000 0.625000 0.066176 Ti
0.625000 0.625000 0.066176 Ti
0.125000 0.125000 0.198529 Ti
0.625000 0.125000 0.198529 Ti
0.125000 0.125000 0.066176 Ti
0.625000 0.125000 0.066176 Ti
0.125000 0.375000 0.022059 Ti
0.625000 0.375000 0.022059 Ti
0.125000 0.875000 0.022059 Ti
0.625000 0.875000 0.022059 Ti
0.125000 0.375000 0.154412 Ti
0.625000 0.375000 0.154412 Ti
0.125000 0.875000 0.154412 Ti
0.625000 0.875000 0.154412 Ti
0.375000 0.875000 0.088235 Ti
0.875000 0.875000 0.088235 Ti
0.374999 0.375000 0.088235 Ti
0.874999 0.375000 0.088235 Ti
0.375000 0.375000 0.220588 Ti
0.875000 0.375000 0.220588 Ti
0.375000 0.875000 0.220588 Ti
0.875000 0.875000 0.220588 Ti
0.375000 0.625000 0.132353 Ti
0.875000 0.625000 0.132353 Ti
0.375000 0.625000 -0.000000 Ti
0.875000 0.625000 -0.000000 Ti
0.375000 0.125000 0.132353 Ti
0.875000 0.125000 0.132353 Ti
0.375000 0.125000 -0.000000 Ti
0.875000 0.125000 -0.000000 Ti
