Ti66 Nb1
1.0
6.309760 0.000000 0.000000
0.000000 9.464640 0.000000
0.000000 0.000000 18.918326
Ti Nb
66 1
Selective dynamics
direct
0.111466 0.035733 0.500320 F F F Ti
0.635934 0.036538 0.500139 F F F Ti
0.124669 0.042161 0.658854 F F F Ti
0.623830 0.042308 0.659034 F F F Ti
0.125128 0.042141 0.817425 F F F Ti
0.624699 0.042203 0.817434 F F F Ti
0.083435 0.388934 0.503188 F F F Ti
0.674142 0.397230 0.503448 F F F Ti
0.125027 0.375550 0.658665 F F F Ti
0.624318 0.376174 0.659448 F F F Ti
0.125167 0.375140 0.817329 F F F Ti
0.624628 0.375139 0.817510 F F F Ti
0.124670 0.709468 0.500282 F F F Ti
0.622586 0.711383 0.500323 F F F Ti
0.126918 0.709847 0.659622 F F F Ti
0.622109 0.710217 0.659816 F F F Ti
0.125232 0.708718 0.817657 F F F Ti
0.624510 0.708772 0.817697 F F F Ti
0.870750 0.207379 0.580927 F F F Ti
0.374676 0.208874 0.737676 F F F Ti
0.874858 0.208716 0.738308 F F F Ti
0.374964 0.208484 0.896534 F F F Ti
0.875075 0.208511 0.896615 F F F Ti
0.374518 0.542771 0.579434 F F F Ti
0.875100 0.550185 0.583556 F F F Ti
0.374828 0.541919 0.738242 F F F Ti
0.875048 0.542408 0.738898 F F F Ti
0.374985 0.541703 0.896656 F F F Ti
0.875070 0.541724 0.896732 F F F Ti
0.374391 0.876503 0.579430 F F F Ti
0.873929 0.874001 0.580654 F F F Ti
0.374596 0.876082 0.738327 F F F Ti
0.874800 0.875666 0.738527 F F F Ti
0.375020 0.875348 0.896674 F F F Ti
0.874945 0.875295 0.896705 F F F Ti
0.125581 0.624078 0.356974 F F F Ti
0.623437 0.625265 0.356483 F F F Ti
0.125184 0.624923 0.118923 F F F Ti
0.624835 0.624922 0.118888 F F F Ti
0.119071 0.122459 0.355603 F F F Ti
0.633465 0.121381 0.354490 F F F Ti
0.125338 0.124889 0.118717 F F F Ti
0.624863 0.124879 0.118681 F F F Ti
0.125162 0.374987 0.039723 F F F Ti
0.624831 0.375002 0.039709 F F F Ti
0.125070 0.875011 0.039656 F F F Ti
0.624793 0.874990 0.039633 F F F Ti
0.125670 0.374557 0.277436 F F F Ti
0.624579 0.374868 0.276701 F F F Ti
0.124781 0.874090 0.277184 F F F Ti
0.624884 0.873768 0.276860 F F F Ti
0.374920 0.874713 0.158398 F F F Ti
0.874990 0.874586 0.158255 F F F Ti
0.374926 0.374852 0.158493 F F F Ti
0.875439 0.375041 0.158320 F F F Ti
0.870520 0.375208 0.393830 F F F Ti
0.374342 0.874649 0.396188 F F F Ti
0.874032 0.872283 0.395825 F F F Ti
0.374653 0.624534 0.237843 F F F Ti
0.875193 0.624642 0.237638 F F F Ti
0.374916 0.624875 0.000208 F F F Ti
0.874855 0.624950 0.000204 F F F Ti
0.374997 0.124492 0.237590 F F F Ti
0.876084 0.124527 0.236737 F F F Ti
0.374999 0.125148 0.000117 F F F Ti
0.874852 0.125084 0.000103 F F F Ti
0.387717 0.265790 0.473372 T T T Nb

0.000000 0.000000 0.000000
0.000000 0.000000 0.000000
0.000000 0.000000 0.000000
0.000000 0.000000 0.000000
0.000000 0.000000 0.000000
0.000000 0.000000 0.000000
0.000000 0.000000 0.000000
0.000000 0.000000 0.000000
0.000000 0.000000 0.000000
0.000000 0.000000 0.000000
0.000000 0.000000 0.000000
0.000000 0.000000 0.000000
0.000000 0.000000 0.000000
0.000000 0.000000 0.000000
0.000000 0.000000 0.000000
0.000000 0.000000 0.000000
0.000000 0.000000 0.000000
0.000000 0.000000 0.000000
0.000000 0.000000 0.000000
0.000000 0.000000 0.000000
0.000000 0.000000 0.000000
0.000000 0.000000 0.000000
0.000000 0.000000 0.000000
0.000000 0.000000 0.000000
0.000000 0.000000 0.000000
0.000000 0.000000 0.000000
0.000000 0.000000 0.000000
0.000000 0.000000 0.000000
0.000000 0.000000 0.000000
0.000000 0.000000 0.000000
0.000000 0.000000 0.000000
0.000000 0.000000 0.000000
0.000000 0.000000 0.000000
0.000000 0.000000 0.000000
0.000000 0.000000 0.000000
0.000000 0.000000 0.000000
0.000000 0.000000 0.000000
0.000000 0.000000 0.000000
0.000000 0.000000 0.000000
0.000000 0.000000 0.000000
0.000000 0.000000 0.000000
0.000000 0.000000 0.000000
0.000000 0.000000 0.000000
0.000000 0.000000 0.000000
0.000000 0.000000 0.000000
0.000000 0.000000 0.000000
0.000000 0.000000 0.000000
0.000000 0.000000 0.000000
0.000000 0.000000 0.000000
0.000000 0.000000 0.000000
0.000000 0.000000 0.000000
0.000000 0.000000 0.000000
0.000000 0.000000 0.000000
0.000000 0.000000 0.000000
0.000000 0.000000 0.000000
0.000000 0.000000 0.000000
0.000000 0.000000 0.000000
0.000000 0.000000 0.000000
0.000000 0.000000 0.000000
0.000000 0.000000 0.000000
0.000000 0.000000 0.000000
0.000000 0.000000 0.000000
0.000000 0.000000 0.000000
0.000000 0.000000 0.000000
0.000000 0.000000 0.000000
0.000000 0.000000 0.000000
0.000000 0.000000 0.000000
