alpha_Ti
1.0
5.745590 0.000000 0.000000
0.000000 9.072750 0.000000
0.000000 0.000000 28.625032
Ti
32
direct
0.041667 0.875000 0.326045 Ti
0.041667 0.375000 0.326045 Ti
0.541667 0.875000 0.326045 Ti
0.541667 0.375000 0.326045 Ti
0.291667 0.875000 0.237124 Ti
0.291667 0.375000 0.237124 Ti
0.791667 0.875000 0.237124 Ti
0.791667 0.375000 0.237124 Ti
0.041667 0.625000 0.266765 Ti
0.041667 0.125000 0.266765 Ti
0.541667 0.625000 0.266765 Ti
0.541667 0.125000 0.266765 Ti
0.041667 0.875000 0.148202 Ti
0.041667 0.375000 0.148202 Ti
0.541667 0.875000 0.148202 Ti
0.541667 0.375000 0.148202 Ti
0.291667 0.625000 0.177843 Ti
0.291667 0.125000 0.177843 Ti
0.791667 0.625000 0.177843 Ti
0.791667 0.125000 0.177843 Ti
0.291667 0.875000 0.059281 Ti
0.291667 0.375000 0.059281 Ti
0.791667 0.875000 0.059281 Ti
0.791667 0.375000 0.059281 Ti
0.041667 0.625000 0.088922 Ti
0.041667 0.125000 0.088922 Ti
0.541667 0.625000 0.088922 Ti
0.541667 0.125000 0.088922 Ti
0.791667 0.125000 0.000000 Ti
0.291667 0.125000 0.000000 Ti
0.791667 0.625000 -0.000000 Ti
0.291667 0.625000 -0.000000 Ti
