Ti96 Nb1
1.0
9.513020 0.000000 0.000000
0.000000 9.350860 0.000000
0.000000 0.000000 18.547230
Ti Nb
96 1
Selective dynamics
direct
0.138790 0.365254 0.403363 T T T Ti
0.657894 0.355258 0.395880 T T T Ti
0.159821 0.862313 0.399430 T T T Ti
0.672824 0.896546 0.406417 T T T Ti
0.160333 0.375482 0.236899 T T T Ti
0.662431 0.369740 0.231059 T T T Ti
0.160007 0.873342 0.234429 T T T Ti
0.659234 0.866572 0.240061 T T T Ti
0.166644 0.375039 0.077577 F F F Ti
0.666689 0.375011 0.077608 F F F Ti
0.166697 0.874946 0.077652 F F F Ti
0.666672 0.874972 0.077665 F F F Ti
0.405701 0.376399 0.314588 T T T Ti
0.906422 0.378454 0.316725 T T T Ti
0.401177 0.892875 0.314416 T T T Ti
0.910863 0.877756 0.318620 T T T Ti
0.416702 0.374993 0.155170 F F F Ti
0.916614 0.374982 0.155134 F F F Ti
0.416617 0.874918 0.155326 F F F Ti
0.916762 0.874916 0.155173 F F F Ti
0.416705 0.375090 0.000098 F F F Ti
0.916586 0.375063 0.000033 F F F Ti
0.416694 0.874913 0.000169 F F F Ti
0.916618 0.874945 0.000064 F F F Ti
0.093578 0.121548 0.316724 T T T Ti
0.594299 0.123603 0.314587 T T T Ti
0.089137 0.622245 0.318619 T T T Ti
0.598823 0.607126 0.314415 T T T Ti
0.083387 0.125041 0.155135 F F F Ti
0.583298 0.125031 0.155170 F F F Ti
0.083237 0.625108 0.155172 F F F Ti
0.583384 0.625100 0.155324 F F F Ti
0.083415 0.124941 0.000035 F F F Ti
0.583297 0.124913 0.000101 F F F Ti
0.083383 0.625063 0.000064 F F F Ti
0.583308 0.625085 0.000168 F F F Ti
0.342105 0.144742 0.395880 T T T Ti
0.861209 0.134747 0.403363 T T T Ti
0.327174 0.603454 0.406417 T T T Ti
0.840178 0.637688 0.399430 T T T Ti
0.337568 0.130265 0.231059 T T T Ti
0.839666 0.124523 0.236899 T T T Ti
0.340765 0.633432 0.240061 T T T Ti
0.839992 0.626663 0.234428 T T T Ti
0.333311 0.125005 0.077608 F F F Ti
0.833356 0.124979 0.077578 F F F Ti
0.333328 0.625045 0.077665 F F F Ti
0.833302 0.625071 0.077651 F F F Ti
0.374997 0.375059 0.824048 F F F Ti
0.874960 0.374929 0.824006 F F F Ti
0.375061 0.874929 0.823881 F F F Ti
0.874988 0.874979 0.823934 F F F Ti
0.125044 0.125052 0.824007 F F F Ti
0.625010 0.124942 0.824051 F F F Ti
0.125017 0.625021 0.823935 F F F Ti
0.624948 0.625053 0.823881 F F F Ti
0.124984 0.375047 0.910220 F F F Ti
0.625005 0.375013 0.910237 F F F Ti
0.125065 0.874949 0.910184 F F F Ti
0.624950 0.874934 0.910191 F F F Ti
0.375002 0.124980 0.910239 F F F Ti
0.875023 0.124949 0.910221 F F F Ti
0.375054 0.625059 0.910189 F F F Ti
0.874941 0.625047 0.910183 F F F Ti
0.384217 0.381146 0.663884 T T T Ti
0.889843 0.386753 0.649558 T T T Ti
0.380962 0.884031 0.660476 T T T Ti
0.897931 0.881447 0.655701 T T T Ti
0.110155 0.113243 0.649558 T T T Ti
0.615780 0.118846 0.663884 T T T Ti
0.102066 0.618546 0.655701 T T T Ti
0.619037 0.615962 0.660477 T T T Ti
0.140212 0.365870 0.569966 T T T Ti
0.640174 0.358543 0.583707 T T T Ti
0.151386 0.854333 0.570078 T T T Ti
0.666509 0.900015 0.569237 T T T Ti
0.359825 0.141455 0.583707 T T T Ti
0.859788 0.134128 0.569966 T T T Ti
0.333490 0.599983 0.569237 T T T Ti
0.848613 0.645665 0.570078 T T T Ti
0.400038 0.362127 0.487895 T T T Ti
0.886660 0.381565 0.491129 T T T Ti
0.372869 0.940996 0.486305 T T T Ti
0.917910 0.883155 0.483750 T T T Ti
0.113340 0.118434 0.491129 T T T Ti
0.599962 0.137873 0.487895 T T T Ti
0.082089 0.616844 0.483750 T T T Ti
0.627131 0.559004 0.486305 T T T Ti
0.125550 0.875001 0.737754 F F F Ti
0.625002 0.874738 0.737699 F F F Ti
0.374988 0.625241 0.737694 F F F Ti
0.874442 0.624977 0.737760 F F F Ti
0.124689 0.375011 0.737854 F F F Ti
0.625231 0.374827 0.737904 F F F Ti
0.374755 0.125140 0.737904 F F F Ti
0.875300 0.124960 0.737852 F F F Ti
0.500000 0.750000 0.489650 T T T Nb

0.000000 0.000000 0.000000
0.000000 0.000000 0.000000
0.000000 0.000000 0.000000
0.000000 0.000000 0.000000
0.000000 0.000000 0.000000
0.000000 0.000000 0.000000
0.000000 0.000000 0.000000
0.000000 0.000000 0.000000
0.000000 0.000000 0.000000
0.000000 0.000000 0.000000
0.000000 0.000000 0.000000
0.000000 0.000000 0.000000
0.000000 0.000000 0.000000
0.000000 0.000000 0.000000
0.000000 0.000000 0.000000
0.000000 0.000000 0.000000
0.000000 0.000000 0.000000
0.000000 0.000000 0.000000
0.000000 0.000000 0.000000
0.000000 0.000000 0.000000
0.000000 0.000000 0.000000
0.000000 0.000000 0.000000
0.000000 0.000000 0.000000
0.000000 0.000000 0.000000
0.000000 0.000000 0.000000
0.000000 0.000000 0.000000
0.000000 0.000000 0.000000
0.000000 0.000000 0.000000
0.000000 0.000000 0.000000
0.000000 0.000000 0.000000
0.000000 0.000000 0.000000
0.000000 0.000000 0.000000
0.000000 0.000000 0.000000
0.000000 0.000000 0.000000
0.000000 0.000000 0.000000
0.000000 0.000000 0.000000
0.000000 0.000000 0.000000
0.000000 0.000000 0.000000
0.000000 0.000000 0.000000
0.000000 0.000000 0.000000
0.000000 0.000000 0.000000
0.000000 0.000000 0.000000
0.000000 0.000000 0.000000
0.000000 0.000000 0.000000
0.000000 0.000000 0.000000
0.000000 0.000000 0.000000
0.000000 0.000000 0.000000
0.000000 0.000000 0.000000
0.000000 0.000000 0.000000
0.000000 0.000000 0.000000
0.000000 0.000000 0.000000
0.000000 0.000000 0.000000
0.000000 0.000000 0.000000
0.000000 0.000000 0.000000
0.000000 0.000000 0.000000
0.000000 0.000000 0.000000
0.000000 0.000000 0.000000
0.000000 0.000000 0.000000
0.000000 0.000000 0.000000
0.000000 0.000000 0.000000
0.000000 0.000000 0.000000
0.000000 0.000000 0.000000
0.000000 0.000000 0.000000
0.000000 0.000000 0.000000
0.000000 0.000000 0.000000
0.000000 0.000000 0.000000
0.000000 0.000000 0.000000
0.000000 0.000000 0.000000
0.000000 0.000000 0.000000
0.000000 0.000000 0.000000
0.000000 0.000000 0.000000
0.000000 0.000000 0.000000
0.000000 0.000000 0.000000
0.000000 0.000000 0.000000
0.000000 0.000000 0.000000
0.000000 0.000000 0.000000
0.000000 0.000000 0.000000
0.000000 0.000000 0.000000
0.000000 0.000000 0.000000
0.000000 0.000000 0.000000
0.000000 0.000000 0.000000
0.000000 0.000000 0.000000
0.000000 0.000000 0.000000
0.000000 0.000000 0.000000
0.000000 0.000000 0.000000
0.000000 0.000000 0.000000
0.000000 0.000000 0.000000
0.000000 0.000000 0.000000
0.000000 0.000000 0.000000
0.000000 0.000000 0.000000
0.000000 0.000000 0.000000
0.000000 0.000000 0.000000
0.000000 0.000000 0.000000
0.000000 0.000000 0.000000
0.000000 0.000000 0.000000
0.000000 0.000000 0.000000
0.000000 0.000000 0.000000
