total_Ti
1.0
8.805261 0.000000 0.000000
-4.402630 7.625580 0.000000
0.000000 0.000000 18.588801
Ti
72
direct
0.222214 0.944436 0.486418 Ti
0.222214 0.444436 0.486418 Ti
0.722214 0.944436 0.486418 Ti
0.722214 0.444436 0.486418 Ti
0.388880 0.277769 0.834598 Ti
0.388880 0.777769 0.834598 Ti
0.888880 0.277769 0.834598 Ti
0.888880 0.777769 0.834598 Ti
0.555547 0.111102 0.884338 Ti
0.555547 0.611103 0.884338 Ti
0.055556 0.111102 0.884338 Ti
0.055556 0.611103 0.884338 Ti
0.388880 0.277769 0.536158 Ti
0.388880 0.777769 0.536158 Ti
0.888880 0.277769 0.536158 Ti
0.888880 0.777769 0.536158 Ti
0.555547 0.111102 0.585898 Ti
0.555547 0.611103 0.585898 Ti
0.055556 0.111102 0.585898 Ti
0.055556 0.611103 0.585898 Ti
0.222214 0.944436 0.635638 Ti
0.222214 0.444436 0.635638 Ti
0.722214 0.944436 0.635638 Ti
0.722214 0.444436 0.635638 Ti
0.388880 0.277769 0.685378 Ti
0.388880 0.777769 0.685378 Ti
0.888880 0.277769 0.685378 Ti
0.888880 0.777769 0.685378 Ti
0.555547 0.111102 0.735118 Ti
0.555547 0.611103 0.735118 Ti
0.055556 0.111102 0.735118 Ti
0.055556 0.611103 0.735118 Ti
0.222214 0.944436 0.784858 Ti
0.222214 0.444436 0.784858 Ti
0.722214 0.944436 0.784858 Ti
0.722214 0.444436 0.784858 Ti
0.166666 0.833342 -0.000000 Ti
0.166666 0.833342 0.247171 Ti
0.166666 0.500009 -0.000000 Ti
0.277778 0.722231 0.123586 Ti
0.166666 0.500009 0.247171 Ti
0.500000 0.833342 -0.000000 Ti
0.166666 0.166675 -0.000000 Ti
0.277778 0.722231 0.370757 Ti
0.277778 0.388897 0.123586 Ti
0.500000 0.833342 0.247171 Ti
0.166666 0.166675 0.247171 Ti
0.500000 0.500009 -0.000000 Ti
0.277778 0.388897 0.370757 Ti
0.611111 0.722231 0.123586 Ti
0.277778 0.055564 0.123586 Ti
0.500000 0.500009 0.247171 Ti
0.833333 0.833342 -0.000000 Ti
0.500000 0.166675 0.000000 Ti
0.611111 0.722231 0.370757 Ti
0.277778 0.055564 0.370757 Ti
0.611111 0.388897 0.123586 Ti
0.833333 0.833342 0.247171 Ti
0.500000 0.166675 0.247171 Ti
0.833333 0.500009 -0.000000 Ti
0.611111 0.388897 0.370757 Ti
0.944444 0.722231 0.123586 Ti
0.611111 0.055564 0.123586 Ti
0.833333 0.500009 0.247171 Ti
0.833333 0.166675 -0.000000 Ti
0.944444 0.722231 0.370757 Ti
0.611111 0.055564 0.370757 Ti
0.944444 0.388897 0.123586 Ti
0.833333 0.166675 0.247171 Ti
0.944444 0.388897 0.370757 Ti
0.944444 0.055564 0.123586 Ti
0.944444 0.055564 0.370757 Ti
