DeviceStudio auto-generated KPOINTS file
 0
Monkhorst-pack
 7 5 2 
 0 0 0