Zr1 Ti96
1.0
9.513020 0.000000 0.000000
0.000000 9.350860 0.000000
0.000000 0.000000 18.547230
Ti Zr
96 1
Selective dynamics
direct
0.145843 0.375460 0.398004 T T T Ti
0.651431 0.366607 0.394345 T T T Ti
0.167353 0.883002 0.396398 T T T Ti
0.649039 0.910327 0.395837 T T T Ti
0.164736 0.376682 0.235486 T T T Ti
0.661177 0.380667 0.235081 T T T Ti
0.157883 0.874376 0.235232 T T T Ti
0.660226 0.873836 0.235149 T T T Ti
0.166667 0.375000 0.077686 F F F Ti
0.666666 0.375004 0.077689 F F F Ti
0.166668 0.874999 0.077689 F F F Ti
0.666667 0.874997 0.077688 F F F Ti
0.409019 0.377879 0.317185 T T T Ti
0.912548 0.367281 0.309279 T T T Ti
0.409618 0.875120 0.315798 T T T Ti
0.904503 0.862179 0.325396 T T T Ti
0.416672 0.375006 0.155364 F F F Ti
0.916664 0.375006 0.155360 F F F Ti
0.416671 0.874990 0.155364 F F F Ti
0.916678 0.875006 0.155366 F F F Ti
0.416673 0.375005 -0.000005 F F F Ti
0.916665 0.375003 -0.000002 F F F Ti
0.416671 0.874997 -0.000002 F F F Ti
0.916667 0.874999 -0.000000 F F F Ti
0.090981 0.122121 0.317184 T T T Ti
0.587452 0.132719 0.309278 T T T Ti
0.090382 0.624880 0.315797 T T T Ti
0.595497 0.637821 0.325395 T T T Ti
0.083328 0.124995 0.155364 F F F Ti
0.583335 0.124994 0.155360 F F F Ti
0.083329 0.625010 0.155364 F F F Ti
0.583322 0.624994 0.155366 F F F Ti
0.083328 0.124996 -0.000005 F F F Ti
0.583335 0.124998 -0.000002 F F F Ti
0.083329 0.625004 -0.000003 F F F Ti
0.583334 0.625001 -0.000000 F F F Ti
0.354156 0.124540 0.398004 T T T Ti
0.848568 0.133393 0.394345 T T T Ti
0.332646 0.616998 0.396398 T T T Ti
0.850960 0.589673 0.395837 T T T Ti
0.335263 0.123318 0.235486 T T T Ti
0.838822 0.119333 0.235081 T T T Ti
0.342116 0.625624 0.235232 T T T Ti
0.839773 0.626164 0.235149 T T T Ti
0.333332 0.125000 0.077686 F F F Ti
0.833333 0.124996 0.077689 F F F Ti
0.333331 0.625002 0.077689 F F F Ti
0.833332 0.625004 0.077688 F F F Ti
0.374997 0.375010 0.823756 F F F Ti
0.874995 0.375007 0.823752 F F F Ti
0.375002 0.875003 0.823768 F F F Ti
0.874976 0.874993 0.823748 F F F Ti
0.125004 0.124990 0.823756 F F F Ti
0.625006 0.124993 0.823752 F F F Ti
0.124998 0.624997 0.823768 F F F Ti
0.625025 0.625007 0.823748 F F F Ti
0.124998 0.375000 0.910093 F F F Ti
0.625009 0.375008 0.910088 F F F Ti
0.124999 0.875001 0.910097 F F F Ti
0.625009 0.874996 0.910093 F F F Ti
0.375002 0.125001 0.910093 F F F Ti
0.874992 0.124992 0.910088 F F F Ti
0.375002 0.624999 0.910097 F F F Ti
0.874992 0.625004 0.910092 F F F Ti
0.396621 0.376503 0.644011 T T T Ti
0.887468 0.354803 0.663232 T T T Ti
0.375869 0.865926 0.669326 T T T Ti
0.888666 0.864641 0.650137 T T T Ti
0.103379 0.123497 0.644011 T T T Ti
0.612532 0.145197 0.663232 T T T Ti
0.124130 0.634074 0.669326 T T T Ti
0.611334 0.635359 0.650136 T T T Ti
0.140903 0.388239 0.575444 T T T Ti
0.658259 0.383984 0.574324 T T T Ti
0.154985 0.871196 0.570889 T T T Ti
0.593944 0.918959 0.585177 T T T Ti
0.359097 0.111761 0.575444 T T T Ti
0.841741 0.116015 0.574324 T T T Ti
0.345015 0.628804 0.570889 T T T Ti
0.906056 0.581041 0.585177 T T T Ti
0.377787 0.360364 0.487747 T T T Ti
0.903875 0.352545 0.489857 T T T Ti
0.404720 0.857189 0.478098 T T T Ti
-0.057021 -0.079539 0.479157 T T T Ti
0.122213 0.139636 0.487747 T T T Ti
0.596125 0.147455 0.489857 T T T Ti
0.095280 0.642811 0.478098 T T T Ti
0.557021 0.579539 0.479157 T T T Ti
0.125038 0.875031 0.737463 F F F Ti
0.625047 0.875025 0.737484 F F F Ti
0.374961 0.624966 0.737464 F F F Ti
0.874951 0.624972 0.737484 F F F Ti
0.125043 0.374988 0.737450 F F F Ti
0.624980 0.375157 0.737460 F F F Ti
0.374956 0.125011 0.737450 F F F Ti
0.875019 0.124841 0.737461 F F F Ti
0.750000 0.750000 0.509138 T T T Zr

0.000000 0.000000 0.000000
0.000000 0.000000 0.000000
0.000000 0.000000 0.000000
0.000000 0.000000 0.000000
0.000000 0.000000 0.000000
0.000000 0.000000 0.000000
0.000000 0.000000 0.000000
0.000000 0.000000 0.000000
0.000000 0.000000 0.000000
0.000000 0.000000 0.000000
0.000000 0.000000 0.000000
0.000000 0.000000 0.000000
0.000000 0.000000 0.000000
0.000000 0.000000 0.000000
0.000000 0.000000 0.000000
0.000000 0.000000 0.000000
0.000000 0.000000 0.000000
0.000000 0.000000 0.000000
0.000000 0.000000 0.000000
0.000000 0.000000 0.000000
0.000000 0.000000 0.000000
0.000000 0.000000 0.000000
0.000000 0.000000 0.000000
0.000000 0.000000 0.000000
0.000000 0.000000 0.000000
0.000000 0.000000 0.000000
0.000000 0.000000 0.000000
0.000000 0.000000 0.000000
0.000000 0.000000 0.000000
0.000000 0.000000 0.000000
0.000000 0.000000 0.000000
0.000000 0.000000 0.000000
0.000000 0.000000 0.000000
0.000000 0.000000 0.000000
0.000000 0.000000 0.000000
0.000000 0.000000 0.000000
0.000000 0.000000 0.000000
0.000000 0.000000 0.000000
0.000000 0.000000 0.000000
0.000000 0.000000 0.000000
0.000000 0.000000 0.000000
0.000000 0.000000 0.000000
0.000000 0.000000 0.000000
0.000000 0.000000 0.000000
0.000000 0.000000 0.000000
0.000000 0.000000 0.000000
0.000000 0.000000 0.000000
0.000000 0.000000 0.000000
0.000000 0.000000 0.000000
0.000000 0.000000 0.000000
0.000000 0.000000 0.000000
0.000000 0.000000 0.000000
0.000000 0.000000 0.000000
0.000000 0.000000 0.000000
0.000000 0.000000 0.000000
0.000000 0.000000 0.000000
0.000000 0.000000 0.000000
0.000000 0.000000 0.000000
0.000000 0.000000 0.000000
0.000000 0.000000 0.000000
0.000000 0.000000 0.000000
0.000000 0.000000 0.000000
0.000000 0.000000 0.000000
0.000000 0.000000 0.000000
0.000000 0.000000 0.000000
0.000000 0.000000 0.000000
0.000000 0.000000 0.000000
0.000000 0.000000 0.000000
0.000000 0.000000 0.000000
0.000000 0.000000 0.000000
0.000000 0.000000 0.000000
0.000000 0.000000 0.000000
0.000000 0.000000 0.000000
0.000000 0.000000 0.000000
0.000000 0.000000 0.000000
0.000000 0.000000 0.000000
0.000000 0.000000 0.000000
0.000000 0.000000 0.000000
0.000000 0.000000 0.000000
0.000000 0.000000 0.000000
0.000000 0.000000 0.000000
0.000000 0.000000 0.000000
0.000000 0.000000 0.000000
0.000000 0.000000 0.000000
0.000000 0.000000 0.000000
0.000000 0.000000 0.000000
0.000000 0.000000 0.000000
0.000000 0.000000 0.000000
0.000000 0.000000 0.000000
0.000000 0.000000 0.000000
0.000000 0.000000 0.000000
0.000000 0.000000 0.000000
0.000000 0.000000 0.000000
0.000000 0.000000 0.000000
0.000000 0.000000 0.000000
0.000000 0.000000 0.000000
0.000000 0.000000 0.000000
