Ti66 Al1
1.0
6.309760 0.000000 0.000000
0.000000 9.464640 0.000000
0.000000 0.000000 18.918326
Ti Al
66 1
Selective dynamics
direct
0.108780 0.034728 0.498458 F F F Ti
0.640108 0.033767 0.497842 F F F Ti
0.123551 0.042287 0.658140 F F F Ti
0.624937 0.041912 0.658619 F F F Ti
0.125062 0.042284 0.816975 F F F Ti
0.624715 0.042306 0.817061 F F F Ti
0.100311 0.386645 0.498579 F F F Ti
0.656098 0.393258 0.497844 F F F Ti
0.123893 0.376111 0.658125 F F F Ti
0.626382 0.377345 0.659011 F F F Ti
0.125130 0.375124 0.816921 F F F Ti
0.624790 0.375185 0.817114 F F F Ti
0.123585 0.709751 0.499771 F F F Ti
0.623284 0.710803 0.499745 F F F Ti
0.125751 0.709660 0.659163 F F F Ti
0.623216 0.709904 0.659383 F F F Ti
0.125188 0.708783 0.817361 F F F Ti
0.624630 0.708810 0.817410 F F F Ti
0.868956 0.209152 0.579162 F F F Ti
0.374700 0.209034 0.737091 F F F Ti
0.874776 0.208865 0.737674 F F F Ti
0.374945 0.208571 0.896142 F F F Ti
0.875087 0.208574 0.896265 F F F Ti
0.374550 0.544913 0.579088 F F F Ti
0.874531 0.547195 0.581424 F F F Ti
0.374704 0.542103 0.737916 F F F Ti
0.875299 0.542550 0.738450 F F F Ti
0.374960 0.541656 0.896332 F F F Ti
0.875042 0.541685 0.896433 F F F Ti
0.374180 0.875545 0.578986 F F F Ti
0.873501 0.873565 0.580313 F F F Ti
0.374475 0.876066 0.737920 F F F Ti
0.874773 0.875703 0.738208 F F F Ti
0.374980 0.875444 0.896377 F F F Ti
0.875000 0.875412 0.896438 F F F Ti
0.125205 0.625005 0.356191 F F F Ti
0.623658 0.625630 0.355827 F F F Ti
0.125114 0.624982 0.118582 F F F Ti
0.624822 0.625001 0.118549 F F F Ti
0.123857 0.124474 0.356138 F F F Ti
0.627249 0.124112 0.355424 F F F Ti
0.125272 0.124993 0.118588 F F F Ti
0.624888 0.124973 0.118537 F F F Ti
0.125166 0.374970 0.039516 F F F Ti
0.624851 0.374958 0.039497 F F F Ti
0.125123 0.875135 0.039466 F F F Ti
0.624837 0.875145 0.039449 F F F Ti
0.126135 0.374816 0.276969 F F F Ti
0.623908 0.375024 0.276602 F F F Ti
0.124859 0.874810 0.276852 F F F Ti
0.624600 0.874622 0.276622 F F F Ti
0.374938 0.874967 0.158161 F F F Ti
0.875074 0.874897 0.158070 F F F Ti
0.374991 0.374905 0.158205 F F F Ti
0.875185 0.374988 0.158143 F F F Ti
0.874268 0.375170 0.393165 F F F Ti
0.374218 0.874471 0.395662 F F F Ti
0.874181 0.872414 0.394888 F F F Ti
0.374737 0.624925 0.237340 F F F Ti
0.875044 0.624886 0.237190 F F F Ti
0.374957 0.624969 -0.000235 F F F Ti
0.874895 0.625018 -0.000168 F F F Ti
0.374956 0.124833 0.237499 F F F Ti
0.875395 0.124823 0.237061 F F F Ti
0.375055 0.125167 -0.000354 F F F Ti
0.875214 0.125122 -0.000269 F F F Ti
0.388476 0.235052 0.530244 T T T Al

0.000000 0.000000 0.000000
0.000000 0.000000 0.000000
0.000000 0.000000 0.000000
0.000000 0.000000 0.000000
0.000000 0.000000 0.000000
0.000000 0.000000 0.000000
0.000000 0.000000 0.000000
0.000000 0.000000 0.000000
0.000000 0.000000 0.000000
0.000000 0.000000 0.000000
0.000000 0.000000 0.000000
0.000000 0.000000 0.000000
0.000000 0.000000 0.000000
0.000000 0.000000 0.000000
0.000000 0.000000 0.000000
0.000000 0.000000 0.000000
0.000000 0.000000 0.000000
0.000000 0.000000 0.000000
0.000000 0.000000 0.000000
0.000000 0.000000 0.000000
0.000000 0.000000 0.000000
0.000000 0.000000 0.000000
0.000000 0.000000 0.000000
0.000000 0.000000 0.000000
0.000000 0.000000 0.000000
0.000000 0.000000 0.000000
0.000000 0.000000 0.000000
0.000000 0.000000 0.000000
0.000000 0.000000 0.000000
0.000000 0.000000 0.000000
0.000000 0.000000 0.000000
0.000000 0.000000 0.000000
0.000000 0.000000 0.000000
0.000000 0.000000 0.000000
0.000000 0.000000 0.000000
0.000000 0.000000 0.000000
0.000000 0.000000 0.000000
0.000000 0.000000 0.000000
0.000000 0.000000 0.000000
0.000000 0.000000 0.000000
0.000000 0.000000 0.000000
0.000000 0.000000 0.000000
0.000000 0.000000 0.000000
0.000000 0.000000 0.000000
0.000000 0.000000 0.000000
0.000000 0.000000 0.000000
0.000000 0.000000 0.000000
0.000000 0.000000 0.000000
0.000000 0.000000 0.000000
0.000000 0.000000 0.000000
0.000000 0.000000 0.000000
0.000000 0.000000 0.000000
0.000000 0.000000 0.000000
0.000000 0.000000 0.000000
0.000000 0.000000 0.000000
0.000000 0.000000 0.000000
0.000000 0.000000 0.000000
0.000000 0.000000 0.000000
0.000000 0.000000 0.000000
0.000000 0.000000 0.000000
0.000000 0.000000 0.000000
0.000000 0.000000 0.000000
0.000000 0.000000 0.000000
0.000000 0.000000 0.000000
0.000000 0.000000 0.000000
0.000000 0.000000 0.000000
0.000000 0.000000 0.000000
