Ti82 Mo1
1.0
6.391540 0.000000 0.000000
0.000000 9.587310 0.000000
0.000000 0.000000 23.271695
Ti Mo
82 1
Selective dynamics
direct
0.636658 0.083262 0.582031 F F F Ti
0.125478 0.083354 0.709465 F F F Ti
0.625674 0.083347 0.709734 F F F Ti
0.125050 0.083342 0.838417 F F F Ti
0.625081 0.083341 0.838457 F F F Ti
0.124975 0.417683 0.580708 F F F Ti
0.625904 0.417231 0.580693 F F F Ti
0.125330 0.416797 0.709599 F F F Ti
0.625361 0.416843 0.709639 F F F Ti
0.125055 0.416671 0.838448 F F F Ti
0.625055 0.416677 0.838459 F F F Ti
0.124837 0.749081 0.580717 F F F Ti
0.625874 0.749498 0.580698 F F F Ti
0.125268 0.749912 0.709610 F F F Ti
0.625348 0.749878 0.709650 F F F Ti
0.125039 0.750008 0.838450 F F F Ti
0.625050 0.750002 0.838462 F F F Ti
0.376411 0.250524 0.645340 F F F Ti
0.876630 0.250653 0.645263 F F F Ti
0.375102 0.250027 0.774012 F F F Ti
0.875264 0.250033 0.774019 F F F Ti
0.375008 0.249995 0.902870 F F F Ti
0.875046 0.249994 0.902875 F F F Ti
0.375350 0.583487 0.645148 F F F Ti
0.875076 0.583319 0.645232 F F F Ti
0.375084 0.583348 0.774030 F F F Ti
0.875139 0.583319 0.774050 F F F Ti
0.375005 0.583332 0.902880 F F F Ti
0.875027 0.583329 0.902886 F F F Ti
0.376348 0.916235 0.645322 F F F Ti
0.876632 0.916052 0.645271 F F F Ti
0.375089 0.916671 0.774007 F F F Ti
0.875255 0.916653 0.774017 F F F Ti
0.374998 0.916673 0.902864 F F F Ti
0.875039 0.916671 0.902870 F F F Ti
0.123788 0.167065 0.386415 F F F Ti
0.623903 0.166800 0.386677 F F F Ti
0.124897 0.666225 0.386365 F F F Ti
0.625054 0.666599 0.386550 F F F Ti
0.125005 0.166657 -0.000021 F F F Ti
0.624981 0.166659 -0.000018 F F F Ti
0.125004 0.666686 -0.000014 F F F Ti
0.624986 0.666684 -0.000012 F F F Ti
0.124999 0.833346 0.096652 F F F Ti
0.624991 0.833347 0.096651 F F F Ti
0.120698 0.828707 0.482814 F F F Ti
0.626438 0.832084 0.483337 F F F Ti
0.124997 0.333327 0.096651 F F F Ti
0.624986 0.333326 0.096649 F F F Ti
0.120294 0.338407 0.482698 F F F Ti
0.625972 0.334551 0.483351 F F F Ti
0.375625 0.583779 0.483347 F F F Ti
0.873608 0.583487 0.483321 F F F Ti
0.375002 0.583336 0.096648 F F F Ti
0.875000 0.583336 0.096645 F F F Ti
0.374995 0.083337 0.096659 F F F Ti
0.874990 0.083339 0.096656 F F F Ti
0.869007 0.083325 0.482788 F F F Ti
0.375082 0.416856 0.386573 F F F Ti
0.874029 0.416939 0.386370 F F F Ti
0.374603 0.916301 0.386620 F F F Ti
0.874381 0.916546 0.386478 F F F Ti
0.374984 0.416656 -0.000017 F F F Ti
0.875010 0.416656 -0.000014 F F F Ti
0.374984 0.916677 -0.000015 F F F Ti
0.875013 0.916676 -0.000012 F F F Ti
0.374822 0.083315 0.290004 F F F Ti
0.874715 0.083347 0.289952 F F F Ti
0.124978 0.166652 0.193318 F F F Ti
0.624926 0.166651 0.193314 F F F Ti
0.124932 0.333409 0.289906 F F F Ti
0.624736 0.333296 0.289928 F F F Ti
0.374969 0.416665 0.193294 F F F Ti
0.874928 0.416654 0.193288 F F F Ti
0.375079 0.583362 0.289920 F F F Ti
0.874841 0.583375 0.289863 F F F Ti
0.124988 0.666668 0.193291 F F F Ti
0.624938 0.666676 0.193286 F F F Ti
0.124912 0.833331 0.289937 F F F Ti
0.624843 0.833331 0.289940 F F F Ti
0.374952 0.916674 0.193318 F F F Ti
0.874949 0.916668 0.193309 F F F Ti
0.281456 0.087586 0.523227 T T T Mo

0.000000 0.000000 0.000000
0.000000 0.000000 0.000000
0.000000 0.000000 0.000000
0.000000 0.000000 0.000000
0.000000 0.000000 0.000000
0.000000 0.000000 0.000000
0.000000 0.000000 0.000000
0.000000 0.000000 0.000000
0.000000 0.000000 0.000000
0.000000 0.000000 0.000000
0.000000 0.000000 0.000000
0.000000 0.000000 0.000000
0.000000 0.000000 0.000000
0.000000 0.000000 0.000000
0.000000 0.000000 0.000000
0.000000 0.000000 0.000000
0.000000 0.000000 0.000000
0.000000 0.000000 0.000000
0.000000 0.000000 0.000000
0.000000 0.000000 0.000000
0.000000 0.000000 0.000000
0.000000 0.000000 0.000000
0.000000 0.000000 0.000000
0.000000 0.000000 0.000000
0.000000 0.000000 0.000000
0.000000 0.000000 0.000000
0.000000 0.000000 0.000000
0.000000 0.000000 0.000000
0.000000 0.000000 0.000000
0.000000 0.000000 0.000000
0.000000 0.000000 0.000000
0.000000 0.000000 0.000000
0.000000 0.000000 0.000000
0.000000 0.000000 0.000000
0.000000 0.000000 0.000000
0.000000 0.000000 0.000000
0.000000 0.000000 0.000000
0.000000 0.000000 0.000000
0.000000 0.000000 0.000000
0.000000 0.000000 0.000000
0.000000 0.000000 0.000000
0.000000 0.000000 0.000000
0.000000 0.000000 0.000000
0.000000 0.000000 0.000000
0.000000 0.000000 0.000000
0.000000 0.000000 0.000000
0.000000 0.000000 0.000000
0.000000 0.000000 0.000000
0.000000 0.000000 0.000000
0.000000 0.000000 0.000000
0.000000 0.000000 0.000000
0.000000 0.000000 0.000000
0.000000 0.000000 0.000000
0.000000 0.000000 0.000000
0.000000 0.000000 0.000000
0.000000 0.000000 0.000000
0.000000 0.000000 0.000000
0.000000 0.000000 0.000000
0.000000 0.000000 0.000000
0.000000 0.000000 0.000000
0.000000 0.000000 0.000000
0.000000 0.000000 0.000000
0.000000 0.000000 0.000000
0.000000 0.000000 0.000000
0.000000 0.000000 0.000000
0.000000 0.000000 0.000000
0.000000 0.000000 0.000000
0.000000 0.000000 0.000000
0.000000 0.000000 0.000000
0.000000 0.000000 0.000000
0.000000 0.000000 0.000000
0.000000 0.000000 0.000000
0.000000 0.000000 0.000000
0.000000 0.000000 0.000000
0.000000 0.000000 0.000000
0.000000 0.000000 0.000000
0.000000 0.000000 0.000000
0.000000 0.000000 0.000000
0.000000 0.000000 0.000000
0.000000 0.000000 0.000000
0.000000 0.000000 0.000000
0.000000 0.000000 0.000000
0.000000 0.000000 0.000000
