total_Ti
1.0
4.756512 0.000000 0.000000
0.000000 4.675432 0.000000
0.000000 0.000000 32.211800
Ti
24
direct
0.333333 0.750000 0.223663 Ti
0.333333 0.750000 0.134198 Ti
0.333333 0.750000 0.044733 Ti
0.833334 0.750000 0.178931 Ti
0.833334 0.750000 0.089465 Ti
0.833334 0.750000 -0.000000 Ti
0.166666 0.250000 0.178931 Ti
0.166666 0.250000 0.089465 Ti
0.166666 0.250000 -0.000000 Ti
0.666667 0.250000 0.223663 Ti
0.666667 0.250000 0.134198 Ti
0.666667 0.250000 0.044733 Ti
0.666667 0.750000 0.736123 Ti
0.166667 0.250000 0.736123 Ti
0.166667 0.750000 0.686407 Ti
0.666667 0.250000 0.686407 Ti
0.666667 0.750000 0.636691 Ti
0.166667 0.250000 0.636691 Ti
0.166667 0.750000 0.586974 Ti
0.666667 0.250000 0.586974 Ti
0.666667 0.750000 0.537258 Ti
0.166667 0.250000 0.537258 Ti
0.166667 0.750000 0.487542 Ti
0.666667 0.250000 0.487542 Ti
