Ti66 Sn1
1.0
6.309760 0.000000 0.000000
0.000000 9.464640 0.000000
0.000000 0.000000 18.918326
Ti Sn
66 1
Selective dynamics
direct
0.126602 0.026002 0.504879 F F F Ti
0.628850 0.040419 0.500373 F F F Ti
0.125549 0.039573 0.659519 F F F Ti
0.625153 0.039967 0.659256 F F F Ti
0.125120 0.041076 0.817408 F F F Ti
0.625004 0.041129 0.817412 F F F Ti
0.629590 0.374162 0.500979 F F F Ti
0.125291 0.373518 0.658601 F F F Ti
0.625534 0.374051 0.659001 F F F Ti
0.125163 0.374457 0.817245 F F F Ti
0.625158 0.374512 0.817328 F F F Ti
0.125069 0.702301 0.499694 F F F Ti
0.623156 0.707196 0.500063 F F F Ti
0.125318 0.705953 0.658775 F F F Ti
0.624466 0.706140 0.659106 F F F Ti
0.125069 0.707605 0.817310 F F F Ti
0.624941 0.707599 0.817383 F F F Ti
0.377713 0.205991 0.580151 F F F Ti
0.873490 0.205644 0.580975 F F F Ti
0.375302 0.207549 0.738159 F F F Ti
0.875141 0.207486 0.738286 F F F Ti
0.375062 0.208072 0.896454 F F F Ti
0.875098 0.208058 0.896469 F F F Ti
0.375493 0.539316 0.579315 F F F Ti
0.874787 0.540254 0.579623 F F F Ti
0.375000 0.540490 0.738090 F F F Ti
0.875307 0.540608 0.738145 F F F Ti
0.375019 0.541244 0.896430 F F F Ti
0.875098 0.541263 0.896429 F F F Ti
0.378035 0.871212 0.580407 F F F Ti
0.872788 0.870643 0.580553 F F F Ti
0.375298 0.873698 0.738353 F F F Ti
0.874900 0.873626 0.738356 F F F Ti
0.375064 0.874758 0.896509 F F F Ti
0.874993 0.874756 0.896505 F F F Ti
0.126143 0.628153 0.355718 F F F Ti
0.624140 0.632450 0.355096 F F F Ti
0.125302 0.625914 0.118395 F F F Ti
0.625097 0.625919 0.118301 F F F Ti
0.630897 0.126573 0.356747 F F F Ti
0.125591 0.125590 0.118910 F F F Ti
0.625105 0.125547 0.118848 F F F Ti
0.125308 0.375180 0.039299 F F F Ti
0.625068 0.375156 0.039314 F F F Ti
0.125095 0.875495 0.039479 F F F Ti
0.624981 0.875533 0.039466 F F F Ti
0.125548 0.378157 0.276863 F F F Ti
0.625237 0.376817 0.274706 F F F Ti
0.125217 0.877038 0.277414 F F F Ti
0.625468 0.878000 0.277025 F F F Ti
0.375104 0.876304 0.158348 F F F Ti
0.875357 0.876225 0.158245 F F F Ti
0.374562 0.375752 0.157948 F F F Ti
0.876102 0.375856 0.157734 F F F Ti
0.398349 0.387812 0.393606 F F F Ti
0.845021 0.394095 0.392038 F F F Ti
0.375679 0.876167 0.396567 F F F Ti
0.875346 0.874443 0.396589 F F F Ti
0.375398 0.627180 0.236879 F F F Ti
0.875284 0.627354 0.236800 F F F Ti
0.375051 0.625266 -0.000211 F F F Ti
0.875067 0.625280 -0.000215 F F F Ti
0.374854 0.126630 0.238260 F F F Ti
0.876364 0.126554 0.237707 F F F Ti
0.375071 0.125054 -0.000012 F F F Ti
0.875158 0.125060 0.000009 F F F Ti
0.104413 0.245069 0.435944 T T T Sn

0.000000 0.000000 0.000000
0.000000 0.000000 0.000000
0.000000 0.000000 0.000000
0.000000 0.000000 0.000000
0.000000 0.000000 0.000000
0.000000 0.000000 0.000000
0.000000 0.000000 0.000000
0.000000 0.000000 0.000000
0.000000 0.000000 0.000000
0.000000 0.000000 0.000000
0.000000 0.000000 0.000000
0.000000 0.000000 0.000000
0.000000 0.000000 0.000000
0.000000 0.000000 0.000000
0.000000 0.000000 0.000000
0.000000 0.000000 0.000000
0.000000 0.000000 0.000000
0.000000 0.000000 0.000000
0.000000 0.000000 0.000000
0.000000 0.000000 0.000000
0.000000 0.000000 0.000000
0.000000 0.000000 0.000000
0.000000 0.000000 0.000000
0.000000 0.000000 0.000000
0.000000 0.000000 0.000000
0.000000 0.000000 0.000000
0.000000 0.000000 0.000000
0.000000 0.000000 0.000000
0.000000 0.000000 0.000000
0.000000 0.000000 0.000000
0.000000 0.000000 0.000000
0.000000 0.000000 0.000000
0.000000 0.000000 0.000000
0.000000 0.000000 0.000000
0.000000 0.000000 0.000000
0.000000 0.000000 0.000000
0.000000 0.000000 0.000000
0.000000 0.000000 0.000000
0.000000 0.000000 0.000000
0.000000 0.000000 0.000000
0.000000 0.000000 0.000000
0.000000 0.000000 0.000000
0.000000 0.000000 0.000000
0.000000 0.000000 0.000000
0.000000 0.000000 0.000000
0.000000 0.000000 0.000000
0.000000 0.000000 0.000000
0.000000 0.000000 0.000000
0.000000 0.000000 0.000000
0.000000 0.000000 0.000000
0.000000 0.000000 0.000000
0.000000 0.000000 0.000000
0.000000 0.000000 0.000000
0.000000 0.000000 0.000000
0.000000 0.000000 0.000000
0.000000 0.000000 0.000000
0.000000 0.000000 0.000000
0.000000 0.000000 0.000000
0.000000 0.000000 0.000000
0.000000 0.000000 0.000000
0.000000 0.000000 0.000000
0.000000 0.000000 0.000000
0.000000 0.000000 0.000000
0.000000 0.000000 0.000000
0.000000 0.000000 0.000000
0.000000 0.000000 0.000000
0.000000 0.000000 0.000000
