total_Ti
1.0
8.805261 0.000000 0.000000
-4.402631 7.625580 0.000000
0.000000 0.000000 23.283422
Ti
90
direct
0.055556 0.055556 0.587824 Ti
0.055556 0.555555 0.587824 Ti
0.555556 0.055556 0.587824 Ti
0.555556 0.555555 0.587824 Ti
0.222222 0.388889 0.865801 Ti
0.222222 0.888889 0.865801 Ti
0.722222 0.388889 0.865801 Ti
0.722222 0.888889 0.865801 Ti
0.388889 0.222222 0.905511 Ti
0.388889 0.722222 0.905511 Ti
0.888889 0.222222 0.905511 Ti
0.888889 0.722222 0.905511 Ti
0.222222 0.388889 0.627535 Ti
0.222222 0.888889 0.627535 Ti
0.722222 0.388889 0.627535 Ti
0.722222 0.888889 0.627535 Ti
0.388889 0.222222 0.667246 Ti
0.388889 0.722222 0.667246 Ti
0.888889 0.222222 0.667246 Ti
0.888889 0.722222 0.667246 Ti
0.055556 0.055556 0.706957 Ti
0.055556 0.555555 0.706957 Ti
0.555556 0.055556 0.706957 Ti
0.555556 0.555555 0.706957 Ti
0.222222 0.388889 0.746668 Ti
0.222222 0.888889 0.746668 Ti
0.722222 0.388889 0.746668 Ti
0.722222 0.888889 0.746668 Ti
0.388889 0.222222 0.786379 Ti
0.388889 0.722222 0.786379 Ti
0.888889 0.222222 0.786379 Ti
0.888889 0.722222 0.786379 Ti
0.055556 0.055556 0.826089 Ti
0.055556 0.555555 0.826089 Ti
0.555556 0.055556 0.826089 Ti
0.555556 0.555555 0.826089 Ti
0.166666 0.944444 -0.000000 Ti
0.166666 0.944444 0.394669 Ti
0.166666 0.611111 -0.000000 Ti
0.277778 0.833333 0.098667 Ti
0.166666 0.611111 0.394669 Ti
0.500000 0.944444 -0.000000 Ti
0.166666 0.277778 -0.000000 Ti
0.277778 0.833333 0.493336 Ti
0.277778 0.500000 0.098667 Ti
0.500000 0.944444 0.394669 Ti
0.166666 0.277778 0.394669 Ti
0.500000 0.611111 -0.000000 Ti
0.277778 0.500000 0.493336 Ti
0.611111 0.833333 0.098667 Ti
0.277778 0.166667 0.098667 Ti
0.500000 0.611111 0.394669 Ti
0.833333 0.944444 -0.000000 Ti
0.500000 0.277778 -0.000000 Ti
0.611111 0.833333 0.493336 Ti
0.277778 0.166667 0.493336 Ti
0.611111 0.500000 0.098667 Ti
0.833333 0.944444 0.394669 Ti
0.500000 0.277778 0.394669 Ti
0.833333 0.611111 -0.000000 Ti
0.611111 0.500000 0.493336 Ti
0.944444 0.833333 0.098667 Ti
0.611111 0.166667 0.098667 Ti
0.833333 0.611111 0.394669 Ti
0.833333 0.277778 -0.000000 Ti
0.944444 0.833333 0.493336 Ti
0.611111 0.166667 0.493336 Ti
0.944444 0.500000 0.098667 Ti
0.833333 0.277778 0.394669 Ti
0.944444 0.500000 0.493336 Ti
0.944444 0.166667 0.098667 Ti
0.944444 0.166667 0.493336 Ti
0.166666 0.944444 0.197334 Ti
0.166666 0.611111 0.197334 Ti
0.277778 0.833333 0.296002 Ti
0.500000 0.944444 0.197334 Ti
0.166666 0.277778 0.197334 Ti
0.277778 0.500000 0.296002 Ti
0.500000 0.611111 0.197334 Ti
0.611111 0.833333 0.296002 Ti
0.277778 0.166667 0.296002 Ti
0.833333 0.944444 0.197334 Ti
0.500000 0.277778 0.197334 Ti
0.611111 0.500000 0.296002 Ti
0.833333 0.611111 0.197334 Ti
0.944444 0.833333 0.296002 Ti
0.611111 0.166667 0.296002 Ti
0.833333 0.277778 0.197334 Ti
0.944444 0.500000 0.296002 Ti
0.944444 0.166667 0.296002 Ti
