beta_Ti
1.0
8.805261 0.000000 0.000000
-4.402631 7.625580 0.000000
0.000000 0.000000 23.283422
Ti
36
direct
0.055556 0.055556 0.587824 Ti
0.055556 0.555555 0.587824 Ti
0.555556 0.055556 0.587824 Ti
0.555556 0.555555 0.587824 Ti
0.222222 0.388889 0.865801 Ti
0.222222 0.888889 0.865801 Ti
0.722222 0.388889 0.865801 Ti
0.722222 0.888889 0.865801 Ti
0.388889 0.222222 0.905511 Ti
0.388889 0.722222 0.905511 Ti
0.888889 0.222222 0.905511 Ti
0.888889 0.722222 0.905511 Ti
0.222222 0.388889 0.627535 Ti
0.222222 0.888889 0.627535 Ti
0.722222 0.388889 0.627535 Ti
0.722222 0.888889 0.627535 Ti
0.388889 0.222222 0.667246 Ti
0.388889 0.722222 0.667246 Ti
0.888889 0.222222 0.667246 Ti
0.888889 0.722222 0.667246 Ti
0.055556 0.055556 0.706957 Ti
0.055556 0.555555 0.706957 Ti
0.555556 0.055556 0.706957 Ti
0.555556 0.555555 0.706957 Ti
0.222222 0.388889 0.746668 Ti
0.222222 0.888889 0.746668 Ti
0.722222 0.388889 0.746668 Ti
0.722222 0.888889 0.746668 Ti
0.388889 0.222222 0.786379 Ti
0.388889 0.722222 0.786379 Ti
0.888889 0.222222 0.786379 Ti
0.888889 0.722222 0.786379 Ti
0.055556 0.055556 0.826089 Ti
0.055556 0.555555 0.826089 Ti
0.555556 0.055556 0.826089 Ti
0.555556 0.555555 0.826089 Ti
