total_Ti
1.0
5.745590 0.000000 0.000000
0.000000 9.072750 0.000000
0.000000 0.000000 24.667173
Ti
64
direct
0.041667 0.875000 0.378360 Ti
0.041667 0.375000 0.378360 Ti
0.541667 0.875000 0.378360 Ti
0.541667 0.375000 0.378360 Ti
0.291667 0.625000 0.412757 Ti
0.291667 0.125000 0.412757 Ti
0.791667 0.625000 0.412757 Ti
0.791667 0.125000 0.412757 Ti
0.291667 0.875000 0.275170 Ti
0.291667 0.375000 0.275170 Ti
0.791667 0.875000 0.275170 Ti
0.791667 0.375000 0.275170 Ti
0.041667 0.625000 0.309567 Ti
0.041667 0.125000 0.309567 Ti
0.541667 0.625000 0.309567 Ti
0.541667 0.125000 0.309567 Ti
0.041667 0.875000 0.171982 Ti
0.041667 0.375000 0.171982 Ti
0.541667 0.875000 0.171982 Ti
0.541667 0.375000 0.171982 Ti
0.291667 0.625000 0.206378 Ti
0.291667 0.125000 0.206378 Ti
0.791667 0.625000 0.206378 Ti
0.791667 0.125000 0.206378 Ti
0.291667 0.875000 0.068792 Ti
0.291667 0.375000 0.068792 Ti
0.791667 0.875000 0.068792 Ti
0.791667 0.375000 0.068792 Ti
0.041667 0.625000 0.103189 Ti
0.041667 0.125000 0.103189 Ti
0.541667 0.625000 0.103189 Ti
0.541667 0.125000 0.103189 Ti
0.458333 0.625000 0.608460 Ti
0.458333 0.125000 0.608460 Ti
0.958333 0.625000 0.608460 Ti
0.958333 0.125000 0.608460 Ti
0.125000 0.625000 0.716085 Ti
0.125000 0.125000 0.716085 Ti
0.625000 0.625000 0.716085 Ti
0.625000 0.125000 0.716085 Ti
0.291667 0.625000 0.823712 Ti
0.291667 0.125000 0.823712 Ti
0.791667 0.625000 0.823712 Ti
0.791667 0.125000 0.823712 Ti
0.125000 0.875000 0.554646 Ti
0.125000 0.375000 0.554646 Ti
0.625000 0.875000 0.554646 Ti
0.625000 0.375000 0.554646 Ti
0.291667 0.875000 0.662273 Ti
0.291667 0.375000 0.662273 Ti
0.791667 0.875000 0.662273 Ti
0.791667 0.375000 0.662273 Ti
0.458333 0.875000 0.769899 Ti
0.458333 0.375000 0.769899 Ti
0.958333 0.875000 0.769899 Ti
0.958333 0.375000 0.769899 Ti
0.125000 0.875000 0.877525 Ti
0.125000 0.375000 0.877525 Ti
0.625000 0.875000 0.877525 Ti
0.625000 0.375000 0.877525 Ti
0.791667 0.125000 0.000000 Ti
0.291667 0.125000 0.000000 Ti
0.791667 0.625000 -0.000000 Ti
0.291667 0.625000 -0.000000 Ti
