Ti67
1.0
6.309760 0.000000 0.000000
0.000000 9.464640 0.000000
0.000000 0.000000 18.918326
Ti
67
Selective dynamics
direct
0.628421 0.041199 0.499972 F F F Ti
0.124655 0.041454 0.659050 F F F Ti
0.625025 0.041576 0.658720 F F F Ti
0.124992 0.041664 0.817240 F F F Ti
0.624957 0.041668 0.817219 F F F Ti
0.124287 0.376987 0.499937 F F F Ti
0.624970 0.375151 0.499952 F F F Ti
0.124981 0.375076 0.658648 F F F Ti
0.624620 0.375162 0.658695 F F F Ti
0.125019 0.375004 0.817201 F F F Ti
0.624953 0.375015 0.817210 F F F Ti
0.125118 0.708388 0.500057 F F F Ti
0.625342 0.708120 0.499971 F F F Ti
0.124975 0.708176 0.658711 F F F Ti
0.625241 0.708076 0.658765 F F F Ti
0.124995 0.708299 0.817224 F F F Ti
0.624992 0.708289 0.817237 F F F Ti
0.872603 0.209400 0.579894 F F F Ti
0.375002 0.208336 0.737909 F F F Ti
0.874857 0.208406 0.738004 F F F Ti
0.375013 0.208349 0.896461 F F F Ti
0.874978 0.208354 0.896473 F F F Ti
0.375135 0.541675 0.579352 F F F Ti
0.874739 0.541886 0.579397 F F F Ti
0.374978 0.541632 0.737942 F F F Ti
0.875018 0.541629 0.737962 F F F Ti
0.375004 0.541648 0.896473 F F F Ti
0.874992 0.541650 0.896476 F F F Ti
0.376709 0.873633 0.579815 F F F Ti
0.874801 0.874586 0.579556 F F F Ti
0.375091 0.874904 0.738001 F F F Ti
0.874872 0.874899 0.737998 F F F Ti
0.375014 0.874990 0.896481 F F F Ti
0.874975 0.874990 0.896483 F F F Ti
0.124997 0.625363 0.356842 F F F Ti
0.624992 0.625160 0.356779 F F F Ti
0.125008 0.625033 0.118933 F F F Ti
0.625005 0.625026 0.118930 F F F Ti
0.124994 0.125308 0.356143 F F F Ti
0.625667 0.125073 0.356659 F F F Ti
0.125015 0.125018 0.118898 F F F Ti
0.625004 0.125015 0.118888 F F F Ti
0.125002 0.375020 0.039638 F F F Ti
0.624995 0.375020 0.039637 F F F Ti
0.125001 0.875002 0.039640 F F F Ti
0.624999 0.874999 0.039639 F F F Ti
0.124999 0.375228 0.277423 F F F Ti
0.625053 0.375103 0.277431 F F F Ti
0.125041 0.875010 0.277445 F F F Ti
0.625217 0.875009 0.277430 F F F Ti
0.375032 0.875002 0.158543 F F F Ti
0.875007 0.874998 0.158541 F F F Ti
0.375024 0.375053 0.158541 F F F Ti
0.874996 0.375061 0.158535 F F F Ti
0.375223 0.375496 0.396296 F F F Ti
0.874701 0.375382 0.396315 F F F Ti
0.375870 0.874536 0.396201 F F F Ti
0.875392 0.875050 0.396420 F F F Ti
0.374996 0.625079 0.237863 F F F Ti
0.875041 0.625080 0.237872 F F F Ti
0.374994 0.625022 0.000003 F F F Ti
0.875005 0.625022 0.000005 F F F Ti
0.375214 0.125041 0.237760 F F F Ti
0.874908 0.125046 0.237738 F F F Ti
0.375001 0.125000 -0.000011 F F F Ti
0.875008 0.124998 -0.000005 F F F Ti
0.185571 0.085049 0.502137 T T T Ti

0.000000 0.000000 0.000000
0.000000 0.000000 0.000000
0.000000 0.000000 0.000000
0.000000 0.000000 0.000000
0.000000 0.000000 0.000000
0.000000 0.000000 0.000000
0.000000 0.000000 0.000000
0.000000 0.000000 0.000000
0.000000 0.000000 0.000000
0.000000 0.000000 0.000000
0.000000 0.000000 0.000000
0.000000 0.000000 0.000000
0.000000 0.000000 0.000000
0.000000 0.000000 0.000000
0.000000 0.000000 0.000000
0.000000 0.000000 0.000000
0.000000 0.000000 0.000000
0.000000 0.000000 0.000000
0.000000 0.000000 0.000000
0.000000 0.000000 0.000000
0.000000 0.000000 0.000000
0.000000 0.000000 0.000000
0.000000 0.000000 0.000000
0.000000 0.000000 0.000000
0.000000 0.000000 0.000000
0.000000 0.000000 0.000000
0.000000 0.000000 0.000000
0.000000 0.000000 0.000000
0.000000 0.000000 0.000000
0.000000 0.000000 0.000000
0.000000 0.000000 0.000000
0.000000 0.000000 0.000000
0.000000 0.000000 0.000000
0.000000 0.000000 0.000000
0.000000 0.000000 0.000000
0.000000 0.000000 0.000000
0.000000 0.000000 0.000000
0.000000 0.000000 0.000000
0.000000 0.000000 0.000000
0.000000 0.000000 0.000000
0.000000 0.000000 0.000000
0.000000 0.000000 0.000000
0.000000 0.000000 0.000000
0.000000 0.000000 0.000000
0.000000 0.000000 0.000000
0.000000 0.000000 0.000000
0.000000 0.000000 0.000000
0.000000 0.000000 0.000000
0.000000 0.000000 0.000000
0.000000 0.000000 0.000000
0.000000 0.000000 0.000000
0.000000 0.000000 0.000000
0.000000 0.000000 0.000000
0.000000 0.000000 0.000000
0.000000 0.000000 0.000000
0.000000 0.000000 0.000000
0.000000 0.000000 0.000000
0.000000 0.000000 0.000000
0.000000 0.000000 0.000000
0.000000 0.000000 0.000000
0.000000 0.000000 0.000000
0.000000 0.000000 0.000000
0.000000 0.000000 0.000000
0.000000 0.000000 0.000000
0.000000 0.000000 0.000000
0.000000 0.000000 0.000000
0.000000 0.000000 0.000000
