Ti96 Nb1
1.0
9.513020 0.000000 0.000000
0.000000 9.350860 0.000000
0.000000 0.000000 18.547230
Ti Nb
96 1
Selective dynamics
direct
0.136423 0.363399 0.404995 T T T Ti
0.646800 0.347129 0.407955 T T T Ti
0.159531 0.854235 0.405093 T T T Ti
0.680424 0.916988 0.406158 T T T Ti
0.156992 0.377958 0.238403 T T T Ti
0.665205 0.363289 0.229243 T T T Ti
0.156555 0.871353 0.232526 T T T Ti
0.660490 0.865743 0.242233 T T T Ti
0.166686 0.375050 0.077600 F F F Ti
0.666712 0.374991 0.077565 F F F Ti
0.166706 0.875018 0.077616 F F F Ti
0.666652 0.875009 0.077623 F F F Ti
0.407261 0.374083 0.314196 T T T Ti
0.898525 0.375799 0.319202 T T T Ti
0.375895 0.921982 0.316278 T T T Ti
0.916418 0.879072 0.320081 T T T Ti
0.416729 0.375136 0.155187 F F F Ti
0.916718 0.374954 0.155210 F F F Ti
0.416589 0.875165 0.155268 F F F Ti
0.916685 0.875084 0.155193 F F F Ti
0.416674 0.375016 -0.000044 F F F Ti
0.916664 0.374997 -0.000047 F F F Ti
0.416666 0.874998 -0.000009 F F F Ti
0.916676 0.874996 -0.000042 F F F Ti
0.101475 0.124201 0.319201 T T T Ti
0.592739 0.125918 0.314195 T T T Ti
0.083582 0.620928 0.320080 T T T Ti
0.624105 0.578018 0.316277 T T T Ti
0.083282 0.125055 0.155210 F F F Ti
0.583271 0.124874 0.155187 F F F Ti
0.083315 0.624926 0.155193 F F F Ti
0.583412 0.624842 0.155269 F F F Ti
0.083337 0.125002 -0.000048 F F F Ti
0.583325 0.124985 -0.000045 F F F Ti
0.083325 0.625005 -0.000042 F F F Ti
0.583334 0.625000 -0.000010 F F F Ti
0.353199 0.152871 0.407955 T T T Ti
0.863576 0.136601 0.404995 T T T Ti
0.319575 0.583012 0.406158 T T T Ti
0.840468 0.645765 0.405093 T T T Ti
0.334794 0.136713 0.229243 T T T Ti
0.843007 0.122043 0.238403 T T T Ti
0.339509 0.634258 0.242233 T T T Ti
0.843444 0.628649 0.232526 T T T Ti
0.333287 0.125016 0.077565 F F F Ti
0.833312 0.124956 0.077600 F F F Ti
0.333347 0.624996 0.077623 F F F Ti
0.833293 0.624988 0.077616 F F F Ti
0.375005 0.375006 0.823782 F F F Ti
0.874978 0.375003 0.823791 F F F Ti
0.375007 0.874993 0.823760 F F F Ti
0.874992 0.874997 0.823761 F F F Ti
0.125023 0.124990 0.823791 F F F Ti
0.624996 0.124990 0.823782 F F F Ti
0.125009 0.624998 0.823761 F F F Ti
0.624994 0.625002 0.823760 F F F Ti
0.125010 0.375027 0.910101 F F F Ti
0.625002 0.375016 0.910094 F F F Ti
0.125025 0.874983 0.910101 F F F Ti
0.624986 0.874988 0.910103 F F F Ti
0.374999 0.124979 0.910094 F F F Ti
0.874991 0.124967 0.910101 F F F Ti
0.375013 0.625005 0.910102 F F F Ti
0.874976 0.625011 0.910101 F F F Ti
0.391846 0.393237 0.654261 T T T Ti
0.901843 0.380182 0.651402 T T T Ti
0.393352 0.881560 0.654272 T T T Ti
0.884938 0.885459 0.660643 T T T Ti
0.098157 0.119817 0.651402 T T T Ti
0.608153 0.106762 0.654261 T T T Ti
0.115062 0.614539 0.660643 T T T Ti
0.606648 0.618439 0.654272 T T T Ti
0.149691 0.373247 0.568731 T T T Ti
0.652310 0.358190 0.583906 T T T Ti
0.137485 0.860064 0.580355 T T T Ti
0.647051 0.855811 0.565666 T T T Ti
0.347690 0.141810 0.583906 T T T Ti
0.850309 0.126753 0.568731 T T T Ti
0.352949 0.644188 0.565666 T T T Ti
0.862515 0.639935 0.580355 T T T Ti
0.405305 0.376073 0.499052 T T T Ti
0.891207 0.380048 0.489716 T T T Ti
0.379719 0.912677 0.496407 T T T Ti
0.912865 0.883030 0.488455 T T T Ti
0.108793 0.119952 0.489716 T T T Ti
0.594695 0.123927 0.499052 T T T Ti
0.087135 0.616970 0.488455 T T T Ti
0.620281 0.587323 0.496407 T T T Ti
0.125076 0.875026 0.737441 F F F Ti
0.625015 0.875036 0.737443 F F F Ti
0.374985 0.624960 0.737443 F F F Ti
0.874924 0.624970 0.737442 F F F Ti
0.124996 0.374996 0.737496 F F F Ti
0.624993 0.375015 0.737478 F F F Ti
0.375005 0.124979 0.737478 F F F Ti
0.875001 0.124997 0.737496 F F F Ti
0.500000 0.750000 0.387659 T T T Nb

0.000000 0.000000 0.000000
0.000000 0.000000 0.000000
0.000000 0.000000 0.000000
0.000000 0.000000 0.000000
0.000000 0.000000 0.000000
0.000000 0.000000 0.000000
0.000000 0.000000 0.000000
0.000000 0.000000 0.000000
0.000000 0.000000 0.000000
0.000000 0.000000 0.000000
0.000000 0.000000 0.000000
0.000000 0.000000 0.000000
0.000000 0.000000 0.000000
0.000000 0.000000 0.000000
0.000000 0.000000 0.000000
0.000000 0.000000 0.000000
0.000000 0.000000 0.000000
0.000000 0.000000 0.000000
0.000000 0.000000 0.000000
0.000000 0.000000 0.000000
0.000000 0.000000 0.000000
0.000000 0.000000 0.000000
0.000000 0.000000 0.000000
0.000000 0.000000 0.000000
0.000000 0.000000 0.000000
0.000000 0.000000 0.000000
0.000000 0.000000 0.000000
0.000000 0.000000 0.000000
0.000000 0.000000 0.000000
0.000000 0.000000 0.000000
0.000000 0.000000 0.000000
0.000000 0.000000 0.000000
0.000000 0.000000 0.000000
0.000000 0.000000 0.000000
0.000000 0.000000 0.000000
0.000000 0.000000 0.000000
0.000000 0.000000 0.000000
0.000000 0.000000 0.000000
0.000000 0.000000 0.000000
0.000000 0.000000 0.000000
0.000000 0.000000 0.000000
0.000000 0.000000 0.000000
0.000000 0.000000 0.000000
0.000000 0.000000 0.000000
0.000000 0.000000 0.000000
0.000000 0.000000 0.000000
0.000000 0.000000 0.000000
0.000000 0.000000 0.000000
0.000000 0.000000 0.000000
0.000000 0.000000 0.000000
0.000000 0.000000 0.000000
0.000000 0.000000 0.000000
0.000000 0.000000 0.000000
0.000000 0.000000 0.000000
0.000000 0.000000 0.000000
0.000000 0.000000 0.000000
0.000000 0.000000 0.000000
0.000000 0.000000 0.000000
0.000000 0.000000 0.000000
0.000000 0.000000 0.000000
0.000000 0.000000 0.000000
0.000000 0.000000 0.000000
0.000000 0.000000 0.000000
0.000000 0.000000 0.000000
0.000000 0.000000 0.000000
0.000000 0.000000 0.000000
0.000000 0.000000 0.000000
0.000000 0.000000 0.000000
0.000000 0.000000 0.000000
0.000000 0.000000 0.000000
0.000000 0.000000 0.000000
0.000000 0.000000 0.000000
0.000000 0.000000 0.000000
0.000000 0.000000 0.000000
0.000000 0.000000 0.000000
0.000000 0.000000 0.000000
0.000000 0.000000 0.000000
0.000000 0.000000 0.000000
0.000000 0.000000 0.000000
0.000000 0.000000 0.000000
0.000000 0.000000 0.000000
0.000000 0.000000 0.000000
0.000000 0.000000 0.000000
0.000000 0.000000 0.000000
0.000000 0.000000 0.000000
0.000000 0.000000 0.000000
0.000000 0.000000 0.000000
0.000000 0.000000 0.000000
0.000000 0.000000 0.000000
0.000000 0.000000 0.000000
0.000000 0.000000 0.000000
0.000000 0.000000 0.000000
0.000000 0.000000 0.000000
0.000000 0.000000 0.000000
0.000000 0.000000 0.000000
0.000000 0.000000 0.000000
0.000000 0.000000 0.000000
