Ti96 Nb1
1.0
9.513020 0.000000 0.000000
0.000000 9.350860 0.000000
0.000000 0.000000 18.547230
Ti Nb
96 1
Selective dynamics
direct
0.141347 0.368615 0.404008 T T T Ti
0.645552 0.341097 0.408476 T T T Ti
0.147547 0.852999 0.410998 T T T Ti
0.674200 0.902954 0.409365 T T T Ti
0.155838 0.375597 0.239334 T T T Ti
0.662696 0.361307 0.230805 T T T Ti
0.154983 0.869805 0.231409 T T T Ti
0.665414 0.871301 0.238225 T T T Ti
0.166708 0.375088 0.077571 F F F Ti
0.666707 0.375031 0.077523 F F F Ti
0.166739 0.874954 0.077593 F F F Ti
0.666646 0.874948 0.077593 F F F Ti
0.410692 0.382942 0.317069 T T T Ti
0.899792 0.374751 0.320383 T T T Ti
0.355025 0.929645 0.321498 T T T Ti
0.914263 0.878233 0.320047 T T T Ti
0.416757 0.375262 0.155133 F F F Ti
0.916749 0.374937 0.155146 F F F Ti
0.416598 0.874998 0.155288 F F F Ti
0.916721 0.875010 0.155134 F F F Ti
0.416681 0.375036 -0.000060 F F F Ti
0.916660 0.375008 -0.000064 F F F Ti
0.416666 0.874961 -0.000022 F F F Ti
0.916682 0.874981 -0.000060 F F F Ti
0.100208 0.125249 0.320382 T T T Ti
0.589308 0.117059 0.317068 T T T Ti
0.085737 0.621767 0.320046 T T T Ti
0.644975 0.570355 0.321497 T T T Ti
0.083251 0.125074 0.155146 F F F Ti
0.583241 0.124750 0.155135 F F F Ti
0.083280 0.625001 0.155134 F F F Ti
0.583402 0.625009 0.155287 F F F Ti
0.083341 0.124992 -0.000064 F F F Ti
0.583319 0.124966 -0.000060 F F F Ti
0.083319 0.625021 -0.000060 F F F Ti
0.583335 0.625037 -0.000023 F F F Ti
0.354447 0.158903 0.408476 T T T Ti
0.858652 0.131385 0.404008 T T T Ti
0.325799 0.597046 0.409365 T T T Ti
0.852452 0.647001 0.410998 T T T Ti
0.337303 0.138695 0.230805 T T T Ti
0.844161 0.124405 0.239334 T T T Ti
0.334585 0.628700 0.238225 T T T Ti
0.845016 0.630197 0.231409 T T T Ti
0.333292 0.124977 0.077524 F F F Ti
0.833290 0.124918 0.077572 F F F Ti
0.333353 0.625059 0.077592 F F F Ti
0.833261 0.625052 0.077592 F F F Ti
0.375010 0.375013 0.823786 F F F Ti
0.874974 0.375002 0.823792 F F F Ti
0.375010 0.874986 0.823766 F F F Ti
0.874997 0.874991 0.823775 F F F Ti
0.125027 0.124991 0.823792 F F F Ti
0.624992 0.124982 0.823787 F F F Ti
0.125005 0.625004 0.823774 F F F Ti
0.624992 0.625008 0.823766 F F F Ti
0.124985 0.375032 0.910066 F F F Ti
0.625002 0.375025 0.910068 F F F Ti
0.125002 0.874975 0.910058 F F F Ti
0.624983 0.874974 0.910071 F F F Ti
0.375000 0.124970 0.910068 F F F Ti
0.875016 0.124963 0.910067 F F F Ti
0.375017 0.625019 0.910070 F F F Ti
0.874999 0.625021 0.910058 F F F Ti
0.393049 0.389916 0.654259 T T T Ti
0.901407 0.382670 0.652314 T T T Ti
0.394785 0.881992 0.654613 T T T Ti
0.886694 0.886160 0.658763 T T T Ti
0.098592 0.117329 0.652314 T T T Ti
0.606951 0.110082 0.654259 T T T Ti
0.113305 0.613838 0.658763 T T T Ti
0.605215 0.618007 0.654613 T T T Ti
0.149502 0.367272 0.571318 T T T Ti
0.652384 0.362286 0.581712 T T T Ti
0.141518 0.861506 0.579110 T T T Ti
0.645299 0.857142 0.567531 T T T Ti
0.347616 0.137714 0.581712 T T T Ti
0.850498 0.132728 0.571318 T T T Ti
0.354701 0.642857 0.567531 T T T Ti
0.858482 0.638493 0.579110 T T T Ti
0.403714 0.378770 0.499214 T T T Ti
0.891962 0.378913 0.487618 T T T Ti
0.385457 0.907405 0.490954 T T T Ti
0.908582 0.888605 0.493687 T T T Ti
0.108038 0.121087 0.487618 T T T Ti
0.596286 0.121230 0.499214 T T T Ti
0.091418 0.611395 0.493687 T T T Ti
0.614543 0.592595 0.490954 T T T Ti
0.125058 0.875043 0.737471 F F F Ti
0.624994 0.875003 0.737458 F F F Ti
0.375004 0.624990 0.737458 F F F Ti
0.874940 0.624950 0.737472 F F F Ti
0.124963 0.374994 0.737512 F F F Ti
0.624995 0.375011 0.737490 F F F Ti
0.375003 0.124981 0.737490 F F F Ti
0.875034 0.124997 0.737512 F F F Ti
0.500000 0.750000 0.361673 T T T Nb

0.000000 0.000000 0.000000
0.000000 0.000000 0.000000
0.000000 0.000000 0.000000
0.000000 0.000000 0.000000
0.000000 0.000000 0.000000
0.000000 0.000000 0.000000
0.000000 0.000000 0.000000
0.000000 0.000000 0.000000
0.000000 0.000000 0.000000
0.000000 0.000000 0.000000
0.000000 0.000000 0.000000
0.000000 0.000000 0.000000
0.000000 0.000000 0.000000
0.000000 0.000000 0.000000
0.000000 0.000000 0.000000
0.000000 0.000000 0.000000
0.000000 0.000000 0.000000
0.000000 0.000000 0.000000
0.000000 0.000000 0.000000
0.000000 0.000000 0.000000
0.000000 0.000000 0.000000
0.000000 0.000000 0.000000
0.000000 0.000000 0.000000
0.000000 0.000000 0.000000
0.000000 0.000000 0.000000
0.000000 0.000000 0.000000
0.000000 0.000000 0.000000
0.000000 0.000000 0.000000
0.000000 0.000000 0.000000
0.000000 0.000000 0.000000
0.000000 0.000000 0.000000
0.000000 0.000000 0.000000
0.000000 0.000000 0.000000
0.000000 0.000000 0.000000
0.000000 0.000000 0.000000
0.000000 0.000000 0.000000
0.000000 0.000000 0.000000
0.000000 0.000000 0.000000
0.000000 0.000000 0.000000
0.000000 0.000000 0.000000
0.000000 0.000000 0.000000
0.000000 0.000000 0.000000
0.000000 0.000000 0.000000
0.000000 0.000000 0.000000
0.000000 0.000000 0.000000
0.000000 0.000000 0.000000
0.000000 0.000000 0.000000
0.000000 0.000000 0.000000
0.000000 0.000000 0.000000
0.000000 0.000000 0.000000
0.000000 0.000000 0.000000
0.000000 0.000000 0.000000
0.000000 0.000000 0.000000
0.000000 0.000000 0.000000
0.000000 0.000000 0.000000
0.000000 0.000000 0.000000
0.000000 0.000000 0.000000
0.000000 0.000000 0.000000
0.000000 0.000000 0.000000
0.000000 0.000000 0.000000
0.000000 0.000000 0.000000
0.000000 0.000000 0.000000
0.000000 0.000000 0.000000
0.000000 0.000000 0.000000
0.000000 0.000000 0.000000
0.000000 0.000000 0.000000
0.000000 0.000000 0.000000
0.000000 0.000000 0.000000
0.000000 0.000000 0.000000
0.000000 0.000000 0.000000
0.000000 0.000000 0.000000
0.000000 0.000000 0.000000
0.000000 0.000000 0.000000
0.000000 0.000000 0.000000
0.000000 0.000000 0.000000
0.000000 0.000000 0.000000
0.000000 0.000000 0.000000
0.000000 0.000000 0.000000
0.000000 0.000000 0.000000
0.000000 0.000000 0.000000
0.000000 0.000000 0.000000
0.000000 0.000000 0.000000
0.000000 0.000000 0.000000
0.000000 0.000000 0.000000
0.000000 0.000000 0.000000
0.000000 0.000000 0.000000
0.000000 0.000000 0.000000
0.000000 0.000000 0.000000
0.000000 0.000000 0.000000
0.000000 0.000000 0.000000
0.000000 0.000000 0.000000
0.000000 0.000000 0.000000
0.000000 0.000000 0.000000
0.000000 0.000000 0.000000
0.000000 0.000000 0.000000
0.000000 0.000000 0.000000
0.000000 0.000000 0.000000
