Ti66 Nb1
1.0
6.309760 0.000000 0.000000
0.000000 9.464640 0.000000
0.000000 0.000000 18.918326
Ti Nb
66 1
Selective dynamics
direct
0.124361 0.041295 0.499361 F F F Ti
0.625081 0.041585 0.499933 F F F Ti
0.626556 0.041420 0.658704 F F F Ti
0.125018 0.041676 0.817191 F F F Ti
0.625165 0.041614 0.817224 F F F Ti
0.124936 0.375095 0.499958 F F F Ti
0.624829 0.375076 0.499963 F F F Ti
0.124633 0.375934 0.658698 F F F Ti
0.625058 0.375133 0.658611 F F F Ti
0.124946 0.375099 0.817218 F F F Ti
0.625162 0.375138 0.817235 F F F Ti
0.124942 0.708204 0.499948 F F F Ti
0.625140 0.708193 0.499931 F F F Ti
0.125007 0.708315 0.658576 F F F Ti
0.625142 0.708232 0.658603 F F F Ti
0.124996 0.708347 0.817170 F F F Ti
0.625051 0.708335 0.817184 F F F Ti
0.873100 0.208957 0.579000 F F F Ti
0.376109 0.208985 0.738459 F F F Ti
0.874790 0.208516 0.737965 F F F Ti
0.375021 0.208353 0.896496 F F F Ti
0.874997 0.208344 0.896464 F F F Ti
0.375033 0.541654 0.579280 F F F Ti
0.874901 0.541768 0.579264 F F F Ti
0.375068 0.541779 0.737904 F F F Ti
0.874918 0.541768 0.737910 F F F Ti
0.375006 0.541700 0.896463 F F F Ti
0.874997 0.541696 0.896463 F F F Ti
0.375982 0.873870 0.579017 F F F Ti
0.874838 0.874816 0.579213 F F F Ti
0.375257 0.874833 0.737948 F F F Ti
0.875161 0.874990 0.737875 F F F Ti
0.375008 0.874993 0.896459 F F F Ti
0.875018 0.874995 0.896451 F F F Ti
0.125001 0.625018 0.356798 F F F Ti
0.624962 0.625007 0.356790 F F F Ti
0.125001 0.625012 0.118923 F F F Ti
0.624991 0.625010 0.118925 F F F Ti
0.124997 0.125027 0.356727 F F F Ti
0.624978 0.125005 0.356775 F F F Ti
0.125000 0.125001 0.118920 F F F Ti
0.624990 0.125001 0.118923 F F F Ti
0.124996 0.375008 0.039651 F F F Ti
0.625003 0.375009 0.039653 F F F Ti
0.124997 0.875000 0.039646 F F F Ti
0.625003 0.874998 0.039648 F F F Ti
0.124999 0.375013 0.277498 F F F Ti
0.624991 0.375005 0.277499 F F F Ti
0.124996 0.874991 0.277488 F F F Ti
0.624993 0.874996 0.277490 F F F Ti
0.375001 0.874998 0.158571 F F F Ti
0.874995 0.874998 0.158570 F F F Ti
0.375000 0.375005 0.158574 F F F Ti
0.874999 0.375006 0.158573 F F F Ti
0.374993 0.374996 0.396427 F F F Ti
0.874958 0.375027 0.396410 F F F Ti
0.375063 0.874945 0.396387 F F F Ti
0.874902 0.874930 0.396381 F F F Ti
0.374996 0.625005 0.237863 F F F Ti
0.875001 0.625003 0.237863 F F F Ti
0.374996 0.625019 0.000003 F F F Ti
0.875004 0.625017 0.000003 F F F Ti
0.375008 0.125003 0.237853 F F F Ti
0.874986 0.125003 0.237850 F F F Ti
0.375002 0.124994 0.000017 F F F Ti
0.874995 0.124999 0.000008 F F F Ti
0.209759 0.100792 0.629520 T T T Nb

0.000000 0.000000 0.000000
0.000000 0.000000 0.000000
0.000000 0.000000 0.000000
0.000000 0.000000 0.000000
0.000000 0.000000 0.000000
0.000000 0.000000 0.000000
0.000000 0.000000 0.000000
0.000000 0.000000 0.000000
0.000000 0.000000 0.000000
0.000000 0.000000 0.000000
0.000000 0.000000 0.000000
0.000000 0.000000 0.000000
0.000000 0.000000 0.000000
0.000000 0.000000 0.000000
0.000000 0.000000 0.000000
0.000000 0.000000 0.000000
0.000000 0.000000 0.000000
0.000000 0.000000 0.000000
0.000000 0.000000 0.000000
0.000000 0.000000 0.000000
0.000000 0.000000 0.000000
0.000000 0.000000 0.000000
0.000000 0.000000 0.000000
0.000000 0.000000 0.000000
0.000000 0.000000 0.000000
0.000000 0.000000 0.000000
0.000000 0.000000 0.000000
0.000000 0.000000 0.000000
0.000000 0.000000 0.000000
0.000000 0.000000 0.000000
0.000000 0.000000 0.000000
0.000000 0.000000 0.000000
0.000000 0.000000 0.000000
0.000000 0.000000 0.000000
0.000000 0.000000 0.000000
0.000000 0.000000 0.000000
0.000000 0.000000 0.000000
0.000000 0.000000 0.000000
0.000000 0.000000 0.000000
0.000000 0.000000 0.000000
0.000000 0.000000 0.000000
0.000000 0.000000 0.000000
0.000000 0.000000 0.000000
0.000000 0.000000 0.000000
0.000000 0.000000 0.000000
0.000000 0.000000 0.000000
0.000000 0.000000 0.000000
0.000000 0.000000 0.000000
0.000000 0.000000 0.000000
0.000000 0.000000 0.000000
0.000000 0.000000 0.000000
0.000000 0.000000 0.000000
0.000000 0.000000 0.000000
0.000000 0.000000 0.000000
0.000000 0.000000 0.000000
0.000000 0.000000 0.000000
0.000000 0.000000 0.000000
0.000000 0.000000 0.000000
0.000000 0.000000 0.000000
0.000000 0.000000 0.000000
0.000000 0.000000 0.000000
0.000000 0.000000 0.000000
0.000000 0.000000 0.000000
0.000000 0.000000 0.000000
0.000000 0.000000 0.000000
0.000000 0.000000 0.000000
0.000000 0.000000 0.000000
