alpha_Ti
1.0
4.756510 0.000000 0.000000
0.000000 4.675430 0.000000
0.000000 0.000000 21.311761
Ti
12
direct
0.333333 0.750000 0.338057 Ti
0.333333 0.750000 0.202835 Ti
0.333333 0.750000 0.067612 Ti
0.833334 0.750000 0.270446 Ti
0.833334 0.750000 0.135223 Ti
0.833334 0.750000 -0.000000 Ti
0.166666 0.250000 0.270445 Ti
0.166666 0.250000 0.135223 Ti
0.166666 0.250000 -0.000000 Ti
0.666667 0.250000 0.338057 Ti
0.666667 0.250000 0.202835 Ti
0.666667 0.250000 0.067612 Ti
