Ti66 Sn1
1.0
6.309760 0.000000 0.000000
0.000000 9.464640 0.000000
0.000000 0.000000 18.918326
Ti Sn
66 1
Selective dynamics
direct
0.626320 0.041568 0.500026 F F F Ti
0.125042 0.041727 0.658531 F F F Ti
0.625031 0.041673 0.658589 F F F Ti
0.125015 0.041677 0.817143 F F F Ti
0.625004 0.041674 0.817155 F F F Ti
0.125211 0.377243 0.500369 F F F Ti
0.625458 0.375183 0.500122 F F F Ti
0.125078 0.375118 0.658671 F F F Ti
0.625020 0.375091 0.658670 F F F Ti
0.125012 0.375004 0.817171 F F F Ti
0.624998 0.374999 0.817176 F F F Ti
0.125055 0.708292 0.500049 F F F Ti
0.625003 0.708092 0.500168 F F F Ti
0.125051 0.708434 0.658628 F F F Ti
0.624971 0.708443 0.658662 F F F Ti
0.125007 0.708361 0.817168 F F F Ti
0.624993 0.708366 0.817176 F F F Ti
0.375348 0.208575 0.579375 F F F Ti
0.874790 0.208726 0.579526 F F F Ti
0.375019 0.208333 0.737877 F F F Ti
0.875017 0.208339 0.737897 F F F Ti
0.374985 0.208313 0.896418 F F F Ti
0.875024 0.208314 0.896420 F F F Ti
0.375349 0.541927 0.579459 F F F Ti
0.874790 0.541961 0.579484 F F F Ti
0.375033 0.541721 0.737922 F F F Ti
0.874996 0.541723 0.737928 F F F Ti
0.374996 0.541650 0.896430 F F F Ti
0.875011 0.541650 0.896430 F F F Ti
0.375081 0.875091 0.579249 F F F Ti
0.875050 0.874916 0.579347 F F F Ti
0.374986 0.875050 0.737865 F F F Ti
0.875027 0.875039 0.737881 F F F Ti
0.374984 0.875023 0.896412 F F F Ti
0.875024 0.875022 0.896414 F F F Ti
0.125164 0.624715 0.356677 F F F Ti
0.624983 0.624526 0.356596 F F F Ti
0.125032 0.624957 0.118875 F F F Ti
0.625006 0.624956 0.118861 F F F Ti
0.626775 0.124932 0.356730 F F F Ti
0.125061 0.124982 0.118937 F F F Ti
0.624991 0.124994 0.118917 F F F Ti
0.125014 0.374976 0.039633 F F F Ti
0.624993 0.374979 0.039627 F F F Ti
0.125020 0.875002 0.039613 F F F Ti
0.625002 0.875004 0.039605 F F F Ti
0.125054 0.374961 0.277525 F F F Ti
0.625117 0.374899 0.277409 F F F Ti
0.125088 0.874554 0.277375 F F F Ti
0.625171 0.874897 0.277214 F F F Ti
0.375015 0.874985 0.158512 F F F Ti
0.875047 0.874957 0.158486 F F F Ti
0.374992 0.374924 0.158564 F F F Ti
0.875046 0.374953 0.158534 F F F Ti
0.376227 0.376297 0.396445 F F F Ti
0.873829 0.376839 0.396416 F F F Ti
0.378082 0.872441 0.396122 F F F Ti
0.871561 0.871607 0.396045 F F F Ti
0.375078 0.624862 0.237744 F F F Ti
0.874993 0.624833 0.237728 F F F Ti
0.374998 0.624991 -0.000024 F F F Ti
0.875005 0.624991 -0.000025 F F F Ti
0.375042 0.124925 0.237942 F F F Ti
0.875157 0.124935 0.237794 F F F Ti
0.374998 0.125000 -0.000011 F F F Ti
0.875015 0.125000 -0.000012 F F F Ti
0.119663 0.099303 0.426278 T T T Sn

0.000000 0.000000 0.000000
0.000000 0.000000 0.000000
0.000000 0.000000 0.000000
0.000000 0.000000 0.000000
0.000000 0.000000 0.000000
0.000000 0.000000 0.000000
0.000000 0.000000 0.000000
0.000000 0.000000 0.000000
0.000000 0.000000 0.000000
0.000000 0.000000 0.000000
0.000000 0.000000 0.000000
0.000000 0.000000 0.000000
0.000000 0.000000 0.000000
0.000000 0.000000 0.000000
0.000000 0.000000 0.000000
0.000000 0.000000 0.000000
0.000000 0.000000 0.000000
0.000000 0.000000 0.000000
0.000000 0.000000 0.000000
0.000000 0.000000 0.000000
0.000000 0.000000 0.000000
0.000000 0.000000 0.000000
0.000000 0.000000 0.000000
0.000000 0.000000 0.000000
0.000000 0.000000 0.000000
0.000000 0.000000 0.000000
0.000000 0.000000 0.000000
0.000000 0.000000 0.000000
0.000000 0.000000 0.000000
0.000000 0.000000 0.000000
0.000000 0.000000 0.000000
0.000000 0.000000 0.000000
0.000000 0.000000 0.000000
0.000000 0.000000 0.000000
0.000000 0.000000 0.000000
0.000000 0.000000 0.000000
0.000000 0.000000 0.000000
0.000000 0.000000 0.000000
0.000000 0.000000 0.000000
0.000000 0.000000 0.000000
0.000000 0.000000 0.000000
0.000000 0.000000 0.000000
0.000000 0.000000 0.000000
0.000000 0.000000 0.000000
0.000000 0.000000 0.000000
0.000000 0.000000 0.000000
0.000000 0.000000 0.000000
0.000000 0.000000 0.000000
0.000000 0.000000 0.000000
0.000000 0.000000 0.000000
0.000000 0.000000 0.000000
0.000000 0.000000 0.000000
0.000000 0.000000 0.000000
0.000000 0.000000 0.000000
0.000000 0.000000 0.000000
0.000000 0.000000 0.000000
0.000000 0.000000 0.000000
0.000000 0.000000 0.000000
0.000000 0.000000 0.000000
0.000000 0.000000 0.000000
0.000000 0.000000 0.000000
0.000000 0.000000 0.000000
0.000000 0.000000 0.000000
0.000000 0.000000 0.000000
0.000000 0.000000 0.000000
0.000000 0.000000 0.000000
0.000000 0.000000 0.000000
