Ti112 Cr1
1.0
11.491180 0.000000 0.000000
0.000000 9.072750 0.000000
0.000000 0.000000 18.146009
Ti Cr
112 1
Selective dynamics
direct
0.020833 0.875000 0.514331 T T T Ti
0.520833 0.875000 0.514331 T T T Ti
0.020833 0.375000 0.514331 T T T Ti
0.520833 0.375000 0.514331 T T T Ti
0.270833 0.875000 0.514331 T T T Ti
0.770833 0.875000 0.514331 T T T Ti
0.270833 0.375000 0.514331 T T T Ti
0.770833 0.375000 0.514331 T T T Ti
0.145834 0.625000 0.561090 T T T Ti
0.645834 0.625000 0.561090 T T T Ti
0.145834 0.125000 0.561090 T T T Ti
0.645834 0.125000 0.561090 T T T Ti
0.395833 0.625000 0.561090 T T T Ti
0.895833 0.625000 0.561090 T T T Ti
0.395833 0.125000 0.561090 T T T Ti
0.895833 0.125000 0.561090 T T T Ti
0.145834 0.875000 0.374058 T T T Ti
0.645834 0.875000 0.374058 T T T Ti
0.145834 0.375000 0.374058 T T T Ti
0.645834 0.375000 0.374058 T T T Ti
0.395833 0.875000 0.374058 T T T Ti
0.895833 0.875000 0.374058 T T T Ti
0.395833 0.375000 0.374058 T T T Ti
0.895833 0.375000 0.374058 T T T Ti
0.020833 0.625000 0.420817 T T T Ti
0.520833 0.625000 0.420817 T T T Ti
0.020833 0.125000 0.420817 T T T Ti
0.520833 0.125000 0.420817 T T T Ti
0.270833 0.625000 0.420817 T T T Ti
0.770833 0.625000 0.420817 T T T Ti
0.270833 0.125000 0.420817 T T T Ti
0.770833 0.125000 0.420817 T T T Ti
0.020833 0.875000 0.233787 T T T Ti
0.520833 0.875000 0.233787 T T T Ti
0.020833 0.375000 0.233787 T T T Ti
0.520833 0.375000 0.233787 T T T Ti
0.270833 0.875000 0.233787 T T T Ti
0.770833 0.875000 0.233787 T T T Ti
0.270833 0.375000 0.233787 T T T Ti
0.770833 0.375000 0.233787 T T T Ti
0.145834 0.625000 0.280544 T T T Ti
0.645834 0.625000 0.280544 T T T Ti
0.145834 0.125000 0.280544 T T T Ti
0.645834 0.125000 0.280544 T T T Ti
0.395833 0.625000 0.280544 T T T Ti
0.895833 0.625000 0.280544 T T T Ti
0.395833 0.125000 0.280544 T T T Ti
0.895833 0.125000 0.280544 T T T Ti
0.145834 0.875000 0.093514 F F F Ti
0.645834 0.875000 0.093514 F F F Ti
0.145834 0.375000 0.093514 F F F Ti
0.645834 0.375000 0.093514 F F F Ti
0.395833 0.875000 0.093514 F F F Ti
0.895833 0.875000 0.093514 F F F Ti
0.395833 0.375000 0.093514 F F F Ti
0.895833 0.375000 0.093514 F F F Ti
0.020833 0.625000 0.140273 F F F Ti
0.520833 0.625000 0.140273 F F F Ti
0.020833 0.125000 0.140273 F F F Ti
0.520833 0.125000 0.140273 F F F Ti
0.270833 0.625000 0.140273 F F F Ti
0.770833 0.625000 0.140273 F F F Ti
0.270833 0.125000 0.140273 F F F Ti
0.770833 0.125000 0.140273 F F F Ti
0.229166 0.625000 0.707395 T T T Ti
0.729166 0.625000 0.707395 T T T Ti
0.229166 0.125000 0.707395 T T T Ti
0.729166 0.125000 0.707395 T T T Ti
0.479167 0.625000 0.707395 T T T Ti
0.979167 0.625000 0.707395 T T T Ti
0.479167 0.125000 0.707395 T T T Ti
0.979167 0.125000 0.707395 T T T Ti
0.062500 0.625000 0.853698 F F F Ti
0.562500 0.625000 0.853698 F F F Ti
0.062500 0.125000 0.853698 F F F Ti
0.562500 0.125000 0.853698 F F F Ti
0.312500 0.625000 0.853698 F F F Ti
0.812500 0.625000 0.853698 F F F Ti
0.312500 0.125000 0.853698 F F F Ti
0.812500 0.125000 0.853698 F F F Ti
0.062500 0.875000 0.634242 T T T Ti
0.562500 0.875000 0.634242 T T T Ti
0.062500 0.375000 0.634242 T T T Ti
0.562500 0.375000 0.634242 T T T Ti
0.312500 0.875000 0.634242 T T T Ti
0.812500 0.875000 0.634242 T T T Ti
0.312500 0.375000 0.634242 T T T Ti
0.812500 0.375000 0.634242 T T T Ti
0.145834 0.875000 0.780546 F F F Ti
0.645834 0.875000 0.780546 F F F Ti
0.145834 0.375000 0.780546 F F F Ti
0.645834 0.375000 0.780546 F F F Ti
0.395833 0.875000 0.780546 F F F Ti
0.895833 0.875000 0.780546 F F F Ti
0.395833 0.375000 0.780546 F F F Ti
0.895833 0.375000 0.780546 F F F Ti
0.229166 0.875000 0.926851 F F F Ti
0.729166 0.875000 0.926851 F F F Ti
0.229166 0.375000 0.926851 F F F Ti
0.729166 0.375000 0.926851 F F F Ti
0.479167 0.875000 0.926851 F F F Ti
0.979167 0.875000 0.926851 F F F Ti
0.479167 0.375000 0.926851 F F F Ti
0.979167 0.375000 0.926851 F F F Ti
0.395833 0.125000 0.000000 F F F Ti
0.895833 0.125000 0.000000 F F F Ti
0.145834 0.125000 0.000000 F F F Ti
0.645834 0.125000 0.000000 F F F Ti
0.395833 0.625000 0.000000 F F F Ti
0.895833 0.625000 0.000000 F F F Ti
0.145834 0.625000 0.000000 F F F Ti
0.645834 0.625000 0.000000 F F F Ti
0.409722 0.375000 0.569888 T T T Cr
