Ti97
1.0
9.513020 0.000000 0.000000
0.000000 9.350860 0.000000
0.000000 0.000000 18.547230
Ti
97
Selective dynamics
direct
0.141726 0.363891 0.405927 T T T Ti
0.647303 0.354421 0.406381 T T T Ti
0.164260 0.857505 0.398371 T T T Ti
0.677778 0.910345 0.400229 T T T Ti
0.158779 0.378528 0.236607 T T T Ti
0.665449 0.368233 0.229905 T T T Ti
0.159882 0.874398 0.234160 T T T Ti
0.655303 0.862223 0.243937 T T T Ti
0.166669 0.374999 0.077656 F F F Ti
0.666670 0.375010 0.077661 F F F Ti
0.166679 0.874992 0.077673 F F F Ti
0.666680 0.875006 0.077678 F F F Ti
0.404601 0.369714 0.312583 T T T Ti
0.898159 0.375700 0.319710 T T T Ti
0.398471 0.906660 0.315307 T T T Ti
0.915750 0.880702 0.318045 T T T Ti
0.416661 0.374977 0.155324 F F F Ti
0.916653 0.374997 0.155330 F F F Ti
0.416664 0.875006 0.155355 F F F Ti
0.916711 0.874985 0.155332 F F F Ti
0.416668 0.375000 -0.000003 F F F Ti
0.916663 0.375002 -0.000006 F F F Ti
0.416670 0.874994 0.000009 F F F Ti
0.916671 0.874994 0.000000 F F F Ti
0.101841 0.124300 0.319709 T T T Ti
0.595399 0.130286 0.312582 T T T Ti
0.084250 0.619298 0.318044 T T T Ti
0.601529 0.593340 0.315306 T T T Ti
0.083347 0.125005 0.155330 F F F Ti
0.583339 0.125026 0.155324 F F F Ti
0.083289 0.625017 0.155332 F F F Ti
0.583336 0.624996 0.155355 F F F Ti
0.083337 0.124999 -0.000006 F F F Ti
0.583332 0.125000 -0.000003 F F F Ti
0.083328 0.625007 0.000000 F F F Ti
0.583330 0.625006 0.000009 F F F Ti
0.352696 0.145579 0.406381 T T T Ti
0.858273 0.136109 0.405927 T T T Ti
0.322221 0.589655 0.400229 T T T Ti
0.835739 0.642495 0.398371 T T T Ti
0.334550 0.131767 0.229905 T T T Ti
0.841220 0.121473 0.236607 T T T Ti
0.344696 0.637777 0.243937 T T T Ti
0.840117 0.625603 0.234160 T T T Ti
0.333329 0.124991 0.077662 F F F Ti
0.833331 0.125003 0.077656 F F F Ti
0.333319 0.624995 0.077678 F F F Ti
0.833320 0.625009 0.077673 F F F Ti
0.375000 0.375012 0.823777 F F F Ti
0.875001 0.374993 0.823772 F F F Ti
0.374999 0.874994 0.823769 F F F Ti
0.875002 0.874984 0.823768 F F F Ti
0.124999 0.125006 0.823772 F F F Ti
0.625000 0.124986 0.823777 F F F Ti
0.124999 0.625016 0.823768 F F F Ti
0.625002 0.625004 0.823769 F F F Ti
0.124997 0.375005 0.910091 F F F Ti
0.625001 0.375004 0.910095 F F F Ti
0.124999 0.874995 0.910093 F F F Ti
0.624999 0.874992 0.910094 F F F Ti
0.374999 0.124996 0.910095 F F F Ti
0.875003 0.124994 0.910091 F F F Ti
0.375002 0.625007 0.910094 F F F Ti
0.875002 0.625004 0.910093 F F F Ti
0.392793 0.394490 0.654676 T T T Ti
0.900172 0.375911 0.649493 T T T Ti
0.392133 0.884796 0.651017 T T T Ti
0.883679 0.883942 0.663728 T T T Ti
0.099828 0.124088 0.649493 T T T Ti
0.607207 0.105510 0.654676 T T T Ti
0.116321 0.616058 0.663728 T T T Ti
0.607867 0.615203 0.651017 T T T Ti
0.150749 0.379562 0.566855 T T T Ti
0.649847 0.349235 0.581277 T T T Ti
0.130533 0.859281 0.581876 T T T Ti
0.651951 0.857963 0.567139 T T T Ti
0.350153 0.150765 0.581277 T T T Ti
0.849251 0.120438 0.566855 T T T Ti
0.348049 0.642037 0.567139 T T T Ti
0.869467 0.640719 0.581876 T T T Ti
0.407729 0.384794 0.494672 T T T Ti
0.895400 0.378972 0.489578 T T T Ti
0.362637 0.918192 0.499708 T T T Ti
0.912642 0.876658 0.483786 T T T Ti
0.104600 0.121028 0.489578 T T T Ti
0.592271 0.115206 0.494672 T T T Ti
0.087358 0.623342 0.483786 T T T Ti
0.637363 0.581808 0.499708 T T T Ti
0.124975 0.874997 0.737455 F F F Ti
0.625005 0.874933 0.737449 F F F Ti
0.374994 0.625064 0.737448 F F F Ti
0.875024 0.625000 0.737455 F F F Ti
0.124964 0.375006 0.737451 F F F Ti
0.625019 0.374960 0.737472 F F F Ti
0.374979 0.125037 0.737472 F F F Ti
0.875036 0.124992 0.737451 F F F Ti
0.500000 0.750000 0.427983 T T T Ti

0.000000 0.000000 0.000000
0.000000 0.000000 0.000000
0.000000 0.000000 0.000000
0.000000 0.000000 0.000000
0.000000 0.000000 0.000000
0.000000 0.000000 0.000000
0.000000 0.000000 0.000000
0.000000 0.000000 0.000000
0.000000 0.000000 0.000000
0.000000 0.000000 0.000000
0.000000 0.000000 0.000000
0.000000 0.000000 0.000000
0.000000 0.000000 0.000000
0.000000 0.000000 0.000000
0.000000 0.000000 0.000000
0.000000 0.000000 0.000000
0.000000 0.000000 0.000000
0.000000 0.000000 0.000000
0.000000 0.000000 0.000000
0.000000 0.000000 0.000000
0.000000 0.000000 0.000000
0.000000 0.000000 0.000000
0.000000 0.000000 0.000000
0.000000 0.000000 0.000000
0.000000 0.000000 0.000000
0.000000 0.000000 0.000000
0.000000 0.000000 0.000000
0.000000 0.000000 0.000000
0.000000 0.000000 0.000000
0.000000 0.000000 0.000000
0.000000 0.000000 0.000000
0.000000 0.000000 0.000000
0.000000 0.000000 0.000000
0.000000 0.000000 0.000000
0.000000 0.000000 0.000000
0.000000 0.000000 0.000000
0.000000 0.000000 0.000000
0.000000 0.000000 0.000000
0.000000 0.000000 0.000000
0.000000 0.000000 0.000000
0.000000 0.000000 0.000000
0.000000 0.000000 0.000000
0.000000 0.000000 0.000000
0.000000 0.000000 0.000000
0.000000 0.000000 0.000000
0.000000 0.000000 0.000000
0.000000 0.000000 0.000000
0.000000 0.000000 0.000000
0.000000 0.000000 0.000000
0.000000 0.000000 0.000000
0.000000 0.000000 0.000000
0.000000 0.000000 0.000000
0.000000 0.000000 0.000000
0.000000 0.000000 0.000000
0.000000 0.000000 0.000000
0.000000 0.000000 0.000000
0.000000 0.000000 0.000000
0.000000 0.000000 0.000000
0.000000 0.000000 0.000000
0.000000 0.000000 0.000000
0.000000 0.000000 0.000000
0.000000 0.000000 0.000000
0.000000 0.000000 0.000000
0.000000 0.000000 0.000000
0.000000 0.000000 0.000000
0.000000 0.000000 0.000000
0.000000 0.000000 0.000000
0.000000 0.000000 0.000000
0.000000 0.000000 0.000000
0.000000 0.000000 0.000000
0.000000 0.000000 0.000000
0.000000 0.000000 0.000000
0.000000 0.000000 0.000000
0.000000 0.000000 0.000000
0.000000 0.000000 0.000000
0.000000 0.000000 0.000000
0.000000 0.000000 0.000000
0.000000 0.000000 0.000000
0.000000 0.000000 0.000000
0.000000 0.000000 0.000000
0.000000 0.000000 0.000000
0.000000 0.000000 0.000000
0.000000 0.000000 0.000000
0.000000 0.000000 0.000000
0.000000 0.000000 0.000000
0.000000 0.000000 0.000000
0.000000 0.000000 0.000000
0.000000 0.000000 0.000000
0.000000 0.000000 0.000000
0.000000 0.000000 0.000000
0.000000 0.000000 0.000000
0.000000 0.000000 0.000000
0.000000 0.000000 0.000000
0.000000 0.000000 0.000000
0.000000 0.000000 0.000000
0.000000 0.000000 0.000000
0.000000 0.000000 0.000000
