Ti82 Mo1
1.0
6.391540 0.000000 0.000000
0.000000 9.587310 0.000000
0.000000 0.000000 23.271695
Ti Mo
82 1
Selective dynamics
direct
0.630954 0.080886 0.579926 F F F Ti
0.122458 0.081928 0.710247 F F F Ti
0.625726 0.082598 0.709724 F F F Ti
0.124863 0.083264 0.838525 F F F Ti
0.624841 0.083285 0.838488 F F F Ti
0.121083 0.419737 0.580008 F F F Ti
0.626482 0.417678 0.580249 F F F Ti
0.123934 0.417107 0.709660 F F F Ti
0.624483 0.416619 0.709492 F F F Ti
0.124945 0.416638 0.838448 F F F Ti
0.624840 0.416642 0.838439 F F F Ti
0.124850 0.750232 0.580540 F F F Ti
0.625088 0.749715 0.580485 F F F Ti
0.124845 0.749732 0.709589 F F F Ti
0.625000 0.749689 0.709600 F F F Ti
0.124970 0.749872 0.838484 F F F Ti
0.624868 0.749858 0.838501 F F F Ti
0.872431 0.250295 0.645147 F F F Ti
0.374721 0.249852 0.773998 F F F Ti
0.874478 0.250074 0.774068 F F F Ti
0.374960 0.249992 0.902889 F F F Ti
0.874914 0.250004 0.902902 F F F Ti
0.374808 0.583509 0.645010 F F F Ti
0.874436 0.583728 0.645154 F F F Ti
0.374919 0.583254 0.773997 F F F Ti
0.874737 0.583281 0.774048 F F F Ti
0.374964 0.583280 0.902898 F F F Ti
0.874961 0.583275 0.902905 F F F Ti
0.375664 0.915165 0.645181 F F F Ti
0.875212 0.916181 0.645143 F F F Ti
0.375037 0.916380 0.774077 F F F Ti
0.874570 0.916208 0.774152 F F F Ti
0.374965 0.916614 0.902910 F F F Ti
0.874925 0.916606 0.902918 F F F Ti
0.125091 0.166675 0.386672 F F F Ti
0.625101 0.166647 0.386646 F F F Ti
0.125034 0.666698 0.386688 F F F Ti
0.624946 0.666673 0.386653 F F F Ti
0.124989 0.166661 0.000021 F F F Ti
0.624976 0.166661 0.000023 F F F Ti
0.124993 0.666648 0.000020 F F F Ti
0.624974 0.666647 0.000022 F F F Ti
0.124997 0.833330 0.096689 F F F Ti
0.624990 0.833330 0.096689 F F F Ti
0.125062 0.833457 0.483392 F F F Ti
0.625090 0.833199 0.483295 F F F Ti
0.124997 0.333331 0.096685 F F F Ti
0.624989 0.333332 0.096685 F F F Ti
0.124841 0.333557 0.483228 F F F Ti
0.625409 0.333415 0.483200 F F F Ti
0.375049 0.583549 0.483281 F F F Ti
0.874803 0.583659 0.483212 F F F Ti
0.375000 0.583326 0.096686 F F F Ti
0.875005 0.583328 0.096686 F F F Ti
0.374995 0.083334 0.096687 F F F Ti
0.875000 0.083335 0.096687 F F F Ti
0.375430 0.083261 0.483278 F F F Ti
0.875741 0.083370 0.483210 F F F Ti
0.375024 0.416689 0.386660 F F F Ti
0.874993 0.416714 0.386631 F F F Ti
0.374994 0.916652 0.386684 F F F Ti
0.875059 0.916641 0.386675 F F F Ti
0.374982 0.416659 0.000019 F F F Ti
0.874981 0.416662 0.000023 F F F Ti
0.374983 0.916654 0.000032 F F F Ti
0.874979 0.916653 0.000035 F F F Ti
0.374994 0.083329 0.290021 F F F Ti
0.875013 0.083327 0.290016 F F F Ti
0.124995 0.166663 0.193356 F F F Ti
0.624993 0.166661 0.193353 F F F Ti
0.124996 0.333335 0.290017 F F F Ti
0.624991 0.333335 0.290006 F F F Ti
0.374987 0.416667 0.193352 F F F Ti
0.874993 0.416668 0.193351 F F F Ti
0.374996 0.583344 0.290013 F F F Ti
0.875013 0.583350 0.290008 F F F Ti
0.124995 0.666665 0.193356 F F F Ti
0.624989 0.666664 0.193354 F F F Ti
0.124993 0.833337 0.290023 F F F Ti
0.624995 0.833337 0.290015 F F F Ti
0.374987 0.916663 0.193357 F F F Ti
0.874994 0.916661 0.193356 F F F Ti
0.331117 0.215532 0.627689 T T T Mo

0.000000 0.000000 0.000000
0.000000 0.000000 0.000000
0.000000 0.000000 0.000000
0.000000 0.000000 0.000000
0.000000 0.000000 0.000000
0.000000 0.000000 0.000000
0.000000 0.000000 0.000000
0.000000 0.000000 0.000000
0.000000 0.000000 0.000000
0.000000 0.000000 0.000000
0.000000 0.000000 0.000000
0.000000 0.000000 0.000000
0.000000 0.000000 0.000000
0.000000 0.000000 0.000000
0.000000 0.000000 0.000000
0.000000 0.000000 0.000000
0.000000 0.000000 0.000000
0.000000 0.000000 0.000000
0.000000 0.000000 0.000000
0.000000 0.000000 0.000000
0.000000 0.000000 0.000000
0.000000 0.000000 0.000000
0.000000 0.000000 0.000000
0.000000 0.000000 0.000000
0.000000 0.000000 0.000000
0.000000 0.000000 0.000000
0.000000 0.000000 0.000000
0.000000 0.000000 0.000000
0.000000 0.000000 0.000000
0.000000 0.000000 0.000000
0.000000 0.000000 0.000000
0.000000 0.000000 0.000000
0.000000 0.000000 0.000000
0.000000 0.000000 0.000000
0.000000 0.000000 0.000000
0.000000 0.000000 0.000000
0.000000 0.000000 0.000000
0.000000 0.000000 0.000000
0.000000 0.000000 0.000000
0.000000 0.000000 0.000000
0.000000 0.000000 0.000000
0.000000 0.000000 0.000000
0.000000 0.000000 0.000000
0.000000 0.000000 0.000000
0.000000 0.000000 0.000000
0.000000 0.000000 0.000000
0.000000 0.000000 0.000000
0.000000 0.000000 0.000000
0.000000 0.000000 0.000000
0.000000 0.000000 0.000000
0.000000 0.000000 0.000000
0.000000 0.000000 0.000000
0.000000 0.000000 0.000000
0.000000 0.000000 0.000000
0.000000 0.000000 0.000000
0.000000 0.000000 0.000000
0.000000 0.000000 0.000000
0.000000 0.000000 0.000000
0.000000 0.000000 0.000000
0.000000 0.000000 0.000000
0.000000 0.000000 0.000000
0.000000 0.000000 0.000000
0.000000 0.000000 0.000000
0.000000 0.000000 0.000000
0.000000 0.000000 0.000000
0.000000 0.000000 0.000000
0.000000 0.000000 0.000000
0.000000 0.000000 0.000000
0.000000 0.000000 0.000000
0.000000 0.000000 0.000000
0.000000 0.000000 0.000000
0.000000 0.000000 0.000000
0.000000 0.000000 0.000000
0.000000 0.000000 0.000000
0.000000 0.000000 0.000000
0.000000 0.000000 0.000000
0.000000 0.000000 0.000000
0.000000 0.000000 0.000000
0.000000 0.000000 0.000000
0.000000 0.000000 0.000000
0.000000 0.000000 0.000000
0.000000 0.000000 0.000000
0.000000 0.000000 0.000000
