Ti82 Al1
1.0
6.391540 0.000000 0.000000
0.000000 9.587310 0.000000
0.000000 0.000000 23.271695
Ti Al
82 1
Selective dynamics
direct
0.632287 0.083335 0.581140 F F F Ti
0.125510 0.083345 0.709463 F F F Ti
0.625811 0.083349 0.709680 F F F Ti
0.125048 0.083343 0.838418 F F F Ti
0.625111 0.083344 0.838458 F F F Ti
0.125153 0.417803 0.580610 F F F Ti
0.625861 0.417085 0.580596 F F F Ti
0.125239 0.416805 0.709579 F F F Ti
0.625566 0.416950 0.709656 F F F Ti
0.125055 0.416668 0.838447 F F F Ti
0.625083 0.416685 0.838466 F F F Ti
0.124949 0.748774 0.580610 F F F Ti
0.625842 0.749638 0.580592 F F F Ti
0.125164 0.749882 0.709595 F F F Ti
0.625567 0.749785 0.709672 F F F Ti
0.125034 0.750014 0.838452 F F F Ti
0.625083 0.750004 0.838473 F F F Ti
0.377221 0.251029 0.645539 F F F Ti
0.875862 0.250532 0.645191 F F F Ti
0.375156 0.250037 0.774031 F F F Ti
0.875241 0.250028 0.774005 F F F Ti
0.375014 0.249996 0.902878 F F F Ti
0.875046 0.249996 0.902879 F F F Ti
0.375466 0.583491 0.645132 F F F Ti
0.875045 0.583349 0.645171 F F F Ti
0.375085 0.583360 0.774035 F F F Ti
0.875194 0.583330 0.774054 F F F Ti
0.375004 0.583335 0.902887 F F F Ti
0.875038 0.583332 0.902892 F F F Ti
0.377201 0.915642 0.645550 F F F Ti
0.875861 0.916167 0.645202 F F F Ti
0.375144 0.916660 0.774032 F F F Ti
0.875234 0.916669 0.774003 F F F Ti
0.375004 0.916676 0.902874 F F F Ti
0.875037 0.916676 0.902874 F F F Ti
0.124560 0.166779 0.386598 F F F Ti
0.623928 0.166891 0.386500 F F F Ti
0.124979 0.666361 0.386469 F F F Ti
0.624984 0.666633 0.386598 F F F Ti
0.125000 0.166661 -0.000007 F F F Ti
0.624994 0.166663 -0.000003 F F F Ti
0.125000 0.666678 -0.000001 F F F Ti
0.624996 0.666675 0.000002 F F F Ti
0.124997 0.833340 0.096660 F F F Ti
0.624991 0.833341 0.096659 F F F Ti
0.123062 0.830607 0.482825 F F F Ti
0.625196 0.832767 0.483353 F F F Ti
0.124996 0.333331 0.096659 F F F Ti
0.624989 0.333333 0.096658 F F F Ti
0.123109 0.336092 0.482814 F F F Ti
0.624994 0.333952 0.483355 F F F Ti
0.375521 0.583588 0.483333 F F F Ti
0.874135 0.583452 0.483304 F F F Ti
0.375002 0.583334 0.096658 F F F Ti
0.875005 0.583334 0.096657 F F F Ti
0.374996 0.083337 0.096663 F F F Ti
0.874995 0.083339 0.096660 F F F Ti
0.867547 0.083328 0.482145 F F F Ti
0.375060 0.416816 0.386582 F F F Ti
0.874377 0.416863 0.386481 F F F Ti
0.374637 0.916532 0.386658 F F F Ti
0.874501 0.916384 0.386409 F F F Ti
0.374985 0.416663 -0.000003 F F F Ti
0.875000 0.416661 -0.000001 F F F Ti
0.374986 0.916671 -0.000001 F F F Ti
0.875000 0.916670 -0.000000 F F F Ti
0.374783 0.083312 0.289975 F F F Ti
0.874859 0.083359 0.289940 F F F Ti
0.124978 0.166664 0.193319 F F F Ti
0.624937 0.166658 0.193314 F F F Ti
0.124940 0.333360 0.289953 F F F Ti
0.624826 0.333355 0.289926 F F F Ti
0.374952 0.416669 0.193306 F F F Ti
0.874961 0.416665 0.193303 F F F Ti
0.375055 0.583348 0.289946 F F F Ti
0.874895 0.583352 0.289911 F F F Ti
0.124991 0.666660 0.193307 F F F Ti
0.624950 0.666665 0.193302 F F F Ti
0.124991 0.833315 0.289948 F F F Ti
0.624798 0.833314 0.289946 F F F Ti
0.374946 0.916666 0.193316 F F F Ti
0.874959 0.916657 0.193312 F F F Ti
0.201500 0.083552 0.550074 T T T Al

0.000000 0.000000 0.000000
0.000000 0.000000 0.000000
0.000000 0.000000 0.000000
0.000000 0.000000 0.000000
0.000000 0.000000 0.000000
0.000000 0.000000 0.000000
0.000000 0.000000 0.000000
0.000000 0.000000 0.000000
0.000000 0.000000 0.000000
0.000000 0.000000 0.000000
0.000000 0.000000 0.000000
0.000000 0.000000 0.000000
0.000000 0.000000 0.000000
0.000000 0.000000 0.000000
0.000000 0.000000 0.000000
0.000000 0.000000 0.000000
0.000000 0.000000 0.000000
0.000000 0.000000 0.000000
0.000000 0.000000 0.000000
0.000000 0.000000 0.000000
0.000000 0.000000 0.000000
0.000000 0.000000 0.000000
0.000000 0.000000 0.000000
0.000000 0.000000 0.000000
0.000000 0.000000 0.000000
0.000000 0.000000 0.000000
0.000000 0.000000 0.000000
0.000000 0.000000 0.000000
0.000000 0.000000 0.000000
0.000000 0.000000 0.000000
0.000000 0.000000 0.000000
0.000000 0.000000 0.000000
0.000000 0.000000 0.000000
0.000000 0.000000 0.000000
0.000000 0.000000 0.000000
0.000000 0.000000 0.000000
0.000000 0.000000 0.000000
0.000000 0.000000 0.000000
0.000000 0.000000 0.000000
0.000000 0.000000 0.000000
0.000000 0.000000 0.000000
0.000000 0.000000 0.000000
0.000000 0.000000 0.000000
0.000000 0.000000 0.000000
0.000000 0.000000 0.000000
0.000000 0.000000 0.000000
0.000000 0.000000 0.000000
0.000000 0.000000 0.000000
0.000000 0.000000 0.000000
0.000000 0.000000 0.000000
0.000000 0.000000 0.000000
0.000000 0.000000 0.000000
0.000000 0.000000 0.000000
0.000000 0.000000 0.000000
0.000000 0.000000 0.000000
0.000000 0.000000 0.000000
0.000000 0.000000 0.000000
0.000000 0.000000 0.000000
0.000000 0.000000 0.000000
0.000000 0.000000 0.000000
0.000000 0.000000 0.000000
0.000000 0.000000 0.000000
0.000000 0.000000 0.000000
0.000000 0.000000 0.000000
0.000000 0.000000 0.000000
0.000000 0.000000 0.000000
0.000000 0.000000 0.000000
0.000000 0.000000 0.000000
0.000000 0.000000 0.000000
0.000000 0.000000 0.000000
0.000000 0.000000 0.000000
0.000000 0.000000 0.000000
0.000000 0.000000 0.000000
0.000000 0.000000 0.000000
0.000000 0.000000 0.000000
0.000000 0.000000 0.000000
0.000000 0.000000 0.000000
0.000000 0.000000 0.000000
0.000000 0.000000 0.000000
0.000000 0.000000 0.000000
0.000000 0.000000 0.000000
0.000000 0.000000 0.000000
0.000000 0.000000 0.000000
