total_Ti
1.0
8.805261 0.000000 0.000000
-4.402631 7.625580 0.000000
0.000000 0.000000 22.283422
Ti
90
direct
0.055556 0.055556 0.591765 Ti
0.055556 0.555555 0.591765 Ti
0.555556 0.055556 0.591765 Ti
0.555556 0.555555 0.591765 Ti
0.222222 0.388889 0.882216 Ti
0.222222 0.888889 0.882216 Ti
0.722222 0.388889 0.882216 Ti
0.722222 0.888889 0.882216 Ti
0.388889 0.222222 0.923709 Ti
0.388889 0.722222 0.923709 Ti
0.888889 0.222222 0.923709 Ti
0.888889 0.722222 0.923709 Ti
0.222222 0.388889 0.633258 Ti
0.222222 0.888889 0.633258 Ti
0.722222 0.388889 0.633258 Ti
0.722222 0.888889 0.633258 Ti
0.388889 0.222222 0.674751 Ti
0.388889 0.722222 0.674751 Ti
0.888889 0.222222 0.674751 Ti
0.888889 0.722222 0.674751 Ti
0.055556 0.055556 0.716244 Ti
0.055556 0.555555 0.716244 Ti
0.555556 0.055556 0.716244 Ti
0.555556 0.555555 0.716244 Ti
0.222222 0.388889 0.757737 Ti
0.222222 0.888889 0.757737 Ti
0.722222 0.388889 0.757737 Ti
0.722222 0.888889 0.757737 Ti
0.388889 0.222222 0.799230 Ti
0.388889 0.722222 0.799230 Ti
0.888889 0.222222 0.799230 Ti
0.888889 0.722222 0.799230 Ti
0.055556 0.055556 0.840723 Ti
0.055556 0.555555 0.840723 Ti
0.555556 0.055556 0.840723 Ti
0.555556 0.555555 0.840723 Ti
0.166666 0.944444 -0.000000 Ti
0.166666 0.944444 0.412380 Ti
0.166666 0.611111 -0.000000 Ti
0.277778 0.833333 0.103095 Ti
0.166666 0.611111 0.412380 Ti
0.500000 0.944444 -0.000000 Ti
0.166666 0.277778 -0.000000 Ti
0.277778 0.833333 0.515475 Ti
0.277778 0.500000 0.103095 Ti
0.500000 0.944444 0.412380 Ti
0.166666 0.277778 0.412380 Ti
0.500000 0.611111 -0.000000 Ti
0.277778 0.500000 0.515475 Ti
0.611111 0.833333 0.103095 Ti
0.277778 0.166667 0.103095 Ti
0.500000 0.611111 0.412380 Ti
0.833333 0.944444 -0.000000 Ti
0.500000 0.277778 -0.000000 Ti
0.611111 0.833333 0.515475 Ti
0.277778 0.166667 0.515475 Ti
0.611111 0.500000 0.103095 Ti
0.833333 0.944444 0.412380 Ti
0.500000 0.277778 0.412380 Ti
0.833333 0.611111 -0.000000 Ti
0.611111 0.500000 0.515475 Ti
0.944444 0.833333 0.103095 Ti
0.611111 0.166667 0.103095 Ti
0.833333 0.611111 0.412380 Ti
0.833333 0.277778 -0.000000 Ti
0.944444 0.833333 0.515475 Ti
0.611111 0.166667 0.515475 Ti
0.944444 0.500000 0.103095 Ti
0.833333 0.277778 0.412380 Ti
0.944444 0.500000 0.515475 Ti
0.944444 0.166667 0.103095 Ti
0.944444 0.166667 0.515475 Ti
0.166666 0.944444 0.206190 Ti
0.166666 0.611111 0.206190 Ti
0.277778 0.833333 0.309285 Ti
0.500000 0.944444 0.206190 Ti
0.166666 0.277778 0.206190 Ti
0.277778 0.500000 0.309285 Ti
0.500000 0.611111 0.206190 Ti
0.611111 0.833333 0.309285 Ti
0.277778 0.166667 0.309285 Ti
0.833333 0.944444 0.206190 Ti
0.500000 0.277778 0.206190 Ti
0.611111 0.500000 0.309285 Ti
0.833333 0.611111 0.206190 Ti
0.944444 0.833333 0.309285 Ti
0.611111 0.166667 0.309285 Ti
0.833333 0.277778 0.206190 Ti
0.944444 0.500000 0.309285 Ti
0.944444 0.166667 0.309285 Ti
