beta_Ti
1.0
8.805261 0.000000 0.000000
-4.402631 7.625580 0.000000
0.000000 0.000000 27.883422
Ti
36
direct
0.222214 0.944436 0.573335 Ti
0.222214 0.444436 0.573335 Ti
0.722214 0.944436 0.573335 Ti
0.722214 0.444436 0.573335 Ti
0.388880 0.277769 0.805453 Ti
0.388880 0.777769 0.805453 Ti
0.888880 0.277769 0.805453 Ti
0.888880 0.777769 0.805453 Ti
0.555547 0.111102 0.838613 Ti
0.555547 0.611102 0.838613 Ti
0.055556 0.111102 0.838613 Ti
0.055556 0.611102 0.838613 Ti
0.388880 0.277769 0.606495 Ti
0.388880 0.777769 0.606495 Ti
0.888880 0.277769 0.606495 Ti
0.888880 0.777769 0.606495 Ti
0.555547 0.111102 0.639655 Ti
0.555547 0.611102 0.639655 Ti
0.055556 0.111102 0.639655 Ti
0.055556 0.611102 0.639655 Ti
0.222214 0.944436 0.672814 Ti
0.222214 0.444436 0.672814 Ti
0.722214 0.944436 0.672814 Ti
0.722214 0.444436 0.672814 Ti
0.388880 0.277769 0.705974 Ti
0.388880 0.777769 0.705974 Ti
0.888880 0.277769 0.705974 Ti
0.888880 0.777769 0.705974 Ti
0.555547 0.111102 0.739134 Ti
0.555547 0.611102 0.739134 Ti
0.055556 0.111102 0.739134 Ti
0.055556 0.611102 0.739134 Ti
0.222214 0.944436 0.772294 Ti
0.222214 0.444436 0.772294 Ti
0.722214 0.944436 0.772294 Ti
0.722214 0.444436 0.772294 Ti
