beta_Ti
1.0
4.756510 0.000000 0.000000
0.000000 4.675430 0.000000
0.000000 0.000000 20.611761
Ti
12
direct
0.750000 0.750000 0.869010 Ti
0.250000 0.250000 0.869010 Ti
0.250000 0.750000 0.791314 Ti
0.750000 0.250000 0.791314 Ti
0.750000 0.750000 0.713618 Ti
0.250000 0.250000 0.713618 Ti
0.250000 0.750000 0.635923 Ti
0.750000 0.250000 0.635923 Ti
0.750000 0.750000 0.558226 Ti
0.250000 0.250000 0.558226 Ti
0.250000 0.750000 0.480531 Ti
0.750000 0.250000 0.480531 Ti
