beta_Ti
1.0
9.588310 0.000000 0.000000
0.000000 9.588310 0.000000
0.000000 0.000000 18.500006
Ti
54
direct
0.083333 0.083333 0.500000 Ti
0.083333 0.083333 0.662162 Ti
0.083333 0.083333 0.824324 Ti
0.083333 0.416667 0.500000 Ti
0.083333 0.416667 0.662162 Ti
0.083333 0.416667 0.824324 Ti
0.083333 0.750000 0.500000 Ti
0.083333 0.750000 0.662162 Ti
0.083333 0.750000 0.824324 Ti
0.416667 0.083333 0.500000 Ti
0.416667 0.083333 0.662162 Ti
0.416667 0.083333 0.824324 Ti
0.416667 0.416667 0.500000 Ti
0.416667 0.416667 0.662162 Ti
0.416667 0.416667 0.824324 Ti
0.416667 0.750000 0.500000 Ti
0.416667 0.750000 0.662162 Ti
0.416667 0.750000 0.824324 Ti
0.750000 0.083333 0.500000 Ti
0.750000 0.083333 0.662162 Ti
0.750000 0.083333 0.824324 Ti
0.750000 0.416667 0.500000 Ti
0.750000 0.416667 0.662162 Ti
0.750000 0.416667 0.824324 Ti
0.750000 0.750000 0.500000 Ti
0.750000 0.750000 0.662162 Ti
0.750000 0.750000 0.824324 Ti
0.250000 0.250000 0.581081 Ti
0.250000 0.250000 0.743243 Ti
0.250000 0.250000 0.905405 Ti
0.250000 0.583333 0.581081 Ti
0.250000 0.583333 0.743243 Ti
0.250000 0.583333 0.905405 Ti
0.250000 0.916667 0.581081 Ti
0.250000 0.916667 0.743243 Ti
0.250000 0.916667 0.905405 Ti
0.583333 0.250000 0.581081 Ti
0.583333 0.250000 0.743243 Ti
0.583333 0.250000 0.905405 Ti
0.583333 0.583333 0.581081 Ti
0.583333 0.583333 0.743243 Ti
0.583333 0.583333 0.905405 Ti
0.583333 0.916667 0.581081 Ti
0.583333 0.916667 0.743243 Ti
0.583333 0.916667 0.905405 Ti
0.916667 0.250000 0.581081 Ti
0.916667 0.250000 0.743243 Ti
0.916667 0.250000 0.905405 Ti
0.916667 0.583333 0.581081 Ti
0.916667 0.583333 0.743243 Ti
0.916667 0.583333 0.905405 Ti
0.916667 0.916667 0.581081 Ti
0.916667 0.916667 0.743243 Ti
0.916667 0.916667 0.905405 Ti
