Ti97
1.0
9.513020 0.000000 0.000000
0.000000 9.350860 0.000000
0.000000 0.000000 18.547230
Ti
97
Selective dynamics
direct
0.141429 0.365898 0.405360 T T T Ti
0.652757 0.355186 0.409878 T T T Ti
0.163725 0.859045 0.405549 T T T Ti
0.676755 0.909168 0.405155 T T T Ti
0.154737 0.377515 0.238638 T T T Ti
0.664531 0.362904 0.229547 T T T Ti
0.159551 0.872009 0.233346 T T T Ti
0.660967 0.871022 0.243352 T T T Ti
0.166677 0.375063 0.077583 F F F Ti
0.666712 0.375059 0.077576 F F F Ti
0.166685 0.874980 0.077583 F F F Ti
0.666653 0.874976 0.077602 F F F Ti
0.405339 0.368265 0.316968 T T T Ti
0.897933 0.376217 0.320744 T T T Ti
0.379549 0.924729 0.315861 T T T Ti
0.916017 0.876992 0.320557 T T T Ti
0.416765 0.375262 0.155207 F F F Ti
0.916679 0.374980 0.155180 F F F Ti
0.416503 0.875002 0.155340 F F F Ti
0.916697 0.875054 0.155146 F F F Ti
0.416694 0.375038 -0.000030 F F F Ti
0.916642 0.375012 -0.000054 F F F Ti
0.416663 0.874969 -0.000012 F F F Ti
0.916665 0.874994 -0.000071 F F F Ti
0.102067 0.123784 0.320743 T T T Ti
0.594661 0.131735 0.316968 T T T Ti
0.083983 0.623008 0.320556 T T T Ti
0.620451 0.575271 0.315860 T T T Ti
0.083321 0.125031 0.155180 F F F Ti
0.583233 0.124748 0.155210 F F F Ti
0.083303 0.624960 0.155147 F F F Ti
0.583498 0.625003 0.155340 F F F Ti
0.083359 0.124987 -0.000054 F F F Ti
0.583305 0.124962 -0.000029 F F F Ti
0.083335 0.625010 -0.000072 F F F Ti
0.583337 0.625031 -0.000014 F F F Ti
0.347242 0.144814 0.409878 T T T Ti
0.858570 0.134103 0.405360 T T T Ti
0.323244 0.590833 0.405155 T T T Ti
0.836274 0.640955 0.405549 T T T Ti
0.335467 0.137098 0.229547 T T T Ti
0.845262 0.122487 0.238638 T T T Ti
0.339032 0.628980 0.243352 T T T Ti
0.840448 0.627993 0.233346 T T T Ti
0.333288 0.124947 0.077577 F F F Ti
0.833322 0.124944 0.077584 F F F Ti
0.333346 0.625032 0.077601 F F F Ti
0.833315 0.625028 0.077582 F F F Ti
0.375020 0.375017 0.823782 F F F Ti
0.874945 0.375022 0.823798 F F F Ti
0.375035 0.874961 0.823739 F F F Ti
0.874968 0.874986 0.823757 F F F Ti
0.125057 0.124969 0.823799 F F F Ti
0.624980 0.124979 0.823783 F F F Ti
0.125032 0.625009 0.823756 F F F Ti
0.624967 0.625034 0.823738 F F F Ti
0.124997 0.375019 0.910095 F F F Ti
0.624998 0.375020 0.910104 F F F Ti
0.125026 0.874977 0.910084 F F F Ti
0.624979 0.874990 0.910093 F F F Ti
0.375005 0.124973 0.910105 F F F Ti
0.875004 0.124975 0.910096 F F F Ti
0.375021 0.625002 0.910092 F F F Ti
0.874975 0.625019 0.910083 F F F Ti
0.394307 0.393979 0.652790 T T T Ti
0.902152 0.379025 0.651605 T T T Ti
0.394065 0.881293 0.653244 T T T Ti
0.887312 0.883466 0.659510 T T T Ti
0.097847 0.120974 0.651605 T T T Ti
0.605693 0.106020 0.652790 T T T Ti
0.112687 0.616532 0.659511 T T T Ti
0.605935 0.618706 0.653244 T T T Ti
0.151539 0.375284 0.569073 T T T Ti
0.653131 0.357678 0.582682 T T T Ti
0.139895 0.862755 0.579360 T T T Ti
0.650440 0.857700 0.564379 T T T Ti
0.346869 0.142321 0.582682 T T T Ti
0.848461 0.124716 0.569073 T T T Ti
0.349559 0.642299 0.564379 T T T Ti
0.860105 0.637245 0.579360 T T T Ti
0.405244 0.376992 0.496359 T T T Ti
0.896766 0.378957 0.490683 T T T Ti
0.384639 0.907149 0.499488 T T T Ti
0.913178 0.878823 0.487361 T T T Ti
0.103234 0.121043 0.490683 T T T Ti
0.594756 0.123008 0.496359 T T T Ti
0.086822 0.621176 0.487361 T T T Ti
0.615361 0.592851 0.499488 T T T Ti
0.125107 0.874930 0.737472 F F F Ti
0.625028 0.875029 0.737435 F F F Ti
0.374970 0.624967 0.737435 F F F Ti
0.874890 0.625064 0.737472 F F F Ti
0.124985 0.375001 0.737516 F F F Ti
0.624991 0.375019 0.737475 F F F Ti
0.375007 0.124973 0.737475 F F F Ti
0.875011 0.124989 0.737517 F F F Ti
0.500000 0.750000 0.380720 T T T Ti

0.000000 0.000000 0.000000
0.000000 0.000000 0.000000
0.000000 0.000000 0.000000
0.000000 0.000000 0.000000
0.000000 0.000000 0.000000
0.000000 0.000000 0.000000
0.000000 0.000000 0.000000
0.000000 0.000000 0.000000
0.000000 0.000000 0.000000
0.000000 0.000000 0.000000
0.000000 0.000000 0.000000
0.000000 0.000000 0.000000
0.000000 0.000000 0.000000
0.000000 0.000000 0.000000
0.000000 0.000000 0.000000
0.000000 0.000000 0.000000
0.000000 0.000000 0.000000
0.000000 0.000000 0.000000
0.000000 0.000000 0.000000
0.000000 0.000000 0.000000
0.000000 0.000000 0.000000
0.000000 0.000000 0.000000
0.000000 0.000000 0.000000
0.000000 0.000000 0.000000
0.000000 0.000000 0.000000
0.000000 0.000000 0.000000
0.000000 0.000000 0.000000
0.000000 0.000000 0.000000
0.000000 0.000000 0.000000
0.000000 0.000000 0.000000
0.000000 0.000000 0.000000
0.000000 0.000000 0.000000
0.000000 0.000000 0.000000
0.000000 0.000000 0.000000
0.000000 0.000000 0.000000
0.000000 0.000000 0.000000
0.000000 0.000000 0.000000
0.000000 0.000000 0.000000
0.000000 0.000000 0.000000
0.000000 0.000000 0.000000
0.000000 0.000000 0.000000
0.000000 0.000000 0.000000
0.000000 0.000000 0.000000
0.000000 0.000000 0.000000
0.000000 0.000000 0.000000
0.000000 0.000000 0.000000
0.000000 0.000000 0.000000
0.000000 0.000000 0.000000
0.000000 0.000000 0.000000
0.000000 0.000000 0.000000
0.000000 0.000000 0.000000
0.000000 0.000000 0.000000
0.000000 0.000000 0.000000
0.000000 0.000000 0.000000
0.000000 0.000000 0.000000
0.000000 0.000000 0.000000
0.000000 0.000000 0.000000
0.000000 0.000000 0.000000
0.000000 0.000000 0.000000
0.000000 0.000000 0.000000
0.000000 0.000000 0.000000
0.000000 0.000000 0.000000
0.000000 0.000000 0.000000
0.000000 0.000000 0.000000
0.000000 0.000000 0.000000
0.000000 0.000000 0.000000
0.000000 0.000000 0.000000
0.000000 0.000000 0.000000
0.000000 0.000000 0.000000
0.000000 0.000000 0.000000
0.000000 0.000000 0.000000
0.000000 0.000000 0.000000
0.000000 0.000000 0.000000
0.000000 0.000000 0.000000
0.000000 0.000000 0.000000
0.000000 0.000000 0.000000
0.000000 0.000000 0.000000
0.000000 0.000000 0.000000
0.000000 0.000000 0.000000
0.000000 0.000000 0.000000
0.000000 0.000000 0.000000
0.000000 0.000000 0.000000
0.000000 0.000000 0.000000
0.000000 0.000000 0.000000
0.000000 0.000000 0.000000
0.000000 0.000000 0.000000
0.000000 0.000000 0.000000
0.000000 0.000000 0.000000
0.000000 0.000000 0.000000
0.000000 0.000000 0.000000
0.000000 0.000000 0.000000
0.000000 0.000000 0.000000
0.000000 0.000000 0.000000
0.000000 0.000000 0.000000
0.000000 0.000000 0.000000
0.000000 0.000000 0.000000
0.000000 0.000000 0.000000
