substance_top
1.0
   3.5061499999999999    0.0000000000000000    0.0000000000000002
   0.0000000000000019   12.0001999999999995    0.0000000000000007
   0.0000000000000000    0.0000000000000000   31.5716049620000021
Fe
36
Selective dynamics
direct
   0.9933200000000000    0.7184400000000000    0.6832569987165292 F F F Fe
   0.4933200000000000    0.5543100000000000    0.6722614028506290 F F F Fe
   0.4933200000000000    0.7391600000000000    0.6386017631433963 F F F Fe
   0.9933200000000000    0.5750200000000000    0.6276061672774962 F F F Fe
   0.9933200000000001    0.3901700000000000    0.6612572898694183 F F F Fe
   0.4933200000000000    0.2260400000000000    0.6502616940035182 F F F Fe
   0.4933200000000000    0.4108899999999999    0.6166020542962855 F F F Fe
   0.9933200000000001    0.2467500000000000    0.6056064584303853 F F F Fe
   0.9933200000000000    0.0619000000000000    0.6392575810223075 F F F Fe
   0.4933200000000000    0.8977699999999998    0.6282619851564074 F F F Fe
   0.4933200000000000    0.0826200000000000    0.5946023454491747 F F F Fe
   0.9933200000000000    0.9184800000000000    0.5836067495832745 F F F Fe
   0.9933200000000000    0.7598700000000000    0.5939550446855739 F F F Fe
   0.4933200000000000    0.5957300000000000    0.5829509317043634 F F F Fe
   0.4933200000000000    0.7805800000000001    0.5492998091124411 F F F Fe
   0.9933200000000001    0.6164500000000001    0.5382956961312305 F F F Fe
   0.9933200000000001    0.4315999999999999    0.5719553358384633 F F F Fe
   0.4933200000000000    0.2674600000000000    0.5609512228572525 F F F Fe
   0.4933200000000000    0.4523100000000000    0.5273001002653303 F F F Fe
   0.9933200000000001    0.2881800000000000    0.5162959872841196 F F F Fe
   0.9933199999999999    0.1033300000000000    0.5499556269913524 F F F Fe
   0.4933200000000000    0.9391999999999999    0.5389515140101416 F F F Fe
   0.4933200000000000    0.1240400000000000    0.5053003914182195 F F F Fe
   0.9933200000000000    0.9599100000000000    0.4942962784370087 F F F Fe
   0.9933200000000000    0.8013000000000000    0.5046445735393084 F F F Fe
   0.4933200000000000    0.6371599999999998    0.4936489776734082 F F F Fe
   0.4933200000000000    0.8220099999999999    0.4599893379661755 F F F Fe
   0.9933200000000001    0.6578799999999999    0.4489937421002753 F F F Fe
   0.9933200000000001    0.4730300000000000    0.4826448646921975 F F F Fe
   0.4933200000000000    0.3088900000000000    0.4716492688262973 F F F Fe
   0.4933200000000000    0.4937400000000000    0.4379896291190646 F F F Fe
   0.9933200000000000    0.3296100000000000    0.4269940332531645 F F F Fe
   0.9933200000000001    0.1447600000000000    0.4606451558450866 F F F Fe
   0.4933200000000000    0.9806200000000000    0.4496495599791864 F F F Fe
   0.4933200000000000    0.1654700000000000    0.4159899202719538 F F F Fe
   0.9933200000000000    0.0013400000000000    0.4049943244060537 F F F Fe
