Ti67
1.0
6.309760 0.000000 0.000000
0.000000 9.464640 0.000000
0.000000 0.000000 18.918326
Ti
67
Selective dynamics
direct
0.123872 0.040095 0.502181 F F F Ti
0.627385 0.041780 0.500449 F F F Ti
0.124923 0.041785 0.659079 F F F Ti
0.624985 0.041834 0.658936 F F F Ti
0.124988 0.041745 0.817293 F F F Ti
0.624984 0.041751 0.817285 F F F Ti
0.121649 0.377724 0.501571 F F F Ti
0.624695 0.375581 0.500552 F F F Ti
0.124760 0.375498 0.658956 F F F Ti
0.624769 0.375452 0.658893 F F F Ti
0.124968 0.375204 0.817261 F F F Ti
0.624944 0.375204 0.817262 F F F Ti
0.125582 0.710145 0.499860 F F F Ti
0.623835 0.709577 0.499884 F F F Ti
0.125064 0.708713 0.658709 F F F Ti
0.624499 0.708669 0.658777 F F F Ti
0.124985 0.708481 0.817226 F F F Ti
0.624896 0.708478 0.817241 F F F Ti
0.375212 0.208740 0.579850 F F F Ti
0.874213 0.208815 0.579936 F F F Ti
0.375027 0.208534 0.738087 F F F Ti
0.874818 0.208540 0.738114 F F F Ti
0.375042 0.208473 0.896404 F F F Ti
0.874990 0.208479 0.896404 F F F Ti
0.374997 0.542358 0.579492 F F F Ti
0.873963 0.542901 0.579642 F F F Ti
0.374957 0.541903 0.738020 F F F Ti
0.874840 0.541959 0.738040 F F F Ti
0.375004 0.541812 0.896422 F F F Ti
0.874959 0.541820 0.896418 F F F Ti
0.375781 0.875184 0.579699 F F F Ti
0.874369 0.874718 0.579784 F F F Ti
0.375021 0.875105 0.738081 F F F Ti
0.874851 0.875041 0.738083 F F F Ti
0.375051 0.875089 0.896455 F F F Ti
0.874980 0.875081 0.896452 F F F Ti
0.125252 0.626398 0.356672 F F F Ti
0.624160 0.626028 0.356651 F F F Ti
0.125180 0.625647 0.118683 F F F Ti
0.625177 0.625564 0.118686 F F F Ti
0.642044 0.123604 0.355842 F F F Ti
0.125733 0.125415 0.118601 F F F Ti
0.626189 0.125232 0.118416 F F F Ti
0.125215 0.375281 0.039380 F F F Ti
0.625067 0.375284 0.039291 F F F Ti
0.125149 0.875283 0.039515 F F F Ti
0.625219 0.875175 0.039486 F F F Ti
0.121897 0.379847 0.275325 F F F Ti
0.626675 0.375858 0.276954 F F F Ti
0.126575 0.876774 0.277571 F F F Ti
0.626425 0.875251 0.277289 F F F Ti
0.375481 0.875309 0.158392 F F F Ti
0.875796 0.875558 0.158438 F F F Ti
0.375855 0.375709 0.158102 F F F Ti
0.874412 0.375808 0.157827 F F F Ti
0.869969 0.379794 0.396801 F F F Ti
0.377029 0.876037 0.396483 F F F Ti
0.877558 0.875495 0.396539 F F F Ti
0.375515 0.626044 0.237648 F F F Ti
0.874591 0.626517 0.237570 F F F Ti
0.375040 0.625299 -0.000110 F F F Ti
0.875036 0.625289 -0.000116 F F F Ti
0.379694 0.125340 0.236589 F F F Ti
0.877605 0.125904 0.237063 F F F Ti
0.375219 0.125077 -0.000146 F F F Ti
0.875263 0.125082 -0.000154 F F F Ti
0.211749 0.195853 0.375411 T T T Ti

0.000000 0.000000 0.000000
0.000000 0.000000 0.000000
0.000000 0.000000 0.000000
0.000000 0.000000 0.000000
0.000000 0.000000 0.000000
0.000000 0.000000 0.000000
0.000000 0.000000 0.000000
0.000000 0.000000 0.000000
0.000000 0.000000 0.000000
0.000000 0.000000 0.000000
0.000000 0.000000 0.000000
0.000000 0.000000 0.000000
0.000000 0.000000 0.000000
0.000000 0.000000 0.000000
0.000000 0.000000 0.000000
0.000000 0.000000 0.000000
0.000000 0.000000 0.000000
0.000000 0.000000 0.000000
0.000000 0.000000 0.000000
0.000000 0.000000 0.000000
0.000000 0.000000 0.000000
0.000000 0.000000 0.000000
0.000000 0.000000 0.000000
0.000000 0.000000 0.000000
0.000000 0.000000 0.000000
0.000000 0.000000 0.000000
0.000000 0.000000 0.000000
0.000000 0.000000 0.000000
0.000000 0.000000 0.000000
0.000000 0.000000 0.000000
0.000000 0.000000 0.000000
0.000000 0.000000 0.000000
0.000000 0.000000 0.000000
0.000000 0.000000 0.000000
0.000000 0.000000 0.000000
0.000000 0.000000 0.000000
0.000000 0.000000 0.000000
0.000000 0.000000 0.000000
0.000000 0.000000 0.000000
0.000000 0.000000 0.000000
0.000000 0.000000 0.000000
0.000000 0.000000 0.000000
0.000000 0.000000 0.000000
0.000000 0.000000 0.000000
0.000000 0.000000 0.000000
0.000000 0.000000 0.000000
0.000000 0.000000 0.000000
0.000000 0.000000 0.000000
0.000000 0.000000 0.000000
0.000000 0.000000 0.000000
0.000000 0.000000 0.000000
0.000000 0.000000 0.000000
0.000000 0.000000 0.000000
0.000000 0.000000 0.000000
0.000000 0.000000 0.000000
0.000000 0.000000 0.000000
0.000000 0.000000 0.000000
0.000000 0.000000 0.000000
0.000000 0.000000 0.000000
0.000000 0.000000 0.000000
0.000000 0.000000 0.000000
0.000000 0.000000 0.000000
0.000000 0.000000 0.000000
0.000000 0.000000 0.000000
0.000000 0.000000 0.000000
0.000000 0.000000 0.000000
0.000000 0.000000 0.000000
