Ti66 Sn1
1.0
6.309760 0.000000 0.000000
0.000000 9.464640 0.000000
0.000000 0.000000 18.918326
Ti Sn
66 1
Selective dynamics
direct
0.124802 0.041425 0.500356 F F F Ti
0.624951 0.041662 0.500119 F F F Ti
0.124979 0.041665 0.658663 F F F Ti
0.624922 0.041672 0.658641 F F F Ti
0.125018 0.041702 0.817116 F F F Ti
0.624954 0.041698 0.817122 F F F Ti
0.123742 0.374976 0.500301 F F F Ti
0.623363 0.374981 0.500291 F F F Ti
0.124912 0.375009 0.658633 F F F Ti
0.624833 0.375011 0.658627 F F F Ti
0.125015 0.375010 0.817092 F F F Ti
0.624926 0.375008 0.817102 F F F Ti
0.124800 0.708615 0.500309 F F F Ti
0.624889 0.708387 0.500092 F F F Ti
0.124963 0.708351 0.658655 F F F Ti
0.624900 0.708342 0.658635 F F F Ti
0.125009 0.708307 0.817116 F F F Ti
0.624943 0.708310 0.817121 F F F Ti
0.374773 0.208297 0.579328 F F F Ti
0.874642 0.208277 0.579438 F F F Ti
0.374989 0.208337 0.737868 F F F Ti
0.874944 0.208336 0.737893 F F F Ti
0.375001 0.208353 0.896401 F F F Ti
0.875013 0.208353 0.896392 F F F Ti
0.374760 0.541714 0.579311 F F F Ti
0.874652 0.541739 0.579421 F F F Ti
0.374984 0.541666 0.737865 F F F Ti
0.874944 0.541669 0.737891 F F F Ti
0.374999 0.541654 0.896404 F F F Ti
0.875007 0.541654 0.896395 F F F Ti
0.375102 0.875005 0.579395 F F F Ti
0.874758 0.875018 0.579450 F F F Ti
0.375007 0.875001 0.737892 F F F Ti
0.874951 0.875004 0.737907 F F F Ti
0.375001 0.875005 0.896397 F F F Ti
0.875001 0.875005 0.896391 F F F Ti
0.121019 0.630324 0.357306 F F F Ti
0.625897 0.625815 0.356674 F F F Ti
0.125240 0.625100 0.118826 F F F Ti
0.625409 0.625102 0.118708 F F F Ti
0.120858 0.119399 0.357427 F F F Ti
0.626252 0.124187 0.356699 F F F Ti
0.125222 0.124938 0.118802 F F F Ti
0.625496 0.124937 0.118683 F F F Ti
0.125261 0.375011 0.039548 F F F Ti
0.625272 0.375011 0.039500 F F F Ti
0.124989 0.875028 0.039526 F F F Ti
0.625074 0.875024 0.039487 F F F Ti
0.634479 0.374976 0.276325 F F F Ti
0.124889 0.875238 0.277216 F F F Ti
0.625005 0.875148 0.277383 F F F Ti
0.375174 0.875085 0.158314 F F F Ti
0.874885 0.875005 0.158376 F F F Ti
0.375975 0.375004 0.158361 F F F Ti
0.876285 0.375012 0.158250 F F F Ti
0.868287 0.375049 0.397524 F F F Ti
0.375673 0.875295 0.396578 F F F Ti
0.873612 0.875100 0.396697 F F F Ti
0.376318 0.626508 0.237474 F F F Ti
0.875172 0.625647 0.237609 F F F Ti
0.375035 0.625017 -0.000069 F F F Ti
0.875112 0.625020 -0.000083 F F F Ti
0.376358 0.123490 0.237458 F F F Ti
0.875166 0.124392 0.237608 F F F Ti
0.375047 0.125002 -0.000073 F F F Ti
0.875118 0.124995 -0.000088 F F F Ti
0.248168 0.373921 0.330663 T T T Sn

0.000000 0.000000 0.000000
0.000000 0.000000 0.000000
0.000000 0.000000 0.000000
0.000000 0.000000 0.000000
0.000000 0.000000 0.000000
0.000000 0.000000 0.000000
0.000000 0.000000 0.000000
0.000000 0.000000 0.000000
0.000000 0.000000 0.000000
0.000000 0.000000 0.000000
0.000000 0.000000 0.000000
0.000000 0.000000 0.000000
0.000000 0.000000 0.000000
0.000000 0.000000 0.000000
0.000000 0.000000 0.000000
0.000000 0.000000 0.000000
0.000000 0.000000 0.000000
0.000000 0.000000 0.000000
0.000000 0.000000 0.000000
0.000000 0.000000 0.000000
0.000000 0.000000 0.000000
0.000000 0.000000 0.000000
0.000000 0.000000 0.000000
0.000000 0.000000 0.000000
0.000000 0.000000 0.000000
0.000000 0.000000 0.000000
0.000000 0.000000 0.000000
0.000000 0.000000 0.000000
0.000000 0.000000 0.000000
0.000000 0.000000 0.000000
0.000000 0.000000 0.000000
0.000000 0.000000 0.000000
0.000000 0.000000 0.000000
0.000000 0.000000 0.000000
0.000000 0.000000 0.000000
0.000000 0.000000 0.000000
0.000000 0.000000 0.000000
0.000000 0.000000 0.000000
0.000000 0.000000 0.000000
0.000000 0.000000 0.000000
0.000000 0.000000 0.000000
0.000000 0.000000 0.000000
0.000000 0.000000 0.000000
0.000000 0.000000 0.000000
0.000000 0.000000 0.000000
0.000000 0.000000 0.000000
0.000000 0.000000 0.000000
0.000000 0.000000 0.000000
0.000000 0.000000 0.000000
0.000000 0.000000 0.000000
0.000000 0.000000 0.000000
0.000000 0.000000 0.000000
0.000000 0.000000 0.000000
0.000000 0.000000 0.000000
0.000000 0.000000 0.000000
0.000000 0.000000 0.000000
0.000000 0.000000 0.000000
0.000000 0.000000 0.000000
0.000000 0.000000 0.000000
0.000000 0.000000 0.000000
0.000000 0.000000 0.000000
0.000000 0.000000 0.000000
0.000000 0.000000 0.000000
0.000000 0.000000 0.000000
0.000000 0.000000 0.000000
0.000000 0.000000 0.000000
0.000000 0.000000 0.000000
