alpha_Ti
1.0
6.391540 0.000000 0.000000
0.000000 9.587310 0.000000
0.000000 0.000000 19.750000
Ti
48
direct
0.125000 0.166667 0.455696 Ti
0.625000 0.166667 0.455696 Ti
0.125000 0.666667 0.455696 Ti
0.625000 0.666667 0.455696 Ti
0.125000 0.166667 -0.000000 Ti
0.625000 0.166667 -0.000000 Ti
0.125000 0.666667 -0.000000 Ti
0.625000 0.666667 -0.000000 Ti
0.125000 0.833333 0.113924 Ti
0.625000 0.833333 0.113924 Ti
0.125000 0.833333 0.569620 Ti
0.625000 0.833333 0.569620 Ti
0.125000 0.333333 0.113924 Ti
0.625000 0.333333 0.113924 Ti
0.125000 0.333333 0.569620 Ti
0.625000 0.333333 0.569620 Ti
0.375000 0.583333 0.569620 Ti
0.875000 0.583333 0.569620 Ti
0.374999 0.583333 0.113924 Ti
0.874999 0.583333 0.113924 Ti
0.375000 0.083333 0.113924 Ti
0.875000 0.083333 0.113924 Ti
0.375000 0.083333 0.569620 Ti
0.875000 0.083333 0.569620 Ti
0.375000 0.416667 0.455696 Ti
0.875000 0.416667 0.455696 Ti
0.375000 0.916667 0.455696 Ti
0.875000 0.916667 0.455696 Ti
0.375000 0.416667 -0.000000 Ti
0.875000 0.416667 -0.000000 Ti
0.375000 0.916667 -0.000000 Ti
0.875000 0.916667 -0.000000 Ti
0.375000 0.083333 0.341772 Ti
0.875000 0.083333 0.341772 Ti
0.125000 0.166667 0.227848 Ti
0.625000 0.166667 0.227848 Ti
0.125000 0.333333 0.341772 Ti
0.625000 0.333333 0.341772 Ti
0.375000 0.416667 0.227848 Ti
0.875000 0.416667 0.227848 Ti
0.374999 0.583333 0.341772 Ti
0.874999 0.583333 0.341772 Ti
0.125000 0.666667 0.227848 Ti
0.625000 0.666667 0.227848 Ti
0.125000 0.833333 0.341772 Ti
0.625000 0.833333 0.341772 Ti
0.375000 0.916667 0.227848 Ti
0.875000 0.916667 0.227848 Ti
