beta_Ti
1.0
9.588310 0.000000 0.000000
0.000000 9.588310 0.000000
0.000000 0.000000 34.000006
Ti
54
direct
0.083333 0.083333 0.500000 Ti
0.083333 0.083333 0.588235 Ti
0.083333 0.083333 0.676470 Ti
0.083333 0.416667 0.500000 Ti
0.083333 0.416667 0.588235 Ti
0.083333 0.416667 0.676470 Ti
0.083333 0.750000 0.500000 Ti
0.083333 0.750000 0.588235 Ti
0.083333 0.750000 0.676470 Ti
0.416667 0.083333 0.500000 Ti
0.416667 0.083333 0.588235 Ti
0.416667 0.083333 0.676470 Ti
0.416667 0.416667 0.500000 Ti
0.416667 0.416667 0.588235 Ti
0.416667 0.416667 0.676470 Ti
0.416667 0.750000 0.500000 Ti
0.416667 0.750000 0.588235 Ti
0.416667 0.750000 0.676470 Ti
0.750000 0.083333 0.500000 Ti
0.750000 0.083333 0.588235 Ti
0.750000 0.083333 0.676470 Ti
0.750000 0.416667 0.500000 Ti
0.750000 0.416667 0.588235 Ti
0.750000 0.416667 0.676470 Ti
0.750000 0.750000 0.500000 Ti
0.750000 0.750000 0.588235 Ti
0.750000 0.750000 0.676470 Ti
0.250000 0.250000 0.544117 Ti
0.250000 0.250000 0.632353 Ti
0.250000 0.250000 0.720588 Ti
0.250000 0.583333 0.544117 Ti
0.250000 0.583333 0.632353 Ti
0.250000 0.583333 0.720588 Ti
0.250000 0.916667 0.544117 Ti
0.250000 0.916667 0.632353 Ti
0.250000 0.916667 0.720588 Ti
0.583333 0.250000 0.544117 Ti
0.583333 0.250000 0.632353 Ti
0.583333 0.250000 0.720588 Ti
0.583333 0.583333 0.544117 Ti
0.583333 0.583333 0.632353 Ti
0.583333 0.583333 0.720588 Ti
0.583333 0.916667 0.544117 Ti
0.583333 0.916667 0.632353 Ti
0.583333 0.916667 0.720588 Ti
0.916667 0.250000 0.544117 Ti
0.916667 0.250000 0.632353 Ti
0.916667 0.250000 0.720588 Ti
0.916667 0.583333 0.544117 Ti
0.916667 0.583333 0.632353 Ti
0.916667 0.583333 0.720588 Ti
0.916667 0.916667 0.544117 Ti
0.916667 0.916667 0.632353 Ti
0.916667 0.916667 0.720588 Ti
