substance_top
1.0
   3.5061499999999999    0.0000000000000000    0.0000000000000002
   0.0000000000000019   12.0001999999999995    0.0000000000000007
   0.0000000000000000    0.0000000000000000   26.2616049620000034
Fe
36
Selective dynamics
direct
   0.9933200000000000    0.7184400000000000    0.6192127280312867 F F F Fe
   0.4933200000000000    0.5543100000000000    0.6059938630951065 F F F Fe
   0.4933200000000000    0.7391600000000000    0.5655283679535228 F F F Fe
   0.9933200000000000    0.5750200000000000    0.5523095030173426 F F F Fe
   0.9933200000000001    0.3901700000000000    0.5927647589142042 F F F Fe
   0.4933200000000000    0.2260400000000000    0.5795458939780238 F F F Fe
   0.4933200000000000    0.4108899999999999    0.5390803988364402 F F F Fe
   0.9933200000000001    0.2467500000000000    0.5258615339002599 F F F Fe
   0.9933200000000000    0.0619000000000000    0.5663167897971215 F F F Fe
   0.4933200000000000    0.8977699999999998    0.5530979248609412 F F F Fe
   0.4933200000000000    0.0826200000000000    0.5126324297193576 F F F Fe
   0.9933200000000000    0.9184800000000000    0.4994135647831772 F F F Fe
   0.9933200000000000    0.7598700000000000    0.5118542471204809 F F F Fe
   0.4933200000000000    0.5957300000000000    0.4986251429395787 F F F Fe
   0.4933200000000000    0.7805800000000001    0.4581698870427171 F F F Fe
   0.9933200000000001    0.6164500000000001    0.4449407828618147 F F F Fe
   0.9933200000000001    0.4315999999999999    0.4854062780033983 F F F Fe
   0.4933200000000000    0.2674600000000000    0.4721771738224960 F F F Fe
   0.4933200000000000    0.4523100000000000    0.4317219179256345 F F F Fe
   0.9933200000000001    0.2881800000000000    0.4184928137447321 F F F Fe
   0.9933199999999999    0.1033300000000000    0.4589583088863157 F F F Fe
   0.4933200000000000    0.9391999999999999    0.4457292047054133 F F F Fe
   0.4933200000000000    0.1240400000000000    0.4052739488085518 F F F Fe
   0.9933200000000000    0.9599100000000000    0.3920448446276494 F F F Fe
   0.9933200000000000    0.8013000000000000    0.4044855269649530 F F F Fe
   0.4933200000000000    0.6371599999999998    0.3912666620287729 F F F Fe
   0.4933200000000000    0.8220099999999999    0.3508011668871892 F F F Fe
   0.9933200000000001    0.6578799999999999    0.3375823019510089 F F F Fe
   0.9933200000000001    0.4730300000000000    0.3780375578478705 F F F Fe
   0.4933200000000000    0.3088900000000000    0.3648186929116902 F F F Fe
   0.4933200000000000    0.4937400000000000    0.3243531977701065 F F F Fe
   0.9933200000000000    0.3296100000000000    0.3111343328339263 F F F Fe
   0.9933200000000001    0.1447600000000000    0.3515895887307879 F F F Fe
   0.4933200000000000    0.9806200000000000    0.3383707237946075 F F F Fe
   0.4933200000000000    0.1654700000000000    0.2979052286530239 F F F Fe
   0.9933200000000000    0.0013400000000000    0.2846863637168437 F F F Fe
