Ti66 Cr1
1.0
6.309760 0.000000 0.000000
0.000000 9.464640 0.000000
0.000000 0.000000 18.918326
Ti Cr
66 1
Selective dynamics
direct
0.625519 0.068365 0.479476 T T T Ti
0.125035 0.048305 0.656597 T T T Ti
0.625023 0.046848 0.641225 T T T Ti
0.125003 0.041684 0.817165 F F F Ti
0.625004 0.041683 0.817160 F F F Ti
0.125096 0.412053 0.482089 T T T Ti
0.625215 0.378452 0.481522 T T T Ti
0.125002 0.374708 0.646282 T T T Ti
0.624978 0.350657 0.647310 T T T Ti
0.124996 0.375003 0.817191 F F F Ti
0.624994 0.375001 0.817187 F F F Ti
0.125069 0.700127 0.495156 T T T Ti
0.625022 0.733866 0.490911 T T T Ti
0.125011 0.718803 0.647390 T T T Ti
0.624984 0.732980 0.646609 T T T Ti
0.124994 0.708330 0.817164 F F F Ti
0.624997 0.708331 0.817167 F F F Ti
0.337889 0.203955 0.548077 T T T Ti
0.912160 0.204011 0.548123 T T T Ti
0.374988 0.208254 0.737940 F F F Ti
0.875015 0.208255 0.737942 F F F Ti
0.375004 0.208324 0.896447 F F F Ti
0.874995 0.208324 0.896447 F F F Ti
0.405039 0.540543 0.575289 T T T Ti
0.844986 0.540557 0.575293 T T T Ti
0.374992 0.541661 0.737912 F F F Ti
0.875007 0.541662 0.737912 F F F Ti
0.375002 0.541672 0.896444 F F F Ti
0.874995 0.541672 0.896444 F F F Ti
0.341409 0.907888 0.552639 T T T Ti
0.908619 0.907833 0.552668 T T T Ti
0.374982 0.875023 0.737884 F F F Ti
0.875022 0.875022 0.737885 F F F Ti
0.375000 0.875006 0.896432 F F F Ti
0.875000 0.875006 0.896432 F F F Ti
0.125100 0.614238 0.366554 T T T Ti
0.624899 0.585772 0.371213 T T T Ti
0.125011 0.625000 0.118885 F F F Ti
0.625008 0.624988 0.118878 F F F Ti
0.625408 0.068984 0.347833 T T T Ti
0.125004 0.124983 0.118880 F F F Ti
0.625001 0.124976 0.118872 F F F Ti
0.125000 0.375000 0.039616 F F F Ti
0.624999 0.374998 0.039613 F F F Ti
0.125004 0.874993 0.039620 F F F Ti
0.625003 0.874988 0.039621 F F F Ti
0.124994 0.385619 0.278970 T T T Ti
0.624963 0.361552 0.282438 T T T Ti
0.125109 0.881007 0.282100 T T T Ti
0.624841 0.838406 0.279672 T T T Ti
0.374944 0.874958 0.158508 F F F Ti
0.875055 0.874953 0.158512 F F F Ti
0.375017 0.374999 0.158485 F F F Ti
0.874988 0.375004 0.158484 F F F Ti
0.352070 0.261738 0.387809 T T T Ti
0.897867 0.261912 0.387776 T T T Ti
0.355403 0.871974 0.401374 T T T Ti
0.894525 0.871795 0.401348 T T T Ti
0.370434 0.620854 0.246330 T T T Ti
0.879559 0.620863 0.246335 T T T Ti
0.375001 0.625005 -0.000014 F F F Ti
0.874998 0.625005 -0.000014 F F F Ti
0.366665 0.126349 0.246438 T T T Ti
0.883374 0.126353 0.246413 T T T Ti
0.375004 0.124990 -0.000011 F F F Ti
0.874995 0.124990 -0.000011 F F F Ti
0.123711 0.074228 0.432206 T T T Cr

0.000000 0.000000 0.000000
0.000000 0.000000 0.000000
0.000000 0.000000 0.000000
0.000000 0.000000 0.000000
0.000000 0.000000 0.000000
0.000000 0.000000 0.000000
0.000000 0.000000 0.000000
0.000000 0.000000 0.000000
0.000000 0.000000 0.000000
0.000000 0.000000 0.000000
0.000000 0.000000 0.000000
0.000000 0.000000 0.000000
0.000000 0.000000 0.000000
0.000000 0.000000 0.000000
0.000000 0.000000 0.000000
0.000000 0.000000 0.000000
0.000000 0.000000 0.000000
0.000000 0.000000 0.000000
0.000000 0.000000 0.000000
0.000000 0.000000 0.000000
0.000000 0.000000 0.000000
0.000000 0.000000 0.000000
0.000000 0.000000 0.000000
0.000000 0.000000 0.000000
0.000000 0.000000 0.000000
0.000000 0.000000 0.000000
0.000000 0.000000 0.000000
0.000000 0.000000 0.000000
0.000000 0.000000 0.000000
0.000000 0.000000 0.000000
0.000000 0.000000 0.000000
0.000000 0.000000 0.000000
0.000000 0.000000 0.000000
0.000000 0.000000 0.000000
0.000000 0.000000 0.000000
0.000000 0.000000 0.000000
0.000000 0.000000 0.000000
0.000000 0.000000 0.000000
0.000000 0.000000 0.000000
0.000000 0.000000 0.000000
0.000000 0.000000 0.000000
0.000000 0.000000 0.000000
0.000000 0.000000 0.000000
0.000000 0.000000 0.000000
0.000000 0.000000 0.000000
0.000000 0.000000 0.000000
0.000000 0.000000 0.000000
0.000000 0.000000 0.000000
0.000000 0.000000 0.000000
0.000000 0.000000 0.000000
0.000000 0.000000 0.000000
0.000000 0.000000 0.000000
0.000000 0.000000 0.000000
0.000000 0.000000 0.000000
0.000000 0.000000 0.000000
0.000000 0.000000 0.000000
0.000000 0.000000 0.000000
0.000000 0.000000 0.000000
0.000000 0.000000 0.000000
0.000000 0.000000 0.000000
0.000000 0.000000 0.000000
0.000000 0.000000 0.000000
0.000000 0.000000 0.000000
0.000000 0.000000 0.000000
0.000000 0.000000 0.000000
0.000000 0.000000 0.000000
0.000000 0.000000 0.000000
