alpha_Ti
1.0
6.309760 0.000000 0.000000
0.000000 9.464640 0.000000
0.000000 0.000000 21.000004
Ti
32
direct
0.125000 0.625000 0.321428 Ti
0.625000 0.625000 0.321428 Ti
0.125000 0.625000 0.107143 Ti
0.625000 0.625000 0.107143 Ti
0.125000 0.125000 0.321428 Ti
0.625000 0.125000 0.321428 Ti
0.125000 0.125000 0.107143 Ti
0.625000 0.125000 0.107143 Ti
0.125000 0.375000 0.035714 Ti
0.625000 0.375000 0.035714 Ti
0.125000 0.875000 0.035714 Ti
0.625000 0.875000 0.035714 Ti
0.125000 0.375000 0.250000 Ti
0.625000 0.375000 0.250000 Ti
0.125000 0.875000 0.250000 Ti
0.625000 0.875000 0.250000 Ti
0.375000 0.875000 0.142857 Ti
0.875000 0.875000 0.142857 Ti
0.374999 0.375000 0.142857 Ti
0.874999 0.375000 0.142857 Ti
0.375000 0.375000 0.357143 Ti
0.875000 0.375000 0.357143 Ti
0.375000 0.875000 0.357143 Ti
0.875000 0.875000 0.357143 Ti
0.375000 0.625000 0.214286 Ti
0.875000 0.625000 0.214286 Ti
0.375000 0.625000 -0.000000 Ti
0.875000 0.625000 -0.000000 Ti
0.375000 0.125000 0.214286 Ti
0.875000 0.125000 0.214286 Ti
0.375000 0.125000 -0.000000 Ti
0.875000 0.125000 -0.000000 Ti
