total_structure
1.0
   3.5061499999999999    0.0000000000000000    0.0000000000000002
   0.0000000000000019   12.0001999999999995    0.0000000000000007
   0.0000000000000000    0.0000000000000000   26.9216049620000035
Cr Fe N
16 36 16
Selective dynamics
direct
   0.0000000000000000    0.0000000000000000    0.2335046826098658 F F F Cr
  -0.0000000000000000    0.2500000000000000    0.2335046826098658 F F F Cr
   0.5000000000000000    0.1250000000000000    0.1556664589988348 F F F Cr
   0.5000000000000000    0.3750000000000000    0.1556664589988347 F F F Cr
   0.0000000000000000    0.0000000000000000    0.0778382236110311 F F F Cr
  -0.0000000000000000    0.2500000000000000    0.0778382236110311 F F F Cr
   0.5000000000000000    0.1250000000000000   -0.0000000000000000 F F F Cr
   0.5000000000000000    0.3750000000000000   -0.0000000000000000 F F F Cr
  -0.0000000000000000    0.5000000000000000    0.2335046826098658 F F F Cr
  -0.0000000000000000    0.7500000000000000    0.2335046826098658 F F F Cr
   0.5000000000000000    0.6250000000000000    0.1556664589988348 F F F Cr
   0.4999999999999999    0.8749999999999999    0.1556664589988348 F F F Cr
  -0.0000000000000000    0.5000000000000000    0.0778382236110311 F F F Cr
  -0.0000000000000000    0.7500000000000000    0.0778382236110311 F F F Cr
   0.5000000000000000    0.6250000000000000   -0.0000000000000000 F F F Cr
   0.4999999999999999    0.8749999999999999   -0.0000000000000000 F F F Cr
   0.9933200000000000    0.7184400000000000    0.6285479663966848 F F F Fe
   0.4933200000000000    0.5543100000000000    0.6156531702101274 F F F Fe
   0.4933200000000000    0.7391600000000000    0.5761797120154919 F F F Fe
   0.9933200000000000    0.5750200000000000    0.5632849158289346 F F F Fe
   0.9933200000000001    0.3901700000000000    0.6027483858003428 F F F Fe
   0.4933200000000000    0.2260400000000000    0.5898535896137854 F F F Fe
   0.4933200000000000    0.4108899999999999    0.5503801314191499 F F F Fe
   0.9933200000000001    0.2467500000000000    0.5374853352325926 F F F Fe
   0.9933200000000000    0.0619000000000000    0.5769488052040007 F F F Fe
   0.4933200000000000    0.8977699999999998    0.5640540090174435 F F F Fe
   0.4933200000000000    0.0826200000000000    0.5245805508228079 F F F Fe
   0.9933200000000000    0.9184800000000000    0.5116857546362505 F F F Fe
   0.9933200000000000    0.7598700000000000    0.5238214458575263 F F F Fe
   0.4933200000000000    0.5957300000000000    0.5109166614477417 F F F Fe
   0.4933200000000000    0.7805800000000001    0.4714531914763336 F F F Fe
   0.9933200000000001    0.6164500000000001    0.4585484070665489 F F F Fe
   0.9933200000000001    0.4315999999999999    0.4980218652611844 F F F Fe
   0.4933200000000000    0.2674600000000000    0.4851170808513997 F F F Fe
   0.4933200000000000    0.4523100000000000    0.4456536108799916 F F F Fe
   0.9933200000000001    0.2881800000000000    0.4327488264702068 F F F Fe
   0.9933199999999999    0.1033300000000000    0.4722222846648425 F F F Fe
   0.4933200000000000    0.9391999999999999    0.4593175002550576 F F F Fe
   0.4933200000000000    0.1240400000000000    0.4198540302836496 F F F Fe
   0.9933200000000000    0.9599100000000000    0.4069492458738648 F F F Fe
   0.9933200000000000    0.8013000000000000    0.4190849370951407 F F F Fe
   0.4933200000000000    0.6371599999999998    0.4061901409085834 F F F Fe
   0.4933200000000000    0.8220099999999999    0.3667166827139479 F F F Fe
   0.9933200000000001    0.6578799999999999    0.3538218865273906 F F F Fe
   0.9933200000000001    0.4730300000000000    0.3932853564987987 F F F Fe
   0.4933200000000000    0.3088900000000000    0.3803905603122414 F F F Fe
   0.4933200000000000    0.4937400000000000    0.3409171021176058 F F F Fe
   0.9933200000000000    0.3296100000000000    0.3280223059310486 F F F Fe
   0.9933200000000001    0.1447600000000000    0.3674857759024567 F F F Fe
   0.4933200000000000    0.9806200000000000    0.3545909797158993 F F F Fe
   0.4933200000000000    0.1654700000000000    0.3151175215212639 F F F Fe
   0.9933200000000000    0.0013400000000000    0.3022227253347066 F F F Fe
   0.5000000000000000    0.1250000000000000    0.2335046826098658 F F F N
   0.5000000000000000    0.3750000000000000    0.2335046826098658 F F F N
   0.0000000000000000    0.0000000000000000    0.1556664589988348 F F F N
  -0.0000000000000000    0.2500000000000000    0.1556664589988348 F F F N
   0.5000000000000000    0.1250000000000000    0.0778382236110311 F F F N
   0.5000000000000000    0.3750000000000000    0.0778382236110311 F F F N
   0.0000000000000000    0.0000000000000000    0.0000000000000000 F F F N
  -0.0000000000000000    0.2500000000000000   -0.0000000000000000 F F F N
   0.5000000000000000    0.6250000000000000    0.2335046826098658 F F F N
   0.4999999999999999    0.8749999999999999    0.2335046826098658 F F F N
  -0.0000000000000000    0.5000000000000000    0.1556664589988348 F F F N
  -0.0000000000000000    0.7500000000000000    0.1556664589988348 F F F N
   0.5000000000000000    0.6250000000000000    0.0778382236110311 F F F N
   0.4999999999999999    0.8749999999999999    0.0778382236110311 F F F N
  -0.0000000000000000    0.5000000000000000   -0.0000000000000000 F F F N
  -0.0000000000000000    0.7500000000000000   -0.0000000000000000 F F F N
