total_Ti
1.0
9.588310 0.000000 0.000000
0.000000 9.588310 0.000000
0.000000 0.000000 21.000006
Ti
102
direct
0.083333 0.083333 0.500000 Ti
0.083333 0.083333 0.642857 Ti
0.083333 0.083333 0.785714 Ti
0.083333 0.416667 0.500000 Ti
0.083333 0.416667 0.642857 Ti
0.083333 0.416667 0.785714 Ti
0.083333 0.750000 0.500000 Ti
0.083333 0.750000 0.642857 Ti
0.083333 0.750000 0.785714 Ti
0.416667 0.083333 0.500000 Ti
0.416667 0.083333 0.642857 Ti
0.416667 0.083333 0.785714 Ti
0.416667 0.416667 0.500000 Ti
0.416667 0.416667 0.642857 Ti
0.416667 0.416667 0.785714 Ti
0.416667 0.750000 0.500000 Ti
0.416667 0.750000 0.642857 Ti
0.416667 0.750000 0.785714 Ti
0.750000 0.083333 0.500000 Ti
0.750000 0.083333 0.642857 Ti
0.750000 0.083333 0.785714 Ti
0.750000 0.416667 0.500000 Ti
0.750000 0.416667 0.642857 Ti
0.750000 0.416667 0.785714 Ti
0.750000 0.750000 0.500000 Ti
0.750000 0.750000 0.642857 Ti
0.750000 0.750000 0.785714 Ti
0.250000 0.250000 0.571428 Ti
0.250000 0.250000 0.714286 Ti
0.250000 0.250000 0.857143 Ti
0.250000 0.583333 0.571428 Ti
0.250000 0.583333 0.714286 Ti
0.250000 0.583333 0.857143 Ti
0.250000 0.916667 0.571428 Ti
0.250000 0.916667 0.714286 Ti
0.250000 0.916667 0.857143 Ti
0.583333 0.250000 0.571428 Ti
0.583333 0.250000 0.714286 Ti
0.583333 0.250000 0.857143 Ti
0.583333 0.583333 0.571428 Ti
0.583333 0.583333 0.714286 Ti
0.583333 0.583333 0.857143 Ti
0.583333 0.916667 0.571428 Ti
0.583333 0.916667 0.714286 Ti
0.583333 0.916667 0.857143 Ti
0.916667 0.250000 0.571428 Ti
0.916667 0.250000 0.714286 Ti
0.916667 0.250000 0.857143 Ti
0.916667 0.583333 0.571428 Ti
0.916667 0.583333 0.714286 Ti
0.916667 0.583333 0.857143 Ti
0.916667 0.916667 0.571428 Ti
0.916667 0.916667 0.714286 Ti
0.916667 0.916667 0.857143 Ti
0.125000 0.833333 -0.000000 Ti
0.125000 0.333333 -0.000000 Ti
0.625000 0.833333 -0.000000 Ti
0.625000 0.333333 -0.000000 Ti
0.375000 0.666667 -0.000000 Ti
0.375000 0.166667 -0.000000 Ti
0.875000 0.666667 -0.000000 Ti
0.875000 0.166667 -0.000000 Ti
0.875000 0.416667 0.071428 Ti
0.375000 0.416667 0.071428 Ti
0.875000 0.916667 0.071428 Ti
0.375000 0.916667 0.071428 Ti
0.625000 0.083333 0.071428 Ti
0.125000 0.083333 0.071428 Ti
0.625000 0.583333 0.071428 Ti
0.125000 0.583333 0.071428 Ti
0.125000 0.333333 0.142857 Ti
0.625000 0.333333 0.142857 Ti
0.625000 0.833333 0.142857 Ti
0.125000 0.833333 0.142857 Ti
0.875000 0.666667 0.142857 Ti
0.375000 0.166667 0.142857 Ti
0.875000 0.166667 0.142857 Ti
0.375000 0.666667 0.142857 Ti
0.875000 0.416667 0.214286 Ti
0.375000 0.416667 0.214286 Ti
0.875000 0.916667 0.214286 Ti
0.375000 0.916667 0.214286 Ti
0.125000 0.583333 0.214286 Ti
0.625000 0.083333 0.214286 Ti
0.125000 0.083333 0.214286 Ti
0.625000 0.583333 0.214286 Ti
0.625000 0.833333 0.285714 Ti
0.625000 0.333333 0.285714 Ti
0.125000 0.833333 0.285714 Ti
0.125000 0.333333 0.285714 Ti
0.375000 0.166667 0.285714 Ti
0.875000 0.166667 0.285714 Ti
0.375000 0.666667 0.285714 Ti
0.875000 0.666667 0.285714 Ti
0.875000 0.416667 0.357143 Ti
0.375000 0.416667 0.357143 Ti
0.375000 0.916667 0.357143 Ti
0.875000 0.916667 0.357143 Ti
0.625000 0.583333 0.357143 Ti
0.625000 0.083333 0.357143 Ti
0.125000 0.583333 0.357143 Ti
0.125000 0.083333 0.357143 Ti
