Ti66 Al1
1.0
6.309760 0.000000 0.000000
0.000000 9.464640 0.000000
0.000000 0.000000 18.918326
Ti Al
66 1
Selective dynamics
direct
0.119727 0.039003 0.497216 F F F Ti
0.625421 0.040770 0.499571 F F F Ti
0.633356 0.039778 0.659557 F F F Ti
0.125232 0.041809 0.817271 F F F Ti
0.625988 0.041376 0.817598 F F F Ti
0.123970 0.375415 0.499798 F F F Ti
0.623672 0.375304 0.499836 F F F Ti
0.122012 0.379415 0.659456 F F F Ti
0.625393 0.375864 0.658959 F F F Ti
0.124726 0.375577 0.817578 F F F Ti
0.625998 0.375822 0.817728 F F F Ti
0.124613 0.707487 0.499698 F F F Ti
0.625640 0.707409 0.499588 F F F Ti
0.125088 0.708481 0.658591 F F F Ti
0.625672 0.707872 0.658761 F F F Ti
0.125139 0.708544 0.817305 F F F Ti
0.625216 0.708544 0.817401 F F F Ti
0.866543 0.210358 0.578391 F F F Ti
0.379217 0.210675 0.740410 F F F Ti
0.874636 0.209173 0.738332 F F F Ti
0.375133 0.208481 0.896783 F F F Ti
0.875082 0.208399 0.896616 F F F Ti
0.374957 0.541526 0.579313 F F F Ti
0.874171 0.542196 0.579173 F F F Ti
0.375359 0.542383 0.738183 F F F Ti
0.874414 0.542446 0.738259 F F F Ti
0.375037 0.541930 0.896622 F F F Ti
0.875049 0.541937 0.896651 F F F Ti
0.378314 0.870543 0.578386 F F F Ti
0.874677 0.874079 0.578982 F F F Ti
0.375968 0.874746 0.738072 F F F Ti
0.876397 0.874804 0.738039 F F F Ti
0.375025 0.875026 0.896564 F F F Ti
0.875268 0.874999 0.896567 F F F Ti
0.124988 0.624595 0.356748 F F F Ti
0.624636 0.624597 0.356690 F F F Ti
0.125008 0.624941 0.118898 F F F Ti
0.624945 0.624946 0.118907 F F F Ti
0.124908 0.125060 0.356343 F F F Ti
0.624746 0.124954 0.356620 F F F Ti
0.124981 0.124982 0.118878 F F F Ti
0.624940 0.124984 0.118888 F F F Ti
0.124955 0.375021 0.039698 F F F Ti
0.625007 0.375034 0.039719 F F F Ti
0.124978 0.874977 0.039667 F F F Ti
0.625014 0.874960 0.039681 F F F Ti
0.124934 0.374991 0.277413 F F F Ti
0.624855 0.374946 0.277418 F F F Ti
0.124964 0.874830 0.277346 F F F Ti
0.624874 0.874876 0.277330 F F F Ti
0.374996 0.874934 0.158530 F F F Ti
0.874955 0.874936 0.158525 F F F Ti
0.375000 0.374985 0.158559 F F F Ti
0.874997 0.374994 0.158553 F F F Ti
0.374720 0.374768 0.396372 F F F Ti
0.874513 0.375011 0.396257 F F F Ti
0.375281 0.874513 0.396096 F F F Ti
0.874170 0.874279 0.395953 F F F Ti
0.374953 0.624873 0.237830 F F F Ti
0.874968 0.624879 0.237822 F F F Ti
0.374989 0.625029 0.000084 F F F Ti
0.875013 0.625033 0.000096 F F F Ti
0.375039 0.124969 0.237757 F F F Ti
0.874842 0.124976 0.237735 F F F Ti
0.375004 0.124926 0.000141 F F F Ti
0.874965 0.124971 0.000082 F F F Ti
0.248629 0.125197 0.618799 T T T Al

0.000000 0.000000 0.000000
0.000000 0.000000 0.000000
0.000000 0.000000 0.000000
0.000000 0.000000 0.000000
0.000000 0.000000 0.000000
0.000000 0.000000 0.000000
0.000000 0.000000 0.000000
0.000000 0.000000 0.000000
0.000000 0.000000 0.000000
0.000000 0.000000 0.000000
0.000000 0.000000 0.000000
0.000000 0.000000 0.000000
0.000000 0.000000 0.000000
0.000000 0.000000 0.000000
0.000000 0.000000 0.000000
0.000000 0.000000 0.000000
0.000000 0.000000 0.000000
0.000000 0.000000 0.000000
0.000000 0.000000 0.000000
0.000000 0.000000 0.000000
0.000000 0.000000 0.000000
0.000000 0.000000 0.000000
0.000000 0.000000 0.000000
0.000000 0.000000 0.000000
0.000000 0.000000 0.000000
0.000000 0.000000 0.000000
0.000000 0.000000 0.000000
0.000000 0.000000 0.000000
0.000000 0.000000 0.000000
0.000000 0.000000 0.000000
0.000000 0.000000 0.000000
0.000000 0.000000 0.000000
0.000000 0.000000 0.000000
0.000000 0.000000 0.000000
0.000000 0.000000 0.000000
0.000000 0.000000 0.000000
0.000000 0.000000 0.000000
0.000000 0.000000 0.000000
0.000000 0.000000 0.000000
0.000000 0.000000 0.000000
0.000000 0.000000 0.000000
0.000000 0.000000 0.000000
0.000000 0.000000 0.000000
0.000000 0.000000 0.000000
0.000000 0.000000 0.000000
0.000000 0.000000 0.000000
0.000000 0.000000 0.000000
0.000000 0.000000 0.000000
0.000000 0.000000 0.000000
0.000000 0.000000 0.000000
0.000000 0.000000 0.000000
0.000000 0.000000 0.000000
0.000000 0.000000 0.000000
0.000000 0.000000 0.000000
0.000000 0.000000 0.000000
0.000000 0.000000 0.000000
0.000000 0.000000 0.000000
0.000000 0.000000 0.000000
0.000000 0.000000 0.000000
0.000000 0.000000 0.000000
0.000000 0.000000 0.000000
0.000000 0.000000 0.000000
0.000000 0.000000 0.000000
0.000000 0.000000 0.000000
0.000000 0.000000 0.000000
0.000000 0.000000 0.000000
0.000000 0.000000 0.000000
