beta_Ti
1.0
4.756510 0.000000 0.000000
0.000000 4.675430 0.000000
0.000000 0.000000 20.711761
Ti
12
direct
0.750000 0.750000 0.867228 Ti
0.250000 0.250000 0.867228 Ti
0.250000 0.750000 0.789908 Ti
0.750000 0.250000 0.789908 Ti
0.750000 0.750000 0.712587 Ti
0.250000 0.250000 0.712587 Ti
0.250000 0.750000 0.635266 Ti
0.750000 0.250000 0.635266 Ti
0.750000 0.750000 0.557945 Ti
0.250000 0.250000 0.557945 Ti
0.250000 0.750000 0.480625 Ti
0.750000 0.250000 0.480625 Ti
