Ti72
1.0
8.805261 0.000000 0.000000
-4.402630 7.625580 0.000000
0.000000 0.000000 34.288801
Ti
72
direct
0.967272 0.027818 0.492637 Ti
0.967272 0.527818 0.492637 Ti
0.467272 0.027818 0.492637 Ti
0.467272 0.527818 0.492637 Ti
0.133938 0.361151 0.681394 Ti
0.133938 0.861151 0.681394 Ti
0.633938 0.361151 0.681394 Ti
0.633938 0.861151 0.681394 Ti
0.300605 0.194485 0.708359 Ti
0.300605 0.694485 0.708359 Ti
0.800605 0.194485 0.708359 Ti
0.800605 0.694485 0.708359 Ti
0.133938 0.361151 0.519602 Ti
0.133938 0.861151 0.519602 Ti
0.633938 0.361151 0.519602 Ti
0.633938 0.861151 0.519602 Ti
0.300605 0.194485 0.546567 Ti
0.300605 0.694485 0.546567 Ti
0.800605 0.194485 0.546567 Ti
0.800605 0.694485 0.546567 Ti
0.967272 0.027818 0.573533 Ti
0.967272 0.527818 0.573533 Ti
0.467272 0.027818 0.573533 Ti
0.467272 0.527818 0.573533 Ti
0.133938 0.361151 0.600498 Ti
0.133938 0.861151 0.600498 Ti
0.633938 0.361151 0.600498 Ti
0.633938 0.861151 0.600498 Ti
0.300605 0.194485 0.627463 Ti
0.300605 0.694485 0.627463 Ti
0.800605 0.194485 0.627463 Ti
0.800605 0.694485 0.627463 Ti
0.967272 0.027818 0.654429 Ti
0.967272 0.527818 0.654429 Ti
0.467272 0.027818 0.654429 Ti
0.467272 0.527818 0.654429 Ti
0.111111 0.888889 -0.000000 Ti
0.111111 0.888889 0.133998 Ti
0.111111 0.555556 -0.000000 Ti
0.222222 0.777778 0.066999 Ti
0.111111 0.555556 0.133998 Ti
0.444444 0.888889 -0.000000 Ti
0.111111 0.222222 -0.000000 Ti
0.222222 0.777778 0.200997 Ti
0.222222 0.444444 0.066999 Ti
0.444444 0.888889 0.133998 Ti
0.111111 0.222222 0.133998 Ti
0.444444 0.555556 -0.000000 Ti
0.222222 0.444444 0.200997 Ti
0.555556 0.777778 0.066999 Ti
0.222222 0.111111 0.066999 Ti
0.444444 0.555556 0.133998 Ti
0.777778 0.888889 -0.000000 Ti
0.444444 0.222222 -0.000000 Ti
0.555556 0.777778 0.200997 Ti
0.222222 0.111111 0.200997 Ti
0.555556 0.444444 0.066999 Ti
0.777778 0.888889 0.133998 Ti
0.444444 0.222222 0.133998 Ti
0.777778 0.555556 -0.000000 Ti
0.555556 0.444444 0.200997 Ti
0.888889 0.777778 0.066999 Ti
0.555556 0.111111 0.066999 Ti
0.777778 0.555556 0.133998 Ti
0.777778 0.222222 -0.000000 Ti
0.888889 0.777778 0.200997 Ti
0.555556 0.111111 0.200997 Ti
0.888889 0.444444 0.066999 Ti
0.777778 0.222222 0.133998 Ti
0.888889 0.444444 0.200997 Ti
0.888889 0.111111 0.066999 Ti
0.888889 0.111111 0.200997 Ti
