Ti66 Sn1
1.0
6.309760 0.000000 0.000000
0.000000 9.464640 0.000000
0.000000 0.000000 18.918326
Ti Sn
66 1
Selective dynamics
direct
0.120195 0.039212 0.497402 F F F Ti
0.625461 0.040869 0.499606 F F F Ti
0.632789 0.039890 0.659486 F F F Ti
0.125195 0.041779 0.817252 F F F Ti
0.625877 0.041402 0.817549 F F F Ti
0.124116 0.375372 0.499813 F F F Ti
0.623852 0.375274 0.499849 F F F Ti
0.122360 0.378923 0.659355 F F F Ti
0.625355 0.375743 0.658910 F F F Ti
0.124749 0.375501 0.817524 F F F Ti
0.625884 0.375718 0.817655 F F F Ti
0.124638 0.707563 0.499730 F F F Ti
0.625615 0.707492 0.499631 F F F Ti
0.125060 0.708424 0.658592 F F F Ti
0.625631 0.707872 0.658746 F F F Ti
0.125111 0.708504 0.817284 F F F Ti
0.625194 0.708496 0.817369 F F F Ti
0.867427 0.210150 0.578472 F F F Ti
0.378797 0.210437 0.740181 F F F Ti
0.874725 0.209059 0.738267 F F F Ti
0.375110 0.208464 0.896742 F F F Ti
0.875069 0.208393 0.896590 F F F Ti
0.374973 0.541512 0.579306 F F F Ti
0.874285 0.542117 0.579184 F F F Ti
0.375315 0.542280 0.738142 F F F Ti
0.874491 0.542326 0.738208 F F F Ti
0.375029 0.541897 0.896601 F F F Ti
0.875039 0.541898 0.896625 F F F Ti
0.378119 0.870731 0.578441 F F F Ti
0.874696 0.874148 0.579012 F F F Ti
0.375871 0.874723 0.738059 F F F Ti
0.876242 0.874799 0.738022 F F F Ti
0.375020 0.875025 0.896543 F F F Ti
0.875224 0.875003 0.896545 F F F Ti
0.124990 0.625023 0.356752 F F F Ti
0.624680 0.624951 0.356702 F F F Ti
0.125007 0.625065 0.118897 F F F Ti
0.624950 0.625056 0.118905 F F F Ti
0.124928 0.125105 0.356386 F F F Ti
0.624786 0.125007 0.356638 F F F Ti
0.124986 0.125015 0.118881 F F F Ti
0.624947 0.125017 0.118889 F F F Ti
0.124965 0.375057 0.039693 F F F Ti
0.625008 0.375067 0.039710 F F F Ti
0.124976 0.875018 0.039659 F F F Ti
0.625011 0.875002 0.039672 F F F Ti
0.124956 0.375076 0.277432 F F F Ti
0.624886 0.375027 0.277435 F F F Ti
0.124960 0.874931 0.277354 F F F Ti
0.624887 0.874964 0.277343 F F F Ti
0.375000 0.874991 0.158531 F F F Ti
0.874956 0.874990 0.158527 F F F Ti
0.374998 0.375037 0.158564 F F F Ti
0.874998 0.375042 0.158557 F F F Ti
0.374767 0.374881 0.396371 F F F Ti
0.874590 0.375095 0.396269 F F F Ti
0.375276 0.874634 0.396134 F F F Ti
0.874251 0.874429 0.396010 F F F Ti
0.374964 0.625010 0.237835 F F F Ti
0.874976 0.624995 0.237827 F F F Ti
0.374990 0.625133 0.000064 F F F Ti
0.875014 0.625122 0.000074 F F F Ti
0.375038 0.125017 0.237769 F F F Ti
0.874865 0.125024 0.237750 F F F Ti
0.375003 0.124954 0.000122 F F F Ti
0.874971 0.124995 0.000070 F F F Ti
0.249268 0.124059 0.618708 T T T Sn

0.000000 0.000000 0.000000
0.000000 0.000000 0.000000
0.000000 0.000000 0.000000
0.000000 0.000000 0.000000
0.000000 0.000000 0.000000
0.000000 0.000000 0.000000
0.000000 0.000000 0.000000
0.000000 0.000000 0.000000
0.000000 0.000000 0.000000
0.000000 0.000000 0.000000
0.000000 0.000000 0.000000
0.000000 0.000000 0.000000
0.000000 0.000000 0.000000
0.000000 0.000000 0.000000
0.000000 0.000000 0.000000
0.000000 0.000000 0.000000
0.000000 0.000000 0.000000
0.000000 0.000000 0.000000
0.000000 0.000000 0.000000
0.000000 0.000000 0.000000
0.000000 0.000000 0.000000
0.000000 0.000000 0.000000
0.000000 0.000000 0.000000
0.000000 0.000000 0.000000
0.000000 0.000000 0.000000
0.000000 0.000000 0.000000
0.000000 0.000000 0.000000
0.000000 0.000000 0.000000
0.000000 0.000000 0.000000
0.000000 0.000000 0.000000
0.000000 0.000000 0.000000
0.000000 0.000000 0.000000
0.000000 0.000000 0.000000
0.000000 0.000000 0.000000
0.000000 0.000000 0.000000
0.000000 0.000000 0.000000
0.000000 0.000000 0.000000
0.000000 0.000000 0.000000
0.000000 0.000000 0.000000
0.000000 0.000000 0.000000
0.000000 0.000000 0.000000
0.000000 0.000000 0.000000
0.000000 0.000000 0.000000
0.000000 0.000000 0.000000
0.000000 0.000000 0.000000
0.000000 0.000000 0.000000
0.000000 0.000000 0.000000
0.000000 0.000000 0.000000
0.000000 0.000000 0.000000
0.000000 0.000000 0.000000
0.000000 0.000000 0.000000
0.000000 0.000000 0.000000
0.000000 0.000000 0.000000
0.000000 0.000000 0.000000
0.000000 0.000000 0.000000
0.000000 0.000000 0.000000
0.000000 0.000000 0.000000
0.000000 0.000000 0.000000
0.000000 0.000000 0.000000
0.000000 0.000000 0.000000
0.000000 0.000000 0.000000
0.000000 0.000000 0.000000
0.000000 0.000000 0.000000
0.000000 0.000000 0.000000
0.000000 0.000000 0.000000
0.000000 0.000000 0.000000
0.000000 0.000000 0.000000
