Ti66 Sn1
1.0
6.309760 0.000000 0.000000
0.000000 9.464640 0.000000
0.000000 0.000000 18.918326
Ti Sn
66 1
Selective dynamics
direct
0.124732 0.041460 0.500231 F F F Ti
0.624911 0.041649 0.500063 F F F Ti
0.124962 0.041659 0.658636 F F F Ti
0.624905 0.041664 0.658618 F F F Ti
0.125013 0.041686 0.817129 F F F Ti
0.624966 0.041685 0.817131 F F F Ti
0.123138 0.374958 0.500422 F F F Ti
0.623785 0.374987 0.500138 F F F Ti
0.124885 0.375007 0.658632 F F F Ti
0.624818 0.375009 0.658605 F F F Ti
0.125011 0.375008 0.817115 F F F Ti
0.624943 0.375006 0.817118 F F F Ti
0.124747 0.708564 0.500197 F F F Ti
0.624853 0.708401 0.500039 F F F Ti
0.124953 0.708351 0.658629 F F F Ti
0.624881 0.708351 0.658614 F F F Ti
0.125008 0.708320 0.817129 F F F Ti
0.624956 0.708322 0.817131 F F F Ti
0.374772 0.208307 0.579301 F F F Ti
0.874553 0.208241 0.579412 F F F Ti
0.374983 0.208334 0.737863 F F F Ti
0.874936 0.208332 0.737887 F F F Ti
0.375003 0.208345 0.896405 F F F Ti
0.875004 0.208347 0.896399 F F F Ti
0.374762 0.541699 0.579286 F F F Ti
0.874564 0.541770 0.579396 F F F Ti
0.374979 0.541669 0.737860 F F F Ti
0.874936 0.541673 0.737884 F F F Ti
0.375001 0.541660 0.896407 F F F Ti
0.875000 0.541659 0.896400 F F F Ti
0.375032 0.875011 0.579348 F F F Ti
0.874787 0.875009 0.579402 F F F Ti
0.374995 0.875002 0.737880 F F F Ti
0.874954 0.875001 0.737894 F F F Ti
0.375003 0.875004 0.896405 F F F Ti
0.874996 0.875005 0.896401 F F F Ti
0.121358 0.628777 0.356909 F F F Ti
0.626077 0.625952 0.356584 F F F Ti
0.125185 0.625083 0.118823 F F F Ti
0.625175 0.625072 0.118754 F F F Ti
0.121183 0.121059 0.356966 F F F Ti
0.626402 0.124014 0.356596 F F F Ti
0.125176 0.124947 0.118809 F F F Ti
0.625227 0.124953 0.118738 F F F Ti
0.125227 0.375007 0.039540 F F F Ti
0.625105 0.375008 0.039529 F F F Ti
0.124999 0.875021 0.039545 F F F Ti
0.625018 0.875019 0.039522 F F F Ti
0.632361 0.374976 0.276168 F F F Ti
0.124878 0.875157 0.277250 F F F Ti
0.624848 0.875116 0.277343 F F F Ti
0.375091 0.875051 0.158389 F F F Ti
0.874902 0.874993 0.158392 F F F Ti
0.375351 0.375005 0.158474 F F F Ti
0.876074 0.375007 0.158221 F F F Ti
0.869985 0.375032 0.396913 F F F Ti
0.375301 0.875278 0.396500 F F F Ti
0.874014 0.875074 0.396610 F F F Ti
0.375507 0.625734 0.237604 F F F Ti
0.875156 0.625438 0.237588 F F F Ti
0.375015 0.625014 -0.000061 F F F Ti
0.875065 0.625021 -0.000075 F F F Ti
0.375502 0.124291 0.237595 F F F Ti
0.875163 0.124589 0.237584 F F F Ti
0.375021 0.124998 -0.000063 F F F Ti
0.875069 0.124988 -0.000077 F F F Ti
0.297371 0.374173 0.354338 T T T Sn

0.000000 0.000000 0.000000
0.000000 0.000000 0.000000
0.000000 0.000000 0.000000
0.000000 0.000000 0.000000
0.000000 0.000000 0.000000
0.000000 0.000000 0.000000
0.000000 0.000000 0.000000
0.000000 0.000000 0.000000
0.000000 0.000000 0.000000
0.000000 0.000000 0.000000
0.000000 0.000000 0.000000
0.000000 0.000000 0.000000
0.000000 0.000000 0.000000
0.000000 0.000000 0.000000
0.000000 0.000000 0.000000
0.000000 0.000000 0.000000
0.000000 0.000000 0.000000
0.000000 0.000000 0.000000
0.000000 0.000000 0.000000
0.000000 0.000000 0.000000
0.000000 0.000000 0.000000
0.000000 0.000000 0.000000
0.000000 0.000000 0.000000
0.000000 0.000000 0.000000
0.000000 0.000000 0.000000
0.000000 0.000000 0.000000
0.000000 0.000000 0.000000
0.000000 0.000000 0.000000
0.000000 0.000000 0.000000
0.000000 0.000000 0.000000
0.000000 0.000000 0.000000
0.000000 0.000000 0.000000
0.000000 0.000000 0.000000
0.000000 0.000000 0.000000
0.000000 0.000000 0.000000
0.000000 0.000000 0.000000
0.000000 0.000000 0.000000
0.000000 0.000000 0.000000
0.000000 0.000000 0.000000
0.000000 0.000000 0.000000
0.000000 0.000000 0.000000
0.000000 0.000000 0.000000
0.000000 0.000000 0.000000
0.000000 0.000000 0.000000
0.000000 0.000000 0.000000
0.000000 0.000000 0.000000
0.000000 0.000000 0.000000
0.000000 0.000000 0.000000
0.000000 0.000000 0.000000
0.000000 0.000000 0.000000
0.000000 0.000000 0.000000
0.000000 0.000000 0.000000
0.000000 0.000000 0.000000
0.000000 0.000000 0.000000
0.000000 0.000000 0.000000
0.000000 0.000000 0.000000
0.000000 0.000000 0.000000
0.000000 0.000000 0.000000
0.000000 0.000000 0.000000
0.000000 0.000000 0.000000
0.000000 0.000000 0.000000
0.000000 0.000000 0.000000
0.000000 0.000000 0.000000
0.000000 0.000000 0.000000
0.000000 0.000000 0.000000
0.000000 0.000000 0.000000
0.000000 0.000000 0.000000
