Ti36
1.0
8.805261 0.000000 0.000000
-4.402630 7.625580 0.000000
0.000000 0.000000 27.288801
Ti
36
direct
0.222214 0.944436 0.490748 Ti
0.222214 0.444436 0.490748 Ti
0.722214 0.944436 0.490748 Ti
0.722214 0.444436 0.490748 Ti
0.388880 0.277769 0.727924 Ti
0.388880 0.777769 0.727924 Ti
0.888880 0.277769 0.727924 Ti
0.888880 0.777769 0.727924 Ti
0.555547 0.111102 0.761806 Ti
0.555547 0.611103 0.761806 Ti
0.055556 0.111102 0.761806 Ti
0.055556 0.611103 0.761806 Ti
0.388880 0.277769 0.524630 Ti
0.388880 0.777769 0.524630 Ti
0.888880 0.277769 0.524630 Ti
0.888880 0.777769 0.524630 Ti
0.555547 0.111102 0.558513 Ti
0.555547 0.611103 0.558513 Ti
0.055556 0.111102 0.558513 Ti
0.055556 0.611103 0.558513 Ti
0.222214 0.944436 0.592395 Ti
0.222214 0.444436 0.592395 Ti
0.722214 0.944436 0.592395 Ti
0.722214 0.444436 0.592395 Ti
0.388880 0.277769 0.626277 Ti
0.388880 0.777769 0.626277 Ti
0.888880 0.277769 0.626277 Ti
0.888880 0.777769 0.626277 Ti
0.555547 0.111102 0.660160 Ti
0.555547 0.611103 0.660160 Ti
0.055556 0.111102 0.660160 Ti
0.055556 0.611103 0.660160 Ti
0.222214 0.944436 0.694042 Ti
0.222214 0.444436 0.694042 Ti
0.722214 0.944436 0.694042 Ti
0.722214 0.444436 0.694042 Ti
