Ti66 Sn1
1.0
6.309760 0.000000 0.000000
0.000000 9.464640 0.000000
0.000000 0.000000 18.918326
Ti Sn
66 1
Selective dynamics
direct
0.125094 0.042055 0.499959 F F F Ti
0.625258 0.041746 0.500044 F F F Ti
0.125067 0.041603 0.658617 F F F Ti
0.625041 0.041572 0.658639 F F F Ti
0.125034 0.041634 0.817071 F F F Ti
0.624951 0.041622 0.817085 F F F Ti
0.125252 0.375776 0.500678 F F F Ti
0.625140 0.375165 0.501829 F F F Ti
0.124962 0.375059 0.658785 F F F Ti
0.625030 0.375022 0.658920 F F F Ti
0.124987 0.375010 0.817114 F F F Ti
0.624924 0.375012 0.817144 F F F Ti
0.125108 0.708120 0.499895 F F F Ti
0.624524 0.708860 0.500129 F F F Ti
0.124995 0.708503 0.658622 F F F Ti
0.624912 0.708593 0.658684 F F F Ti
0.124993 0.708289 0.817093 F F F Ti
0.624923 0.708308 0.817114 F F F Ti
0.374892 0.208180 0.579522 F F F Ti
0.875255 0.208181 0.579584 F F F Ti
0.374998 0.208271 0.737914 F F F Ti
0.875007 0.208265 0.737930 F F F Ti
0.374990 0.208348 0.896307 F F F Ti
0.875020 0.208352 0.896282 F F F Ti
0.375047 0.542169 0.579702 F F F Ti
0.874992 0.542272 0.579739 F F F Ti
0.374994 0.541757 0.737958 F F F Ti
0.874971 0.541774 0.737969 F F F Ti
0.374967 0.541644 0.896394 F F F Ti
0.875005 0.541653 0.896378 F F F Ti
0.374867 0.875173 0.579280 F F F Ti
0.875154 0.875102 0.579294 F F F Ti
0.374971 0.875013 0.737873 F F F Ti
0.874999 0.875008 0.737877 F F F Ti
0.374994 0.874893 0.896321 F F F Ti
0.875036 0.874887 0.896303 F F F Ti
0.125400 0.625808 0.356923 F F F Ti
0.625426 0.626761 0.356603 F F F Ti
0.125228 0.624478 0.118886 F F F Ti
0.624989 0.624649 0.118835 F F F Ti
0.629077 0.125247 0.356801 F F F Ti
0.125271 0.124413 0.118468 F F F Ti
0.625081 0.124632 0.117601 F F F Ti
0.125142 0.374861 0.039542 F F F Ti
0.624932 0.375089 0.039378 F F F Ti
0.125066 0.874589 0.039355 F F F Ti
0.625015 0.874472 0.039226 F F F Ti
0.628468 0.375026 0.277464 F F F Ti
0.125255 0.874414 0.277107 F F F Ti
0.625357 0.873749 0.277447 F F F Ti
0.375406 0.873773 0.158114 F F F Ti
0.874829 0.873504 0.157986 F F F Ti
0.375565 0.374520 0.158534 F F F Ti
0.874562 0.374896 0.158070 F F F Ti
0.385528 0.380446 0.398923 F F F Ti
0.863594 0.382139 0.399645 F F F Ti
0.374939 0.875848 0.396321 F F F Ti
0.875522 0.875254 0.396417 F F F Ti
0.375043 0.624321 0.237894 F F F Ti
0.875462 0.624707 0.237791 F F F Ti
0.374946 0.624813 -0.000067 F F F Ti
0.875091 0.624827 -0.000085 F F F Ti
0.384377 0.121152 0.235746 F F F Ti
0.864786 0.120278 0.234836 F F F Ti
0.374891 0.124846 -0.000297 F F F Ti
0.875246 0.124844 -0.000325 F F F Ti
0.115149 0.250875 0.320995 T T T Sn

0.000000 0.000000 0.000000
0.000000 0.000000 0.000000
0.000000 0.000000 0.000000
0.000000 0.000000 0.000000
0.000000 0.000000 0.000000
0.000000 0.000000 0.000000
0.000000 0.000000 0.000000
0.000000 0.000000 0.000000
0.000000 0.000000 0.000000
0.000000 0.000000 0.000000
0.000000 0.000000 0.000000
0.000000 0.000000 0.000000
0.000000 0.000000 0.000000
0.000000 0.000000 0.000000
0.000000 0.000000 0.000000
0.000000 0.000000 0.000000
0.000000 0.000000 0.000000
0.000000 0.000000 0.000000
0.000000 0.000000 0.000000
0.000000 0.000000 0.000000
0.000000 0.000000 0.000000
0.000000 0.000000 0.000000
0.000000 0.000000 0.000000
0.000000 0.000000 0.000000
0.000000 0.000000 0.000000
0.000000 0.000000 0.000000
0.000000 0.000000 0.000000
0.000000 0.000000 0.000000
0.000000 0.000000 0.000000
0.000000 0.000000 0.000000
0.000000 0.000000 0.000000
0.000000 0.000000 0.000000
0.000000 0.000000 0.000000
0.000000 0.000000 0.000000
0.000000 0.000000 0.000000
0.000000 0.000000 0.000000
0.000000 0.000000 0.000000
0.000000 0.000000 0.000000
0.000000 0.000000 0.000000
0.000000 0.000000 0.000000
0.000000 0.000000 0.000000
0.000000 0.000000 0.000000
0.000000 0.000000 0.000000
0.000000 0.000000 0.000000
0.000000 0.000000 0.000000
0.000000 0.000000 0.000000
0.000000 0.000000 0.000000
0.000000 0.000000 0.000000
0.000000 0.000000 0.000000
0.000000 0.000000 0.000000
0.000000 0.000000 0.000000
0.000000 0.000000 0.000000
0.000000 0.000000 0.000000
0.000000 0.000000 0.000000
0.000000 0.000000 0.000000
0.000000 0.000000 0.000000
0.000000 0.000000 0.000000
0.000000 0.000000 0.000000
0.000000 0.000000 0.000000
0.000000 0.000000 0.000000
0.000000 0.000000 0.000000
0.000000 0.000000 0.000000
0.000000 0.000000 0.000000
0.000000 0.000000 0.000000
0.000000 0.000000 0.000000
0.000000 0.000000 0.000000
0.000000 0.000000 0.000000
