Ti66 Sn1
1.0
6.309760 0.000000 0.000000
0.000000 9.464640 0.000000
0.000000 0.000000 18.918326
Ti Sn
66 1
Selective dynamics
direct
0.629754 1.019585 0.483186 T T T Ti
0.125032 0.041849 0.654891 T T T Ti
0.625125 0.056107 0.650181 T T T Ti
0.124978 0.041461 0.817554 F F F Ti
0.625028 0.041355 0.817696 F F F Ti
0.126194 0.383132 0.476356 T T T Ti
0.626590 0.347907 0.472759 T T T Ti
0.125257 0.372579 0.642371 T T T Ti
0.624782 0.365069 0.655950 T T T Ti
0.124981 0.375022 0.817665 F F F Ti
0.624945 0.375111 0.817735 F F F Ti
0.125434 0.701799 0.494418 T T T Ti
0.624763 0.703867 0.482275 T T T Ti
0.125054 0.701926 0.649374 T T T Ti
0.624435 0.692388 0.649090 T T T Ti
0.124827 0.708540 0.817382 F F F Ti
0.624903 0.708518 0.817501 F F F Ti
0.384898 0.206436 0.556572 T T T Ti
0.864892 0.207703 0.557281 T T T Ti
0.375128 0.207929 0.738750 F F F Ti
0.874829 0.207989 0.738802 F F F Ti
0.375031 0.208433 0.896501 F F F Ti
0.874899 0.208442 0.896513 F F F Ti
0.398458 0.523789 0.561574 T T T Ti
0.851953 0.524046 0.561621 T T T Ti
0.374533 0.541473 0.738615 F F F Ti
0.875315 0.541490 0.738603 F F F Ti
0.374914 0.541932 0.896497 F F F Ti
0.874928 0.541922 0.896498 F F F Ti
0.391926 0.868184 0.571683 T T T Ti
0.858137 0.867333 0.572075 T T T Ti
0.374586 0.874871 0.738287 F F F Ti
0.875293 0.874824 0.738327 F F F Ti
0.374928 0.875150 0.896552 F F F Ti
0.874968 0.875155 0.896565 F F F Ti
0.125673 0.621704 0.367650 T T T Ti
0.624258 0.590340 0.363610 T T T Ti
0.124989 0.626576 0.118109 F F F Ti
0.625103 0.626511 0.118223 F F F Ti
0.627551 0.076082 0.344898 T T T Ti
0.125271 0.126195 0.117894 F F F Ti
0.625100 0.126123 0.118414 F F F Ti
0.124910 0.375792 0.038918 F F F Ti
0.624999 0.375722 0.039040 F F F Ti
0.124860 0.875727 0.039230 F F F Ti
0.624937 0.875829 0.039416 F F F Ti
0.125137 0.387631 0.280848 T T T Ti
0.624528 0.365164 0.279146 T T T Ti
0.125768 0.882812 0.277264 T T T Ti
0.624316 0.833643 0.280715 T T T Ti
0.374277 0.876909 0.157913 F F F Ti
0.875831 0.876880 0.157961 F F F Ti
0.375289 0.376806 0.157127 F F F Ti
0.875013 0.376869 0.157132 F F F Ti
0.348240 0.252569 0.382131 T T T Ti
0.902191 0.254327 0.381707 T T T Ti
0.354314 0.871725 0.394722 T T T Ti
0.895535 0.869729 0.394183 T T T Ti
0.362411 0.621690 0.243850 T T T Ti
0.887535 0.621698 0.243906 T T T Ti
0.375074 0.625757 -0.000240 F F F Ti
0.874734 0.625758 -0.000243 F F F Ti
0.355542 0.135321 0.242016 T T T Ti
0.895114 0.135416 0.241794 T T T Ti
0.375252 0.125323 -0.000173 F F F Ti
0.874725 0.125321 -0.000163 F F F Ti
0.114827 0.064093 0.463765 T T T Sn

0.000000 0.000000 0.000000
0.000000 0.000000 0.000000
0.000000 0.000000 0.000000
0.000000 0.000000 0.000000
0.000000 0.000000 0.000000
0.000000 0.000000 0.000000
0.000000 0.000000 0.000000
0.000000 0.000000 0.000000
0.000000 0.000000 0.000000
0.000000 0.000000 0.000000
0.000000 0.000000 0.000000
0.000000 0.000000 0.000000
0.000000 0.000000 0.000000
0.000000 0.000000 0.000000
0.000000 0.000000 0.000000
0.000000 0.000000 0.000000
0.000000 0.000000 0.000000
0.000000 0.000000 0.000000
0.000000 0.000000 0.000000
0.000000 0.000000 0.000000
0.000000 0.000000 0.000000
0.000000 0.000000 0.000000
0.000000 0.000000 0.000000
0.000000 0.000000 0.000000
0.000000 0.000000 0.000000
0.000000 0.000000 0.000000
0.000000 0.000000 0.000000
0.000000 0.000000 0.000000
0.000000 0.000000 0.000000
0.000000 0.000000 0.000000
0.000000 0.000000 0.000000
0.000000 0.000000 0.000000
0.000000 0.000000 0.000000
0.000000 0.000000 0.000000
0.000000 0.000000 0.000000
0.000000 0.000000 0.000000
0.000000 0.000000 0.000000
0.000000 0.000000 0.000000
0.000000 0.000000 0.000000
0.000000 0.000000 0.000000
0.000000 0.000000 0.000000
0.000000 0.000000 0.000000
0.000000 0.000000 0.000000
0.000000 0.000000 0.000000
0.000000 0.000000 0.000000
0.000000 0.000000 0.000000
0.000000 0.000000 0.000000
0.000000 0.000000 0.000000
0.000000 0.000000 0.000000
0.000000 0.000000 0.000000
0.000000 0.000000 0.000000
0.000000 0.000000 0.000000
0.000000 0.000000 0.000000
0.000000 0.000000 0.000000
0.000000 0.000000 0.000000
0.000000 0.000000 0.000000
0.000000 0.000000 0.000000
0.000000 0.000000 0.000000
0.000000 0.000000 0.000000
0.000000 0.000000 0.000000
0.000000 0.000000 0.000000
0.000000 0.000000 0.000000
0.000000 0.000000 0.000000
0.000000 0.000000 0.000000
0.000000 0.000000 0.000000
0.000000 0.000000 0.000000
0.000000 0.000000 0.000000
