Ti66 Sn1
1.0
6.309760 0.000000 0.000000
0.000000 9.464640 0.000000
0.000000 0.000000 18.918326
Ti Sn
66 1
Selective dynamics
direct
0.125000 -0.029297 0.491827 T T T Ti
0.125000 0.039591 0.639528 T T T Ti
0.625000 0.034118 0.654309 T T T Ti
0.125000 0.041667 0.817153 F F F Ti
0.625000 0.041667 0.817153 F F F Ti
0.125000 0.337643 0.507131 T T T Ti
0.625000 0.380064 0.491900 T T T Ti
0.125000 0.338532 0.650001 T T T Ti
0.625000 0.332997 0.638058 T T T Ti
0.125000 0.375000 0.817153 F F F Ti
0.625000 0.375000 0.817153 F F F Ti
0.125000 0.655157 0.488950 T T T Ti
0.625000 0.659415 0.480692 T T T Ti
0.125000 0.732002 0.644388 T T T Ti
0.625000 0.711926 0.656539 T T T Ti
0.125000 0.708333 0.817153 F F F Ti
0.625000 0.708333 0.817153 F F F Ti
0.418135 0.151148 0.534759 T T T Ti
0.831865 0.151148 0.534759 T T T Ti
0.375000 0.208333 0.737865 F F F Ti
0.875000 0.208333 0.737865 F F F Ti
0.375000 0.208333 0.896441 F F F Ti
0.875000 0.208333 0.896441 F F F Ti
0.365836 0.528742 0.584181 T T T Ti
0.884164 0.528742 0.584181 T T T Ti
0.375000 0.541667 0.737865 F F F Ti
0.875000 0.541667 0.737865 F F F Ti
0.375000 0.541667 0.896441 F F F Ti
0.875000 0.541667 0.896441 F F F Ti
0.416314 0.854482 0.556847 T T T Ti
0.833686 0.854482 0.556847 T T T Ti
0.375000 0.875000 0.737865 F F F Ti
0.875000 0.875000 0.737865 F F F Ti
0.375000 0.875000 0.896441 F F F Ti
0.875000 0.875000 0.896441 F F F Ti
0.125000 0.674369 0.358090 T T T Ti
0.625000 0.642334 0.355371 T T T Ti
0.125000 0.625000 0.118932 F F F Ti
0.625000 0.625000 0.118932 F F F Ti
0.625000 0.165072 0.385865 T T T Ti
0.125000 0.125000 0.118932 F F F Ti
0.625000 0.125000 0.118932 F F F Ti
0.125000 0.375000 0.039644 F F F Ti
0.625000 0.375000 0.039644 F F F Ti
0.125000 0.875000 0.039644 F F F Ti
0.625000 0.875000 0.039644 F F F Ti
0.125000 0.408252 0.275054 T T T Ti
0.625000 0.387341 0.280507 T T T Ti
0.125000 0.906570 0.281818 T T T Ti
0.625000 0.894193 0.279327 T T T Ti
0.375000 0.875000 0.158576 F F F Ti
0.875000 0.875000 0.158576 F F F Ti
0.374999 0.375000 0.158576 F F F Ti
0.874999 0.375000 0.158576 F F F Ti
0.349797 0.434308 0.396797 T T T Ti
0.900203 0.434308 0.396797 T T T Ti
0.414167 0.892674 0.404303 T T T Ti
0.835833 0.892674 0.404303 T T T Ti
0.376516 0.636377 0.242631 T T T Ti
0.873484 0.636377 0.242631 T T T Ti
0.375000 0.625000 0.000000 F F F Ti
0.875000 0.625000 0.000000 F F F Ti
0.387777 0.138861 0.249833 T T T Ti
0.862223 0.138861 0.249833 T T T Ti
0.375000 0.125000 0.000000 F F F Ti
0.875000 0.125000 0.000000 F F F Ti
0.125000 0.160896 0.377738 T T T Sn
