Optimistic_Structure                    
   1.00000000000000     
     6.3097599999999998    0.0000000000000000    0.0000000000000000
     0.0000000000000000    9.4646399999999993    0.0000000000000000
     0.0000000000000000    0.0000000000000000   18.9183260000000004
   Ti
    67
Selective dynamics
Direct
  0.6250000000000000  0.0855841935859932  0.4663753904517343   T   T   T
  0.1250000000000000  0.0462575674269256  0.6546378532858436   T   T   T
  0.6250000000000000  0.0517948672284805  0.6373287588269566   T   T   T
  0.1250000000000000  0.0416669999999968  0.8171529999999976   F   F   F
  0.6250000000000000  0.0416669999999968  0.8171529999999976   F   F   F
  0.1250000000000000  0.4072019984451588  0.4885056450679416   T   T   T
  0.6250000000000000  0.4005621573910346  0.5042505324393288   T   T   T
  0.1250000000000000  0.3557302368031576  0.6453509272464024   T   T   T
  0.6250000000000000  0.3541717271055027  0.6493433324711141   T   T   T
  0.1250000000000000  0.3750000000000000  0.8171529999999976   F   F   F
  0.6250000000000000  0.3750000000000000  0.8171529999999976   F   F   F
  0.1250000000000000  0.6985853388976785  0.4925276589675360   T   T   T
  0.6250000000000000  0.7200064370872140  0.4958288985490527   T   T   T
  0.1250000000000000  0.7387755937837798  0.6442157753674552   T   T   T
  0.6250000000000000  0.7441537398626117  0.6443961076192155   T   T   T
  0.1250000000000000  0.7083330000000032  0.8171529999999976   F   F   F
  0.6250000000000000  0.7083330000000032  0.8171529999999976   F   F   F
  0.3379474524754404  0.1970162917094652  0.5463565436990503   T   T   T
  0.9120525475245597  0.1970162917094652  0.5463565436990503   T   T   T
  0.3750000000000000  0.2083330000000032  0.7378649999999993   F   F   F
  0.8750000000000000  0.2083330000000032  0.7378649999999993   F   F   F
  0.3750000000000000  0.2083330000000032  0.8964410000000029   F   F   F
  0.8750000000000000  0.2083330000000032  0.8964410000000029   F   F   F
  0.3781579302942194  0.5478342685525786  0.5891900983680263   T   T   T
  0.8718420697057815  0.5478342685525786  0.5891900983680263   T   T   T
  0.3750000000000000  0.5416669999999968  0.7378649999999993   F   F   F
  0.8750000000000000  0.5416669999999968  0.7378649999999993   F   F   F
  0.3750000000000000  0.5416669999999968  0.8964410000000029   F   F   F
  0.8750000000000000  0.5416669999999968  0.8964410000000029   F   F   F
  0.3451352635455952  0.9117201172576136  0.5477342984933387   T   T   T
  0.9048647364544047  0.9117201172576136  0.5477342984933387   T   T   T
  0.3750000000000000  0.8750000000000000  0.7378649999999993   F   F   F
  0.8750000000000000  0.8750000000000000  0.7378649999999993   F   F   F
  0.3750000000000000  0.8750000000000000  0.8964410000000029   F   F   F
  0.8750000000000000  0.8750000000000000  0.8964410000000029   F   F   F
  0.1250000000000000  0.6109666231742329  0.3665998334686889   T   T   T
  0.6250000000000000  0.6005084014328833  0.3680002118862536   T   T   T
  0.1250000000000000  0.6250000000000000  0.1189320000000009   F   F   F
  0.6250000000000000  0.6250000000000000  0.1189320000000009   F   F   F
  0.6250000000000000  0.0811397438556507  0.3467294323784060   T   T   T
  0.1250000000000000  0.1250000000000000  0.1189320000000009   F   F   F
  0.6250000000000000  0.1250000000000000  0.1189320000000009   F   F   F
  0.1250000000000000  0.3750000000000000  0.0396440000000027   F   F   F
  0.6250000000000000  0.3750000000000000  0.0396440000000027   F   F   F
  0.1250000000000000  0.8750000000000000  0.0396440000000027   F   F   F
  0.6250000000000000  0.8750000000000000  0.0396440000000027   F   F   F
  0.1250000000000000  0.3841299847634211  0.2822083375005562   T   T   T
  0.6250000000000000  0.3835524649890559  0.2717083834988508   T   T   T
  0.1250000000000000  0.8877939063458601  0.2837607306175553   T   T   T
  0.6250000000000000  0.8553686862029899  0.2719659648045735   T   T   T
  0.3750000000000000  0.8750000000000000  0.1585759999999965   F   F   F
  0.8750000000000000  0.8750000000000000  0.1585759999999965   F   F   F
  0.3749990000000025  0.3750000000000000  0.1585759999999965   F   F   F
  0.8749990000000025  0.3750000000000000  0.1585759999999965   F   F   F
  0.4067532444552175  0.3240574194657210  0.3886490561178689   T   T   T
  0.8432467555447828  0.3240574194657210  0.3886490561178689   T   T   T
  0.3786083935522754  0.8591874913336878  0.3990338115160109   T   T   T
  0.8713916064477246  0.8591874913336878  0.3990338115160109   T   T   T
  0.3624470641295541  0.6302376943480072  0.2466230915786179   T   T   T
  0.8875529358704459  0.6302376943480072  0.2466230915786179   T   T   T
  0.3750000000000000  0.6250000000000000  0.0000000000000000   F   F   F
  0.8750000000000000  0.6250000000000000  0.0000000000000000   F   F   F
  0.3530101711332134  0.1337783866351860  0.2493687028782422   T   T   T
  0.8969898288667868  0.1337783866351860  0.2493687028782422   T   T   T
  0.3750000000000000  0.1250000000000000  0.0000000000000000   F   F   F
  0.8750000000000000  0.1250000000000000  0.0000000000000000   F   F   F
  0.1250000000000000  0.1027750562172681  0.3985293071909110   T   T   T
