alpha_Ti
1.0
8.805261 0.000000 0.000000
-4.402631 7.625580 0.000000
0.000000 0.000000 34.883422
Ti
54
direct
0.166666 0.944444 -0.000000 Ti
0.166666 0.944444 0.263427 Ti
0.166666 0.611111 -0.000000 Ti
0.277778 0.833333 0.065857 Ti
0.166666 0.611111 0.263427 Ti
0.500000 0.944444 -0.000000 Ti
0.166666 0.277778 -0.000000 Ti
0.277778 0.833333 0.329284 Ti
0.277778 0.500000 0.065857 Ti
0.500000 0.944444 0.263427 Ti
0.166666 0.277778 0.263427 Ti
0.500000 0.611111 -0.000000 Ti
0.277778 0.500000 0.329284 Ti
0.611111 0.833333 0.065857 Ti
0.277778 0.166667 0.065857 Ti
0.500000 0.611111 0.263427 Ti
0.833333 0.944444 -0.000000 Ti
0.500000 0.277778 -0.000000 Ti
0.611111 0.833333 0.329284 Ti
0.277778 0.166667 0.329284 Ti
0.611111 0.500000 0.065857 Ti
0.833333 0.944444 0.263427 Ti
0.500000 0.277778 0.263427 Ti
0.833333 0.611111 -0.000000 Ti
0.611111 0.500000 0.329284 Ti
0.944444 0.833333 0.065857 Ti
0.611111 0.166667 0.065857 Ti
0.833333 0.611111 0.263427 Ti
0.833333 0.277778 -0.000000 Ti
0.944444 0.833333 0.329284 Ti
0.611111 0.166667 0.329284 Ti
0.944444 0.500000 0.065857 Ti
0.833333 0.277778 0.263427 Ti
0.944444 0.500000 0.329284 Ti
0.944444 0.166667 0.065857 Ti
0.944444 0.166667 0.329284 Ti
0.166666 0.944444 0.131714 Ti
0.166666 0.611111 0.131714 Ti
0.277778 0.833333 0.197570 Ti
0.500000 0.944444 0.131714 Ti
0.166666 0.277778 0.131714 Ti
0.277778 0.500000 0.197570 Ti
0.500000 0.611111 0.131714 Ti
0.611111 0.833333 0.197570 Ti
0.277778 0.166667 0.197570 Ti
0.833333 0.944444 0.131714 Ti
0.500000 0.277778 0.131714 Ti
0.611111 0.500000 0.197570 Ti
0.833333 0.611111 0.131714 Ti
0.944444 0.833333 0.197570 Ti
0.611111 0.166667 0.197570 Ti
0.833333 0.277778 0.131714 Ti
0.944444 0.500000 0.197570 Ti
0.944444 0.166667 0.197570 Ti
