beta_Ti
1.0
8.805261 0.000000 0.000000
-4.402631 7.625580 0.000000
0.000000 0.000000 21.983422
Ti
36
direct
0.967272 0.027818 0.593017 Ti
0.967272 0.527818 0.593017 Ti
0.467272 0.027818 0.593017 Ti
0.467272 0.527818 0.593017 Ti
0.133938 0.361151 0.887432 Ti
0.133938 0.861151 0.887432 Ti
0.633938 0.361151 0.887432 Ti
0.633938 0.861151 0.887432 Ti
0.300605 0.194485 0.929492 Ti
0.300605 0.694485 0.929492 Ti
0.800605 0.194485 0.929492 Ti
0.800605 0.694485 0.929492 Ti
0.133938 0.361151 0.635077 Ti
0.133938 0.861151 0.635077 Ti
0.633938 0.361151 0.635077 Ti
0.633938 0.861151 0.635077 Ti
0.300605 0.194485 0.677136 Ti
0.300605 0.694485 0.677136 Ti
0.800605 0.194485 0.677136 Ti
0.800605 0.694485 0.677136 Ti
0.967272 0.027818 0.719195 Ti
0.967272 0.527818 0.719195 Ti
0.467272 0.027818 0.719195 Ti
0.467272 0.527818 0.719195 Ti
0.133938 0.361151 0.761254 Ti
0.133938 0.861151 0.761254 Ti
0.633938 0.361151 0.761254 Ti
0.633938 0.861151 0.761254 Ti
0.300605 0.194485 0.803314 Ti
0.300605 0.694485 0.803314 Ti
0.800605 0.194485 0.803314 Ti
0.800605 0.694485 0.803314 Ti
0.967272 0.027818 0.845373 Ti
0.967272 0.527818 0.845373 Ti
0.467272 0.027818 0.845373 Ti
0.467272 0.527818 0.845373 Ti
