Ti96 Nb1
1.0
9.513020 0.000000 0.000000
0.000000 9.350860 0.000000
0.000000 0.000000 18.547230
Ti Nb
96 1
Selective dynamics
direct
0.148626 0.375056 0.404248 T T T Ti
0.643241 0.332481 0.407238 T T T Ti
0.121918 0.852868 0.407161 T T T Ti
0.685652 0.882218 0.402482 T T T Ti
0.157486 0.370164 0.237589 T T T Ti
0.658899 0.366256 0.234022 T T T Ti
0.158131 0.870212 0.231713 T T T Ti
0.664360 0.877778 0.233114 T T T Ti
0.166720 0.375066 0.077481 F F F Ti
0.666687 0.374977 0.077431 F F F Ti
0.166830 0.875005 0.077510 F F F Ti
0.666607 0.874995 0.077582 F F F Ti
0.410900 0.389736 0.318248 T T T Ti
0.899844 0.372011 0.321451 T T T Ti
0.357497 0.920732 0.328669 T T T Ti
0.913058 0.881998 0.312831 T T T Ti
0.416702 0.375141 0.154991 F F F Ti
0.916753 0.374808 0.154947 F F F Ti
0.416756 0.874948 0.155252 F F F Ti
0.916648 0.875188 0.154893 F F F Ti
0.416656 0.375034 -0.000088 F F F Ti
0.916645 0.374982 -0.000123 F F F Ti
0.416676 0.874972 -0.000003 F F F Ti
0.916656 0.874997 -0.000106 F F F Ti
0.100156 0.127992 0.321450 T T T Ti
0.589100 0.110266 0.318247 T T T Ti
0.086942 0.618004 0.312830 T T T Ti
0.642503 0.579271 0.328669 T T T Ti
0.083246 0.125224 0.154945 F F F Ti
0.583298 0.124891 0.154993 F F F Ti
0.083352 0.624846 0.154894 F F F Ti
0.583246 0.625072 0.155251 F F F Ti
0.083356 0.125027 -0.000124 F F F Ti
0.583345 0.124978 -0.000086 F F F Ti
0.083345 0.625013 -0.000106 F F F Ti
0.583326 0.625031 -0.000005 F F F Ti
0.356758 0.167519 0.407238 T T T Ti
0.851373 0.124944 0.404248 T T T Ti
0.314347 0.617783 0.402482 T T T Ti
0.878081 0.647133 0.407161 T T T Ti
0.341100 0.133751 0.234022 T T T Ti
0.842514 0.129843 0.237589 T T T Ti
0.335639 0.622228 0.233114 T T T Ti
0.841868 0.629796 0.231713 T T T Ti
0.333313 0.125049 0.077431 F F F Ti
0.833279 0.124958 0.077482 F F F Ti
0.333392 0.625026 0.077581 F F F Ti
0.833169 0.625019 0.077509 F F F Ti
0.375021 0.375093 0.823885 F F F Ti
0.874966 0.374977 0.823906 F F F Ti
0.375049 0.874936 0.823814 F F F Ti
0.874995 0.874943 0.823840 F F F Ti
0.125032 0.124999 0.823906 F F F Ti
0.624981 0.124889 0.823886 F F F Ti
0.125008 0.625039 0.823841 F F F Ti
0.624956 0.625045 0.823813 F F F Ti
0.125063 0.375117 0.910183 F F F Ti
0.624981 0.375121 0.910220 F F F Ti
0.125107 0.874919 0.910220 F F F Ti
0.624964 0.874890 0.910277 F F F Ti
0.375024 0.124858 0.910223 F F F Ti
0.874942 0.124866 0.910184 F F F Ti
0.375038 0.625083 0.910276 F F F Ti
0.874897 0.625057 0.910219 F F F Ti
0.394575 0.384209 0.657089 T T T Ti
0.895860 0.378928 0.650474 T T T Ti
0.395536 0.889508 0.649275 T T T Ti
0.885287 0.886765 0.663120 T T T Ti
0.104139 0.121067 0.650474 T T T Ti
0.605424 0.115785 0.657089 T T T Ti
0.114712 0.613228 0.663121 T T T Ti
0.604464 0.610487 0.649276 T T T Ti
0.150616 0.367098 0.572140 T T T Ti
0.645141 0.350754 0.573647 T T T Ti
0.133751 0.860958 0.582702 T T T Ti
0.650183 0.862665 0.575393 T T T Ti
0.354859 0.149245 0.573647 T T T Ti
0.849383 0.132900 0.572140 T T T Ti
0.349817 0.637333 0.575393 T T T Ti
0.866248 0.639040 0.582702 T T T Ti
0.406855 0.400952 0.492485 T T T Ti
0.897840 0.375012 0.485588 T T T Ti
0.351751 0.914273 0.486391 T T T Ti
0.903806 0.889446 0.497226 T T T Ti
0.102160 0.124988 0.485588 T T T Ti
0.593145 0.099048 0.492485 T T T Ti
0.096194 0.610553 0.497226 T T T Ti
0.648249 0.585727 0.486391 T T T Ti
0.125027 0.875035 0.737680 F F F Ti
0.624968 0.874886 0.737557 F F F Ti
0.375029 0.625098 0.737554 F F F Ti
0.874968 0.624941 0.737680 F F F Ti
0.124920 0.374993 0.737701 F F F Ti
0.624963 0.374948 0.737730 F F F Ti
0.375028 0.125025 0.737729 F F F Ti
0.875075 0.124983 0.737701 F F F Ti
0.500000 0.750000 0.396109 T T T Nb

0.000000 0.000000 0.000000
0.000000 0.000000 0.000000
0.000000 0.000000 0.000000
0.000000 0.000000 0.000000
0.000000 0.000000 0.000000
0.000000 0.000000 0.000000
0.000000 0.000000 0.000000
0.000000 0.000000 0.000000
0.000000 0.000000 0.000000
0.000000 0.000000 0.000000
0.000000 0.000000 0.000000
0.000000 0.000000 0.000000
0.000000 0.000000 0.000000
0.000000 0.000000 0.000000
0.000000 0.000000 0.000000
0.000000 0.000000 0.000000
0.000000 0.000000 0.000000
0.000000 0.000000 0.000000
0.000000 0.000000 0.000000
0.000000 0.000000 0.000000
0.000000 0.000000 0.000000
0.000000 0.000000 0.000000
0.000000 0.000000 0.000000
0.000000 0.000000 0.000000
0.000000 0.000000 0.000000
0.000000 0.000000 0.000000
0.000000 0.000000 0.000000
0.000000 0.000000 0.000000
0.000000 0.000000 0.000000
0.000000 0.000000 0.000000
0.000000 0.000000 0.000000
0.000000 0.000000 0.000000
0.000000 0.000000 0.000000
0.000000 0.000000 0.000000
0.000000 0.000000 0.000000
0.000000 0.000000 0.000000
0.000000 0.000000 0.000000
0.000000 0.000000 0.000000
0.000000 0.000000 0.000000
0.000000 0.000000 0.000000
0.000000 0.000000 0.000000
0.000000 0.000000 0.000000
0.000000 0.000000 0.000000
0.000000 0.000000 0.000000
0.000000 0.000000 0.000000
0.000000 0.000000 0.000000
0.000000 0.000000 0.000000
0.000000 0.000000 0.000000
0.000000 0.000000 0.000000
0.000000 0.000000 0.000000
0.000000 0.000000 0.000000
0.000000 0.000000 0.000000
0.000000 0.000000 0.000000
0.000000 0.000000 0.000000
0.000000 0.000000 0.000000
0.000000 0.000000 0.000000
0.000000 0.000000 0.000000
0.000000 0.000000 0.000000
0.000000 0.000000 0.000000
0.000000 0.000000 0.000000
0.000000 0.000000 0.000000
0.000000 0.000000 0.000000
0.000000 0.000000 0.000000
0.000000 0.000000 0.000000
0.000000 0.000000 0.000000
0.000000 0.000000 0.000000
0.000000 0.000000 0.000000
0.000000 0.000000 0.000000
0.000000 0.000000 0.000000
0.000000 0.000000 0.000000
0.000000 0.000000 0.000000
0.000000 0.000000 0.000000
0.000000 0.000000 0.000000
0.000000 0.000000 0.000000
0.000000 0.000000 0.000000
0.000000 0.000000 0.000000
0.000000 0.000000 0.000000
0.000000 0.000000 0.000000
0.000000 0.000000 0.000000
0.000000 0.000000 0.000000
0.000000 0.000000 0.000000
0.000000 0.000000 0.000000
0.000000 0.000000 0.000000
0.000000 0.000000 0.000000
0.000000 0.000000 0.000000
0.000000 0.000000 0.000000
0.000000 0.000000 0.000000
0.000000 0.000000 0.000000
0.000000 0.000000 0.000000
0.000000 0.000000 0.000000
0.000000 0.000000 0.000000
0.000000 0.000000 0.000000
0.000000 0.000000 0.000000
0.000000 0.000000 0.000000
0.000000 0.000000 0.000000
0.000000 0.000000 0.000000
0.000000 0.000000 0.000000
