total_Ti
1.0
8.805261 0.000000 0.000000
-4.402630 7.625580 0.000000
0.000000 0.000000 26.288801
Ti
72
direct
0.055556 0.944452 0.490396 Ti
0.055556 0.444452 0.490396 Ti
0.555556 0.944452 0.490396 Ti
0.555556 0.444452 0.490396 Ti
0.222223 0.277785 0.736594 Ti
0.222223 0.777785 0.736594 Ti
0.722223 0.277785 0.736594 Ti
0.722223 0.777785 0.736594 Ti
0.388889 0.111119 0.771765 Ti
0.388889 0.611119 0.771765 Ti
0.888889 0.111119 0.771765 Ti
0.888889 0.611119 0.771765 Ti
0.222223 0.277785 0.525567 Ti
0.222223 0.777785 0.525567 Ti
0.722223 0.277785 0.525567 Ti
0.722223 0.777785 0.525567 Ti
0.388889 0.111119 0.560738 Ti
0.388889 0.611119 0.560738 Ti
0.888889 0.111119 0.560738 Ti
0.888889 0.611119 0.560738 Ti
0.055556 0.944452 0.595910 Ti
0.055556 0.444452 0.595910 Ti
0.555556 0.944452 0.595910 Ti
0.555556 0.444452 0.595910 Ti
0.222223 0.277785 0.631081 Ti
0.222223 0.777785 0.631081 Ti
0.722223 0.277785 0.631081 Ti
0.722223 0.777785 0.631081 Ti
0.388889 0.111119 0.666252 Ti
0.388889 0.611119 0.666252 Ti
0.888889 0.111119 0.666252 Ti
0.888889 0.611119 0.666252 Ti
0.055556 0.944452 0.701423 Ti
0.055556 0.444452 0.701423 Ti
0.555556 0.944452 0.701423 Ti
0.555556 0.444452 0.701423 Ti
0.111111 0.888889 -0.000000 Ti
0.111111 0.888889 0.174775 Ti
0.111111 0.555556 -0.000000 Ti
0.222222 0.777778 0.087387 Ti
0.111111 0.555556 0.174775 Ti
0.444444 0.888889 -0.000000 Ti
0.111111 0.222222 -0.000000 Ti
0.222222 0.777778 0.262162 Ti
0.222222 0.444444 0.087387 Ti
0.444444 0.888889 0.174775 Ti
0.111111 0.222222 0.174775 Ti
0.444444 0.555556 -0.000000 Ti
0.222222 0.444444 0.262162 Ti
0.555556 0.777778 0.087387 Ti
0.222222 0.111111 0.087387 Ti
0.444444 0.555556 0.174775 Ti
0.777778 0.888889 -0.000000 Ti
0.444444 0.222222 -0.000000 Ti
0.555556 0.777778 0.262162 Ti
0.222222 0.111111 0.262162 Ti
0.555556 0.444444 0.087387 Ti
0.777778 0.888889 0.174775 Ti
0.444444 0.222222 0.174775 Ti
0.777778 0.555556 -0.000000 Ti
0.555556 0.444444 0.262162 Ti
0.888889 0.777778 0.087387 Ti
0.555556 0.111111 0.087387 Ti
0.777778 0.555556 0.174775 Ti
0.777778 0.222222 -0.000000 Ti
0.888889 0.777778 0.262162 Ti
0.555556 0.111111 0.262162 Ti
0.888889 0.444444 0.087387 Ti
0.777778 0.222222 0.174775 Ti
0.888889 0.444444 0.262162 Ti
0.888889 0.111111 0.087387 Ti
0.888889 0.111111 0.262162 Ti
