Ti82 Cr1
1.0
6.391540 0.000000 0.000000
0.000000 9.587310 0.000000
0.000000 0.000000 23.271695
Ti Cr
82 1
Selective dynamics
direct
0.632441 0.081774 0.580250 F F F Ti
0.123278 0.082112 0.710869 F F F Ti
0.625383 0.083035 0.709688 F F F Ti
0.124940 0.083293 0.838627 F F F Ti
0.624861 0.083330 0.838520 F F F Ti
0.122355 0.421324 0.580138 F F F Ti
0.625644 0.417243 0.580436 F F F Ti
0.124726 0.417026 0.709653 F F F Ti
0.624437 0.416770 0.709573 F F F Ti
0.125020 0.416666 0.838489 F F F Ti
0.624876 0.416681 0.838481 F F F Ti
0.125214 0.750581 0.580606 F F F Ti
0.625582 0.749732 0.580498 F F F Ti
0.124939 0.749721 0.709674 F F F Ti
0.625572 0.749573 0.709715 F F F Ti
0.124983 0.749874 0.838527 F F F Ti
0.624955 0.749837 0.838549 F F F Ti
0.872140 0.251223 0.645491 F F F Ti
0.374957 0.249979 0.774045 F F F Ti
0.874577 0.250202 0.774138 F F F Ti
0.375007 0.250019 0.902925 F F F Ti
0.874922 0.250030 0.902933 F F F Ti
0.375197 0.583521 0.645095 F F F Ti
0.874605 0.583800 0.645197 F F F Ti
0.374980 0.583268 0.774058 F F F Ti
0.874954 0.583221 0.774086 F F F Ti
0.374978 0.583281 0.902929 F F F Ti
0.874992 0.583267 0.902931 F F F Ti
0.377938 0.913912 0.645653 F F F Ti
0.875862 0.916454 0.645263 F F F Ti
0.375380 0.916315 0.774199 F F F Ti
0.874520 0.916272 0.774196 F F F Ti
0.375023 0.916604 0.902948 F F F Ti
0.874910 0.916610 0.902941 F F F Ti
0.125146 0.166750 0.386644 F F F Ti
0.625439 0.166749 0.386611 F F F Ti
0.125073 0.666894 0.386722 F F F Ti
0.624982 0.666811 0.386673 F F F Ti
0.124992 0.166667 0.000038 F F F Ti
0.624976 0.166666 0.000037 F F F Ti
0.124990 0.666666 0.000030 F F F Ti
0.624973 0.666662 0.000034 F F F Ti
0.124994 0.833334 0.096693 F F F Ti
0.624989 0.833334 0.096693 F F F Ti
0.125305 0.833591 0.483420 F F F Ti
0.625448 0.833277 0.483330 F F F Ti
0.124996 0.333337 0.096689 F F F Ti
0.624986 0.333337 0.096688 F F F Ti
0.124941 0.334275 0.483071 F F F Ti
0.625842 0.333611 0.483250 F F F Ti
0.375362 0.583769 0.483277 F F F Ti
0.874791 0.583807 0.483247 F F F Ti
0.375002 0.583330 0.096690 F F F Ti
0.875013 0.583330 0.096690 F F F Ti
0.374995 0.083339 0.096691 F F F Ti
0.875004 0.083339 0.096689 F F F Ti
0.376926 0.083225 0.482902 F F F Ti
0.876318 0.083578 0.483306 F F F Ti
0.375194 0.416795 0.386635 F F F Ti
0.874990 0.416829 0.386618 F F F Ti
0.375125 0.916644 0.386643 F F F Ti
0.875134 0.916743 0.386712 F F F Ti
0.374981 0.416671 0.000035 F F F Ti
0.874979 0.416671 0.000037 F F F Ti
0.374988 0.916656 0.000053 F F F Ti
0.874973 0.916656 0.000049 F F F Ti
0.375040 0.083351 0.290010 F F F Ti
0.875038 0.083338 0.290015 F F F Ti
0.124997 0.166672 0.193356 F F F Ti
0.625006 0.166669 0.193351 F F F Ti
0.125014 0.333371 0.290010 F F F Ti
0.625028 0.333371 0.289995 F F F Ti
0.374992 0.416682 0.193351 F F F Ti
0.874995 0.416683 0.193351 F F F Ti
0.375008 0.583383 0.290012 F F F Ti
0.875037 0.583390 0.290011 F F F Ti
0.124998 0.666682 0.193362 F F F Ti
0.624991 0.666677 0.193358 F F F Ti
0.124989 0.833359 0.290024 F F F Ti
0.625051 0.833352 0.290013 F F F Ti
0.374994 0.916667 0.193357 F F F Ti
0.874996 0.916669 0.193358 F F F Ti
0.228311 0.153374 0.604099 T T T Cr

0.000000 0.000000 0.000000
0.000000 0.000000 0.000000
0.000000 0.000000 0.000000
0.000000 0.000000 0.000000
0.000000 0.000000 0.000000
0.000000 0.000000 0.000000
0.000000 0.000000 0.000000
0.000000 0.000000 0.000000
0.000000 0.000000 0.000000
0.000000 0.000000 0.000000
0.000000 0.000000 0.000000
0.000000 0.000000 0.000000
0.000000 0.000000 0.000000
0.000000 0.000000 0.000000
0.000000 0.000000 0.000000
0.000000 0.000000 0.000000
0.000000 0.000000 0.000000
0.000000 0.000000 0.000000
0.000000 0.000000 0.000000
0.000000 0.000000 0.000000
0.000000 0.000000 0.000000
0.000000 0.000000 0.000000
0.000000 0.000000 0.000000
0.000000 0.000000 0.000000
0.000000 0.000000 0.000000
0.000000 0.000000 0.000000
0.000000 0.000000 0.000000
0.000000 0.000000 0.000000
0.000000 0.000000 0.000000
0.000000 0.000000 0.000000
0.000000 0.000000 0.000000
0.000000 0.000000 0.000000
0.000000 0.000000 0.000000
0.000000 0.000000 0.000000
0.000000 0.000000 0.000000
0.000000 0.000000 0.000000
0.000000 0.000000 0.000000
0.000000 0.000000 0.000000
0.000000 0.000000 0.000000
0.000000 0.000000 0.000000
0.000000 0.000000 0.000000
0.000000 0.000000 0.000000
0.000000 0.000000 0.000000
0.000000 0.000000 0.000000
0.000000 0.000000 0.000000
0.000000 0.000000 0.000000
0.000000 0.000000 0.000000
0.000000 0.000000 0.000000
0.000000 0.000000 0.000000
0.000000 0.000000 0.000000
0.000000 0.000000 0.000000
0.000000 0.000000 0.000000
0.000000 0.000000 0.000000
0.000000 0.000000 0.000000
0.000000 0.000000 0.000000
0.000000 0.000000 0.000000
0.000000 0.000000 0.000000
0.000000 0.000000 0.000000
0.000000 0.000000 0.000000
0.000000 0.000000 0.000000
0.000000 0.000000 0.000000
0.000000 0.000000 0.000000
0.000000 0.000000 0.000000
0.000000 0.000000 0.000000
0.000000 0.000000 0.000000
0.000000 0.000000 0.000000
0.000000 0.000000 0.000000
0.000000 0.000000 0.000000
0.000000 0.000000 0.000000
0.000000 0.000000 0.000000
0.000000 0.000000 0.000000
0.000000 0.000000 0.000000
0.000000 0.000000 0.000000
0.000000 0.000000 0.000000
0.000000 0.000000 0.000000
0.000000 0.000000 0.000000
0.000000 0.000000 0.000000
0.000000 0.000000 0.000000
0.000000 0.000000 0.000000
0.000000 0.000000 0.000000
0.000000 0.000000 0.000000
0.000000 0.000000 0.000000
0.000000 0.000000 0.000000
