total_Ti
1.0
5.745590 0.000000 0.000000
0.000000 9.072750 0.000000
0.000000 0.000000 25.667173
Ti
64
direct
0.041667 0.875000 0.363619 Ti
0.041667 0.375000 0.363619 Ti
0.541667 0.875000 0.363619 Ti
0.541667 0.375000 0.363619 Ti
0.291667 0.625000 0.396676 Ti
0.291667 0.125000 0.396676 Ti
0.791667 0.625000 0.396676 Ti
0.791667 0.125000 0.396676 Ti
0.291667 0.875000 0.264449 Ti
0.291667 0.375000 0.264449 Ti
0.791667 0.875000 0.264449 Ti
0.791667 0.375000 0.264449 Ti
0.041667 0.625000 0.297507 Ti
0.041667 0.125000 0.297507 Ti
0.541667 0.625000 0.297507 Ti
0.541667 0.125000 0.297507 Ti
0.041667 0.875000 0.165281 Ti
0.041667 0.375000 0.165281 Ti
0.541667 0.875000 0.165281 Ti
0.541667 0.375000 0.165281 Ti
0.291667 0.625000 0.198337 Ti
0.291667 0.125000 0.198337 Ti
0.791667 0.625000 0.198337 Ti
0.791667 0.125000 0.198337 Ti
0.291667 0.875000 0.066112 Ti
0.291667 0.375000 0.066112 Ti
0.791667 0.875000 0.066112 Ti
0.791667 0.375000 0.066112 Ti
0.041667 0.625000 0.099169 Ti
0.041667 0.125000 0.099169 Ti
0.541667 0.625000 0.099169 Ti
0.541667 0.125000 0.099169 Ti
0.458333 0.625000 0.604234 Ti
0.458333 0.125000 0.604234 Ti
0.958333 0.625000 0.604234 Ti
0.958333 0.125000 0.604234 Ti
0.125000 0.625000 0.707667 Ti
0.125000 0.125000 0.707667 Ti
0.625000 0.625000 0.707667 Ti
0.625000 0.125000 0.707667 Ti
0.291667 0.625000 0.811100 Ti
0.291667 0.125000 0.811100 Ti
0.791667 0.625000 0.811100 Ti
0.791667 0.125000 0.811100 Ti
0.125000 0.875000 0.552517 Ti
0.125000 0.375000 0.552517 Ti
0.625000 0.875000 0.552517 Ti
0.625000 0.375000 0.552517 Ti
0.291667 0.875000 0.655950 Ti
0.291667 0.375000 0.655950 Ti
0.791667 0.875000 0.655950 Ti
0.791667 0.375000 0.655950 Ti
0.458333 0.875000 0.759384 Ti
0.458333 0.375000 0.759384 Ti
0.958333 0.875000 0.759384 Ti
0.958333 0.375000 0.759384 Ti
0.125000 0.875000 0.862817 Ti
0.125000 0.375000 0.862817 Ti
0.625000 0.875000 0.862817 Ti
0.625000 0.375000 0.862817 Ti
0.791667 0.125000 0.000000 Ti
0.291667 0.125000 0.000000 Ti
0.791667 0.625000 -0.000000 Ti
0.291667 0.625000 -0.000000 Ti
