alpha_Ti
1.0
5.745590 0.000000 0.000000
0.000000 9.072750 0.000000
0.000000 0.000000 25.667173
Ti
36
direct
0.041667 0.875000 0.363619 Ti
0.041667 0.375000 0.363619 Ti
0.541667 0.875000 0.363619 Ti
0.541667 0.375000 0.363619 Ti
0.291667 0.625000 0.396676 Ti
0.291667 0.125000 0.396676 Ti
0.791667 0.625000 0.396676 Ti
0.791667 0.125000 0.396676 Ti
0.291667 0.875000 0.264449 Ti
0.291667 0.375000 0.264449 Ti
0.791667 0.875000 0.264449 Ti
0.791667 0.375000 0.264449 Ti
0.041667 0.625000 0.297507 Ti
0.041667 0.125000 0.297507 Ti
0.541667 0.625000 0.297507 Ti
0.541667 0.125000 0.297507 Ti
0.041667 0.875000 0.165281 Ti
0.041667 0.375000 0.165281 Ti
0.541667 0.875000 0.165281 Ti
0.541667 0.375000 0.165281 Ti
0.291667 0.625000 0.198337 Ti
0.291667 0.125000 0.198337 Ti
0.791667 0.625000 0.198337 Ti
0.791667 0.125000 0.198337 Ti
0.291667 0.875000 0.066112 Ti
0.291667 0.375000 0.066112 Ti
0.791667 0.875000 0.066112 Ti
0.791667 0.375000 0.066112 Ti
0.041667 0.625000 0.099169 Ti
0.041667 0.125000 0.099169 Ti
0.541667 0.625000 0.099169 Ti
0.541667 0.125000 0.099169 Ti
0.791667 0.125000 0.000000 Ti
0.291667 0.125000 0.000000 Ti
0.791667 0.625000 -0.000000 Ti
0.291667 0.625000 -0.000000 Ti
