Ti82 Nb1
1.0
6.391540 0.000000 0.000000
0.000000 9.587310 0.000000
0.000000 0.000000 23.271695
Ti Nb
82 1
Selective dynamics
direct
0.633642 0.083346 0.581670 F F F Ti
0.125258 0.083341 0.709481 F F F Ti
0.625456 0.083344 0.709692 F F F Ti
0.125017 0.083338 0.838418 F F F Ti
0.625045 0.083339 0.838449 F F F Ti
0.124926 0.417322 0.580661 F F F Ti
0.625613 0.417092 0.580657 F F F Ti
0.125176 0.416765 0.709569 F F F Ti
0.625235 0.416829 0.709608 F F F Ti
0.125027 0.416673 0.838436 F F F Ti
0.625029 0.416681 0.838447 F F F Ti
0.124781 0.749291 0.580674 F F F Ti
0.625609 0.749607 0.580661 F F F Ti
0.125126 0.749920 0.709579 F F F Ti
0.625236 0.749870 0.709619 F F F Ti
0.125014 0.750002 0.838439 F F F Ti
0.625026 0.749995 0.838450 F F F Ti
0.376017 0.250458 0.645315 F F F Ti
0.875929 0.250521 0.645238 F F F Ti
0.375043 0.250024 0.774004 F F F Ti
0.875149 0.250032 0.774010 F F F Ti
0.374998 0.249998 0.902871 F F F Ti
0.875025 0.249999 0.902875 F F F Ti
0.375196 0.583440 0.645110 F F F Ti
0.875017 0.583325 0.645170 F F F Ti
0.375031 0.583344 0.774007 F F F Ti
0.875086 0.583325 0.774023 F F F Ti
0.374996 0.583332 0.902876 F F F Ti
0.875016 0.583330 0.902880 F F F Ti
0.376012 0.916228 0.645326 F F F Ti
0.875922 0.916168 0.645241 F F F Ti
0.375037 0.916660 0.774004 F F F Ti
0.875141 0.916647 0.774009 F F F Ti
0.374990 0.916669 0.902867 F F F Ti
0.875019 0.916667 0.902871 F F F Ti
0.124151 0.166883 0.386545 F F F Ti
0.624149 0.166809 0.386638 F F F Ti
0.124920 0.666363 0.386484 F F F Ti
0.624983 0.666615 0.386617 F F F Ti
0.125001 0.166662 -0.000007 F F F Ti
0.624989 0.166663 -0.000004 F F F Ti
0.125001 0.666676 -0.000003 F F F Ti
0.624991 0.666674 -0.000002 F F F Ti
0.124999 0.833340 0.096666 F F F Ti
0.624991 0.833340 0.096665 F F F Ti
0.121786 0.830023 0.482946 F F F Ti
0.625724 0.832472 0.483370 F F F Ti
0.124998 0.333330 0.096665 F F F Ti
0.624989 0.333331 0.096664 F F F Ti
0.121913 0.336605 0.482921 F F F Ti
0.625497 0.334210 0.483370 F F F Ti
0.375362 0.583614 0.483374 F F F Ti
0.874033 0.583416 0.483351 F F F Ti
0.375000 0.583335 0.096664 F F F Ti
0.875000 0.583336 0.096661 F F F Ti
0.374996 0.083336 0.096671 F F F Ti
0.874993 0.083338 0.096667 F F F Ti
0.868865 0.083326 0.482795 F F F Ti
0.375015 0.416805 0.386620 F F F Ti
0.874316 0.416879 0.386485 F F F Ti
0.374648 0.916450 0.386672 F F F Ti
0.874381 0.916504 0.386503 F F F Ti
0.374988 0.416663 -0.000005 F F F Ti
0.875002 0.416663 -0.000002 F F F Ti
0.374988 0.916671 -0.000003 F F F Ti
0.875004 0.916670 -0.000000 F F F Ti
0.374847 0.083321 0.290014 F F F Ti
0.874797 0.083346 0.289967 F F F Ti
0.124984 0.166660 0.193335 F F F Ti
0.624944 0.166660 0.193330 F F F Ti
0.124942 0.333375 0.289961 F F F Ti
0.624824 0.333327 0.289961 F F F Ti
0.374971 0.416668 0.193321 F F F Ti
0.874955 0.416664 0.193315 F F F Ti
0.375042 0.583353 0.289967 F F F Ti
0.874886 0.583364 0.289927 F F F Ti
0.124992 0.666667 0.193321 F F F Ti
0.624954 0.666669 0.193315 F F F Ti
0.124949 0.833332 0.289976 F F F Ti
0.624845 0.833322 0.289971 F F F Ti
0.374959 0.916670 0.193334 F F F Ti
0.874961 0.916662 0.193326 F F F Ti
0.276567 0.082740 0.525809 T T T Nb

0.000000 0.000000 0.000000
0.000000 0.000000 0.000000
0.000000 0.000000 0.000000
0.000000 0.000000 0.000000
0.000000 0.000000 0.000000
0.000000 0.000000 0.000000
0.000000 0.000000 0.000000
0.000000 0.000000 0.000000
0.000000 0.000000 0.000000
0.000000 0.000000 0.000000
0.000000 0.000000 0.000000
0.000000 0.000000 0.000000
0.000000 0.000000 0.000000
0.000000 0.000000 0.000000
0.000000 0.000000 0.000000
0.000000 0.000000 0.000000
0.000000 0.000000 0.000000
0.000000 0.000000 0.000000
0.000000 0.000000 0.000000
0.000000 0.000000 0.000000
0.000000 0.000000 0.000000
0.000000 0.000000 0.000000
0.000000 0.000000 0.000000
0.000000 0.000000 0.000000
0.000000 0.000000 0.000000
0.000000 0.000000 0.000000
0.000000 0.000000 0.000000
0.000000 0.000000 0.000000
0.000000 0.000000 0.000000
0.000000 0.000000 0.000000
0.000000 0.000000 0.000000
0.000000 0.000000 0.000000
0.000000 0.000000 0.000000
0.000000 0.000000 0.000000
0.000000 0.000000 0.000000
0.000000 0.000000 0.000000
0.000000 0.000000 0.000000
0.000000 0.000000 0.000000
0.000000 0.000000 0.000000
0.000000 0.000000 0.000000
0.000000 0.000000 0.000000
0.000000 0.000000 0.000000
0.000000 0.000000 0.000000
0.000000 0.000000 0.000000
0.000000 0.000000 0.000000
0.000000 0.000000 0.000000
0.000000 0.000000 0.000000
0.000000 0.000000 0.000000
0.000000 0.000000 0.000000
0.000000 0.000000 0.000000
0.000000 0.000000 0.000000
0.000000 0.000000 0.000000
0.000000 0.000000 0.000000
0.000000 0.000000 0.000000
0.000000 0.000000 0.000000
0.000000 0.000000 0.000000
0.000000 0.000000 0.000000
0.000000 0.000000 0.000000
0.000000 0.000000 0.000000
0.000000 0.000000 0.000000
0.000000 0.000000 0.000000
0.000000 0.000000 0.000000
0.000000 0.000000 0.000000
0.000000 0.000000 0.000000
0.000000 0.000000 0.000000
0.000000 0.000000 0.000000
0.000000 0.000000 0.000000
0.000000 0.000000 0.000000
0.000000 0.000000 0.000000
0.000000 0.000000 0.000000
0.000000 0.000000 0.000000
0.000000 0.000000 0.000000
0.000000 0.000000 0.000000
0.000000 0.000000 0.000000
0.000000 0.000000 0.000000
0.000000 0.000000 0.000000
0.000000 0.000000 0.000000
0.000000 0.000000 0.000000
0.000000 0.000000 0.000000
0.000000 0.000000 0.000000
0.000000 0.000000 0.000000
0.000000 0.000000 0.000000
0.000000 0.000000 0.000000
