Ti96 Al1
1.0
9.513020 0.000000 0.000000
0.000000 9.350860 0.000000
0.000000 0.000000 18.547230
Ti Al
96 1
Selective dynamics
direct
0.143573 0.374895 0.405056 T T T Ti
0.654905 0.345001 0.395540 T T T Ti
0.135308 0.858401 0.397014 T T T Ti
0.664516 0.865739 0.404568 T T T Ti
0.162840 0.371361 0.235981 T T T Ti
0.657787 0.374244 0.234473 T T T Ti
0.163343 0.874164 0.235052 T T T Ti
0.656780 0.870502 0.235608 T T T Ti
0.166666 0.375032 0.077669 F F F Ti
0.666673 0.375009 0.077647 F F F Ti
0.166674 0.874988 0.077688 F F F Ti
0.666671 0.874989 0.077673 F F F Ti
0.405778 0.389182 0.316923 T T T Ti
0.904914 0.376717 0.318229 T T T Ti
0.399326 0.885118 0.326727 T T T Ti
0.907027 0.881315 0.311836 T T T Ti
0.416677 0.375009 0.155280 F F F Ti
0.916676 0.374984 0.155277 F F F Ti
0.416666 0.875009 0.155324 F F F Ti
0.916682 0.874980 0.155298 F F F Ti
0.416663 0.375029 -0.000017 F F F Ti
0.916641 0.375019 -0.000008 F F F Ti
0.416663 0.874983 -0.000026 F F F Ti
0.916652 0.874987 -0.000012 F F F Ti
0.095086 0.123283 0.318228 T T T Ti
0.594222 0.110819 0.316923 T T T Ti
0.092973 0.618685 0.311835 T T T Ti
0.600674 0.614882 0.326726 T T T Ti
0.083325 0.125022 0.155277 F F F Ti
0.583323 0.124998 0.155280 F F F Ti
0.083318 0.625027 0.155298 F F F Ti
0.583334 0.624997 0.155324 F F F Ti
0.083360 0.124987 -0.000007 F F F Ti
0.583338 0.124978 -0.000016 F F F Ti
0.083349 0.625022 -0.000011 F F F Ti
0.583338 0.625026 -0.000026 F F F Ti
0.345094 0.154999 0.395540 T T T Ti
0.856426 0.125105 0.405056 T T T Ti
0.335483 0.634261 0.404568 T T T Ti
0.864691 0.641599 0.397014 T T T Ti
0.342212 0.125757 0.234473 T T T Ti
0.837159 0.128640 0.235981 T T T Ti
0.343219 0.629499 0.235608 T T T Ti
0.836657 0.625837 0.235051 T T T Ti
0.333326 0.124998 0.077648 F F F Ti
0.833333 0.124974 0.077669 F F F Ti
0.333328 0.625018 0.077673 F F F Ti
0.833326 0.625019 0.077688 F F F Ti
0.374984 0.375019 0.823887 F F F Ti
0.874982 0.374972 0.823884 F F F Ti
0.375028 0.874935 0.823776 F F F Ti
0.875057 0.874987 0.823838 F F F Ti
0.125022 0.125023 0.823885 F F F Ti
0.625022 0.124983 0.823888 F F F Ti
0.124947 0.625013 0.823839 F F F Ti
0.624975 0.625059 0.823776 F F F Ti
0.124980 0.375025 0.910164 F F F Ti
0.625007 0.375022 0.910154 F F F Ti
0.125020 0.874970 0.910136 F F F Ti
0.624993 0.874965 0.910132 F F F Ti
0.374997 0.124979 0.910155 F F F Ti
0.875025 0.124974 0.910163 F F F Ti
0.375011 0.625035 0.910132 F F F Ti
0.874985 0.625030 0.910136 F F F Ti
0.385550 0.375708 0.667087 T T T Ti
0.881590 0.386542 0.646888 T T T Ti
0.384716 0.889875 0.654832 T T T Ti
0.897767 0.882950 0.660666 T T T Ti
0.118410 0.113456 0.646888 T T T Ti
0.614449 0.124289 0.667087 T T T Ti
0.102231 0.617047 0.660667 T T T Ti
0.615283 0.610122 0.654832 T T T Ti
0.138516 0.364897 0.571060 T T T Ti
0.629611 0.349017 0.575194 T T T Ti
0.150281 0.850262 0.574382 T T T Ti
0.672824 0.906414 0.578963 T T T Ti
0.370389 0.150982 0.575194 T T T Ti
0.861484 0.135102 0.571060 T T T Ti
0.327175 0.593586 0.578963 T T T Ti
0.849718 0.649737 0.574382 T T T Ti
0.403591 0.391874 0.482641 T T T Ti
0.889206 0.381282 0.489033 T T T Ti
0.346753 0.933464 0.479411 T T T Ti
0.913409 0.886516 0.490161 T T T Ti
0.110794 0.118718 0.489033 T T T Ti
0.596408 0.108126 0.482641 T T T Ti
0.086591 0.613484 0.490161 T T T Ti
0.653247 0.566536 0.479411 T T T Ti
0.125347 0.875020 0.737664 F F F Ti
0.625099 0.874888 0.737680 F F F Ti
0.374893 0.625097 0.737680 F F F Ti
0.874645 0.624965 0.737667 F F F Ti
0.124800 0.374831 0.737698 F F F Ti
0.625091 0.374811 0.737699 F F F Ti
0.374902 0.125172 0.737697 F F F Ti
0.875193 0.125152 0.737694 F F F Ti
0.500000 0.750000 0.520202 T T T Al

0.000000 0.000000 0.000000
0.000000 0.000000 0.000000
0.000000 0.000000 0.000000
0.000000 0.000000 0.000000
0.000000 0.000000 0.000000
0.000000 0.000000 0.000000
0.000000 0.000000 0.000000
0.000000 0.000000 0.000000
0.000000 0.000000 0.000000
0.000000 0.000000 0.000000
0.000000 0.000000 0.000000
0.000000 0.000000 0.000000
0.000000 0.000000 0.000000
0.000000 0.000000 0.000000
0.000000 0.000000 0.000000
0.000000 0.000000 0.000000
0.000000 0.000000 0.000000
0.000000 0.000000 0.000000
0.000000 0.000000 0.000000
0.000000 0.000000 0.000000
0.000000 0.000000 0.000000
0.000000 0.000000 0.000000
0.000000 0.000000 0.000000
0.000000 0.000000 0.000000
0.000000 0.000000 0.000000
0.000000 0.000000 0.000000
0.000000 0.000000 0.000000
0.000000 0.000000 0.000000
0.000000 0.000000 0.000000
0.000000 0.000000 0.000000
0.000000 0.000000 0.000000
0.000000 0.000000 0.000000
0.000000 0.000000 0.000000
0.000000 0.000000 0.000000
0.000000 0.000000 0.000000
0.000000 0.000000 0.000000
0.000000 0.000000 0.000000
0.000000 0.000000 0.000000
0.000000 0.000000 0.000000
0.000000 0.000000 0.000000
0.000000 0.000000 0.000000
0.000000 0.000000 0.000000
0.000000 0.000000 0.000000
0.000000 0.000000 0.000000
0.000000 0.000000 0.000000
0.000000 0.000000 0.000000
0.000000 0.000000 0.000000
0.000000 0.000000 0.000000
0.000000 0.000000 0.000000
0.000000 0.000000 0.000000
0.000000 0.000000 0.000000
0.000000 0.000000 0.000000
0.000000 0.000000 0.000000
0.000000 0.000000 0.000000
0.000000 0.000000 0.000000
0.000000 0.000000 0.000000
0.000000 0.000000 0.000000
0.000000 0.000000 0.000000
0.000000 0.000000 0.000000
0.000000 0.000000 0.000000
0.000000 0.000000 0.000000
0.000000 0.000000 0.000000
0.000000 0.000000 0.000000
0.000000 0.000000 0.000000
0.000000 0.000000 0.000000
0.000000 0.000000 0.000000
0.000000 0.000000 0.000000
0.000000 0.000000 0.000000
0.000000 0.000000 0.000000
0.000000 0.000000 0.000000
0.000000 0.000000 0.000000
0.000000 0.000000 0.000000
0.000000 0.000000 0.000000
0.000000 0.000000 0.000000
0.000000 0.000000 0.000000
0.000000 0.000000 0.000000
0.000000 0.000000 0.000000
0.000000 0.000000 0.000000
0.000000 0.000000 0.000000
0.000000 0.000000 0.000000
0.000000 0.000000 0.000000
0.000000 0.000000 0.000000
0.000000 0.000000 0.000000
0.000000 0.000000 0.000000
0.000000 0.000000 0.000000
0.000000 0.000000 0.000000
0.000000 0.000000 0.000000
0.000000 0.000000 0.000000
0.000000 0.000000 0.000000
0.000000 0.000000 0.000000
0.000000 0.000000 0.000000
0.000000 0.000000 0.000000
0.000000 0.000000 0.000000
0.000000 0.000000 0.000000
0.000000 0.000000 0.000000
0.000000 0.000000 0.000000
0.000000 0.000000 0.000000
