total_Ti
1.0
4.756510 0.000000 0.000000
0.000000 4.675430 0.000000
0.000000 0.000000 22.011761
Ti
24
direct
0.333333 0.750000 0.327306 Ti
0.333333 0.750000 0.196384 Ti
0.333333 0.750000 0.065461 Ti
0.833334 0.750000 0.261846 Ti
0.833334 0.750000 0.130923 Ti
0.833334 0.750000 -0.000000 Ti
0.166666 0.250000 0.261845 Ti
0.166666 0.250000 0.130923 Ti
0.166666 0.250000 -0.000000 Ti
0.666667 0.250000 0.327306 Ti
0.666667 0.250000 0.196384 Ti
0.666667 0.250000 0.065461 Ti
0.750000 0.750000 0.845540 Ti
0.250000 0.250000 0.845540 Ti
0.250000 0.750000 0.772786 Ti
0.750000 0.250000 0.772786 Ti
0.750000 0.750000 0.700031 Ti
0.250000 0.250000 0.700031 Ti
0.250000 0.750000 0.627278 Ti
0.750000 0.250000 0.627278 Ti
0.750000 0.750000 0.554523 Ti
0.250000 0.250000 0.554523 Ti
0.250000 0.750000 0.481769 Ti
0.750000 0.250000 0.481769 Ti
