beta_Ti
1.0
4.756510 0.000000 0.000000
0.000000 4.675430 0.000000
0.000000 0.000000 22.011761
Ti
12
direct
0.750000 0.750000 0.845540 Ti
0.250000 0.250000 0.845540 Ti
0.250000 0.750000 0.772786 Ti
0.750000 0.250000 0.772786 Ti
0.750000 0.750000 0.700031 Ti
0.250000 0.250000 0.700031 Ti
0.250000 0.750000 0.627278 Ti
0.750000 0.250000 0.627278 Ti
0.750000 0.750000 0.554523 Ti
0.250000 0.250000 0.554523 Ti
0.250000 0.750000 0.481769 Ti
0.750000 0.250000 0.481769 Ti
