substance_top
1.0
   2.9630000000000001    0.0000000000000000    0.0000000000000002
   0.0000000000000025   15.3989999999999991    0.0000000000000009
   0.0000000000000000    0.0000000000000000   52.6920000000000002
Fe
52
Selective dynamics
direct
   0.3530400000000001    0.0451600000000000    0.3986088969862598 T T T Fe
   0.3478800000000001    0.1587300000000000    0.4431128064981403 T T T Fe
   0.3467900000000000    0.1101100000000000    0.5187884308813483 F F F Fe
   0.3427100000000000    0.2723000000000000    0.4876262051165263 F F F Fe
   0.3457200000000001    0.0614800000000000    0.5944640552645564 F F F Fe
   0.3416300000000000    0.2236700000000000    0.5633018294997344 F F F Fe
   0.3375500000000000    0.3858699999999999    0.5321301146284066 F F F Fe
   0.3489500000000000    0.2073600000000000    0.3674371821149321 T T T Fe
   0.3437800000000000    0.3209400000000000    0.4119505807333183 T T T Fe
   0.3396899999999999    0.4831299999999999    0.3807883549684962 T T T Fe
   0.3386200000000000    0.4344999999999999    0.4564544902451986 T T T Fe
   0.3345300000000000    0.5967000000000000    0.4252922644803766 T T T Fe
   0.3304300000000001    0.7588900000000000    0.3941300387155546 T T T Fe
   0.3334500000000000    0.5480600000000000    0.5009678888635848 F F F Fe
   0.3293600000000000    0.7102600000000000    0.4698056630987627 T T T Fe
   0.3252700000000000    0.8724700000000000    0.4386339482274350 T T T Fe
   0.3405600000000000    0.1750400000000000    0.6389679647764367 F F F Fe
   0.3364600000000000    0.3372400000000000    0.6078057390116147 F F F Fe
   0.3323800000000000    0.4994300000000000    0.5766435132467927 F F F Fe
   0.3272200000000001    0.6130100000000001    0.6211474227586731 F F F Fe
   0.3282900000000001    0.6616400000000000    0.5454717983754651 F F F Fe
   0.3242000000000000    0.8238400000000000    0.5143095726106430 F F F Fe
   0.3201000000000000    0.9860300000000000    0.4831473468458211 F F F Fe
   0.3231200000000000    0.7752000000000000    0.5899851969938512 F F F Fe
   0.3190300000000000    0.9374000000000000    0.5588229712290292 F F F Fe
   0.3179600000000001    0.8887699999999999    0.6344891065057314 F F F Fe
   0.8304500000000001    0.1350900000000000    0.4810028087755258 F F F Fe
   0.8293799999999999    0.0864600000000000    0.5566784331587339 F F F Fe
   0.8252900000000000    0.2486500000000000    0.5255162073939119 F F F Fe
   0.8366899999999999    0.0701500000000000    0.3608232748804374 T T T Fe
   0.8315300000000000    0.1837200000000000    0.4053271843923177 T T T Fe
   0.8274300000000000    0.3459199999999999    0.3741649586274957 T T T Fe
   0.8263600000000001    0.2972799999999999    0.4498405830107038 T T T Fe
   0.8222700000000002    0.4594800000000000    0.4186783572458818 T T T Fe
   0.8181899999999999    0.6216800000000000    0.3875066423745541 T T T Fe
   0.8212000000000000    0.4108500000000000    0.4943444925225841 F F F Fe
   0.8171000000000002    0.5730499999999999    0.4631822667577621 T T T Fe
   0.8130200000000000    0.7352500000000000    0.4320200409929403 T T T Fe
   0.8089300000000000    0.8974500000000000    0.4008483261216124 T T T Fe
   0.8283100000000000    0.0378300000000000    0.6323540575419418 F F F Fe
   0.8242200000000000    0.2000200000000000    0.6011918317771200 F F F Fe
   0.8201199999999998    0.3622300000000000    0.5700201169057922 F F F Fe
   0.8149600000000000    0.4757900000000000    0.6145335155241782 F F F Fe
   0.8160300000000000    0.5244200000000000    0.5388578911409703 F F F Fe
   0.8119400000000001    0.6866200000000000    0.5076956653761483 F F F Fe
   0.8078600000000001    0.8488200000000000    0.4765239505048206 T T T Fe
   0.8037600000000000    0.0110100000000000    0.4453617247399986 T T T Fe
   0.8108700000000001    0.6379899999999999    0.5833618006528507 F F F Fe
   0.8067700000000001    0.8001900000000000    0.5521995748880286 F F F Fe
   0.8026900000000000    0.9623800000000000    0.5210373491232068 F F F Fe
   0.8056999999999999    0.7515500000000001    0.6278751992712367 F F F Fe
   0.8016100000000000    0.9137599999999999    0.5967129735064147 F F F Fe
