substance_top
1.0
   3.0750000000000002    0.0000000000000000    0.0000000000000002
   0.0000000000000026   16.0000000000000000    0.0000000000000010
   0.0000000000000000    0.0000000000000000   56.0109925000000004
Fe W
54 6
Selective dynamics
direct
   0.3530400000000000    0.0286600000000000    0.3980733156978071 T T T Fe
   0.3478800000000001    0.1409000000000000    0.4418511509147066 T T T Fe
   0.3467900000000000    0.0900100000000000    0.5156984229479598 F F F Fe
   0.3427100000000000    0.2531300000000000    0.4856382610966946 T T T Fe
   0.3457200000000000    0.0391300000000000    0.5895364200161245 F F F Fe
   0.3416299999999999    0.2022400000000000    0.5594855331299478 F F F Fe
   0.3375500000000000    0.3653700000000000    0.5294253712786826 F F F Fe
   0.3489500000000000    0.1917800000000000    0.3680131538465418 T T T Fe
   0.3437799999999999    0.3040200000000000    0.4118002640285298 T T T Fe
   0.3396900000000000    0.4671400000000000    0.3817493771423529 T T T Fe
   0.3386200000000000    0.4162500000000000    0.4555780992454294 T T T Fe
   0.3345300000000000    0.5793800000000000    0.4255272123592526 T T T Fe
   0.3304300000000000    0.7425000000000000    0.3954763254730757 T T T Fe
   0.3334500000000000    0.5284799999999999    0.4993744843925056 F F F Fe
   0.3293600000000000    0.6916099999999999    0.4693143225412405 T T T Fe
   0.3252700000000000    0.8547400000000001    0.4392541606899753 T T T Fe
   0.3405600000000000    0.1513600000000000    0.6333235301981124 F F F Fe
   0.3364600000000000    0.3144800000000000    0.6032633683468474 F F F Fe
   0.3323800000000000    0.4776000000000000    0.5732124814606705 F F F Fe
   0.3272200000000001    0.5898400000000000    0.6169995916426584 F F F Fe
   0.3282900000000000    0.6407200000000000    0.5431523196094054 F F F Fe
   0.3242000000000000    0.8038500000000000    0.5131014327232284 F F F Fe
   0.3200999999999999    0.9669700000000000    0.4830412708719632 T T T Fe
   0.3231200000000000    0.7529500000000000    0.5869394297913931 F F F Fe
   0.3190300000000000    0.9160800000000000    0.5568885429052164 F F F Fe
   0.3179600000000000    0.8652000000000000    0.6307265399733811 F F F Fe
   0.8304500000000001    0.1161200000000000    0.4788304367218632 T T T Fe
   0.8293800000000001    0.0652400000000000    0.5526684337900281 F F F Fe
   0.8252899999999999    0.2283500000000000    0.5226175469038511 F F F Fe
   0.8366900000000000    0.0547800000000000    0.3612053294717104 T T T Fe
   0.8315300000000000    0.1670100000000000    0.4049831646886101 T T T Fe
   0.8274300000000000    0.3301300000000000    0.3749322778024333 T T T Fe
   0.8263600000000000    0.2792400000000000    0.4487702748705979 T T T Fe
   0.8222699999999999    0.4423600000000000    0.4187193879844212 T T T Fe
   0.8181899999999999    0.6054900000000000    0.3886592261331560 T T T Fe
   0.8212000000000000    0.3914800000000000    0.4925573850525859 F F F Fe
   0.8171000000000000    0.5546000000000000    0.4624972232013208 T T T Fe
   0.8130200000000001    0.7177200000000000    0.4324463363151439 T T T Fe
   0.8089300000000000    0.8808500000000000    0.4023861744638786 T T T Fe
   0.8283100000000001    0.0143500000000000    0.6265157058232811 F F F Fe
   0.8242200000000000    0.1774700000000000    0.5964648189371041 F F F Fe
   0.8201200000000000    0.3405900000000000    0.5663953821207506 F F F Fe
   0.8149600000000001    0.4528200000000000    0.6101917672678269 F F F Fe
   0.8160300000000000    0.5037100000000000    0.5363444952345739 F F F Fe
   0.8119400000000000    0.6668300000000000    0.5062936083483971 F F F Fe
   0.8078600000000001    0.8299600000000000    0.4762241715320435 T T T Fe
   0.8030800000000000    0.0063900000000000    0.4344404538091341 T T T Fe
   0.8108699999999999    0.6159500000000000    0.5801223304514734 F F F Fe
   0.8067699999999999    0.7790700000000000    0.5500714435652966 F F F Fe
   0.8026899999999999    0.9421900000000000    0.5200205566791197 F F F Fe
   0.8057000000000000    0.7281800000000000    0.6239187155985497 F F F Fe
   0.8016100000000000    0.8913000000000000    0.5938585537472845 F F F Fe
   0.3238700000000000    0.9110900000000000    0.3657500623649903 T T T Fe
   0.8118499999999998    0.7695300000000000    0.3585712393866257 T T T Fe
   0.3310199999999999    0.7398700000000000    0.3262294361236324 T T T W
   0.8235800000000000    0.9073300000000000    0.3268694087147269 T T T W
   0.3457900000000000    0.4065500000000000    0.3262294361236324 T T T W
   0.8383500000000002    0.5740100000000000    0.3268694087147269 T T T W
   0.3605600000000000    0.0732200000000000    0.3262294361236324 T T T W
   0.8531199999999999    0.2406800000000000    0.3268694087147269 T T T W
