total_structure
1.0
   3.5061499999999999    0.0000000000000000    0.0000000000000002
   0.0000000000000019   12.0001999999999995    0.0000000000000007
   0.0000000000000000    0.0000000000000000   30.3716049620000028
Cr Fe N W
12 36 16 4
Selective dynamics
direct
   0.5000000000000000    0.1250000000000000    0.1379838477500082 F F F Cr
   0.5000000000000000    0.3750000000000000    0.1379838477500082 F F F Cr
   0.0000000000000000    0.0000000000000000    0.0689963506907804 F F F Cr
  -0.0000000000000000    0.2500000000000000    0.0689963506907804 F F F Cr
   0.5000000000000000    0.1250000000000000   -0.0000000000000000 F F F Cr
   0.5000000000000000    0.3750000000000000   -0.0000000000000000 F F F Cr
   0.5000000000000000    0.6250000000000000    0.1379838477500082 F F F Cr
   0.4999999999999998    0.8749999999999999    0.1379838477500082 F F F Cr
  -0.0000000000000000    0.5000000000000000    0.0689963506907804 F F F Cr
  -0.0000000000000000    0.7500000000000000    0.0689963506907804 F F F Cr
   0.5000000000000000    0.6250000000000000   -0.0000000000000000 F F F Cr
   0.4999999999999998    0.8749999999999999   -0.0000000000000000 F F F Cr
   0.9933200000000000    0.7184400000000000    0.6707422961838272 F F F Fe
   0.4933200000000000    0.5543100000000000    0.6593122578491939 F F F Fe
   0.4933200000000000    0.7391600000000000    0.6243227059526245 F F F Fe
   0.9933200000000000    0.5750200000000000    0.6128926676179914 F F F Fe
   0.9933200000000002    0.3901700000000000    0.6478733658830078 F F F Fe
   0.4933200000000000    0.2260400000000000    0.6364433275483744 F F F Fe
   0.4933200000000000    0.4108899999999999    0.6014537756518051 F F F Fe
   0.9933200000000002    0.2467500000000000    0.5900237373171718 F F F Fe
   0.9933200000000000    0.0619000000000000    0.6250044355821883 F F F Fe
   0.4933200000000000    0.8977699999999998    0.6135743972475550 F F F Fe
   0.4933200000000000    0.0826200000000000    0.5785848453509858 F F F Fe
   0.9933200000000000    0.9184800000000000    0.5671548070163523 F F F Fe
   0.9933200000000000    0.7598700000000000    0.5779119693529748 F F F Fe
   0.4933200000000000    0.5957300000000000    0.5664730773867888 F F F Fe
   0.4933200000000000    0.7805800000000001    0.5314923791217722 F F F Fe
   0.9933200000000002    0.6164500000000001    0.5200534871555861 F F F Fe
   0.9933200000000002    0.4315999999999999    0.5550430390521554 F F F Fe
   0.4933200000000000    0.2674600000000000    0.5436041470859693 F F F Fe
   0.4933200000000000    0.4523100000000000    0.5086234488209528 F F F Fe
   0.9933200000000002    0.2881800000000000    0.4971845568547666 F F F Fe
   0.9933199999999998    0.1033300000000000    0.5321741087513359 F F F Fe
   0.4933200000000000    0.9391999999999999    0.5207352167851497 F F F Fe
   0.4933200000000000    0.1240400000000000    0.4857545185201333 F F F Fe
   0.9933200000000000    0.9599100000000000    0.4743156265539471 F F F Fe
   0.9933200000000000    0.8013000000000000    0.4850727888905695 F F F Fe
   0.4933200000000000    0.6371599999999998    0.4736427505559363 F F F Fe
   0.4933200000000000    0.8220099999999999    0.4386531986593669 F F F Fe
   0.9933200000000002    0.6578799999999999    0.4272231603247337 F F F Fe
   0.9933200000000002    0.4730300000000000    0.4622038585897501 F F F Fe
   0.4933200000000000    0.3088900000000000    0.4507738202551168 F F F Fe
   0.4933200000000000    0.4937400000000000    0.4157842683585475 F F F Fe
   0.9933200000000000    0.3296100000000000    0.4043542300239142 F F F Fe
   0.9933200000000002    0.1447600000000000    0.4393349282889307 F F F Fe
   0.4933200000000000    0.9806200000000000    0.4279048899542973 F F F Fe
   0.4933200000000000    0.1654700000000000    0.3929153380577280 F F F Fe
   0.9933200000000000    0.0013400000000000    0.3814852997230948 F F F Fe
   0.5000000000000000    0.1250000000000000    0.2069801984407886 F F F N
   0.5000000000000000    0.3750000000000000    0.2069801984407886 F F F N
   0.0000000000000000    0.0000000000000000    0.1379838477500082 F F F N
  -0.0000000000000000    0.2500000000000000    0.1379838477500082 F F F N
   0.5000000000000000    0.1250000000000000    0.0689963506907804 F F F N
   0.5000000000000000    0.3750000000000000    0.0689963506907804 F F F N
   0.0000000000000000    0.0000000000000000    0.0000000000000000 F F F N
  -0.0000000000000000    0.2500000000000000   -0.0000000000000000 F F F N
   0.5000000000000000    0.6250000000000000    0.2069801984407886 F F F N
   0.4999999999999998    0.8749999999999999    0.2069801984407886 F F F N
  -0.0000000000000000    0.5000000000000000    0.1379838477500082 F F F N
  -0.0000000000000000    0.7500000000000000    0.1379838477500082 F F F N
   0.5000000000000000    0.6250000000000000    0.0689963506907804 F F F N
   0.4999999999999998    0.8749999999999999    0.0689963506907804 F F F N
  -0.0000000000000000    0.5000000000000000   -0.0000000000000000 F F F N
  -0.0000000000000000    0.7500000000000000   -0.0000000000000000 F F F N
   0.0000000000000000    0.0000000000000000    0.2069801984407886 F F F W
  -0.0000000000000000    0.2500000000000000    0.2069801984407886 F F F W
  -0.0000000000000000    0.5000000000000000    0.2069801984407886 F F F W
  -0.0000000000000000    0.7500000000000000    0.2069801984407886 F F F W
