DeviceStudio auto-generated KPOINTS file
 0
Monkhorst-pack
 5 5 3 
 0 0 0