alpha_Ti
1.0
4.756512 0.000000 0.000000
0.000000 4.675432 0.000000
0.000000 0.000000 19.811800
Ti
12
direct
0.333333 0.750000 0.363652 Ti
0.333333 0.750000 0.218191 Ti
0.333333 0.750000 0.072730 Ti
0.833334 0.750000 0.290922 Ti
0.833334 0.750000 0.145461 Ti
0.833334 0.750000 -0.000000 Ti
0.166666 0.250000 0.290921 Ti
0.166666 0.250000 0.145461 Ti
0.166666 0.250000 -0.000000 Ti
0.666667 0.250000 0.363652 Ti
0.666667 0.250000 0.218191 Ti
0.666667 0.250000 0.072730 Ti
