Ti96 Sn1
1.0
9.513020 0.000000 0.000000
0.000000 9.350860 0.000000
0.000000 0.000000 18.547230
Ti Sn
96 1
Selective dynamics
direct
0.138459 0.377841 0.409567 T T T Ti
0.653470 0.365602 0.406846 T T T Ti
0.166339 0.881746 0.398268 T T T Ti
0.603669 0.948504 0.419301 T T T Ti
0.159285 0.376152 0.233415 T T T Ti
0.658971 0.371860 0.230580 T T T Ti
0.165395 0.876930 0.235749 T T T Ti
0.662415 0.882256 0.233730 T T T Ti
0.166660 0.374967 0.077525 F F F Ti
0.666700 0.374983 0.077556 F F F Ti
0.166677 0.874996 0.077521 F F F Ti
0.666667 0.875062 0.077626 F F F Ti
0.383255 0.360159 0.323612 T T T Ti
0.904832 0.360970 0.314724 T T T Ti
0.416439 0.864821 0.316424 T T T Ti
0.929600 0.914858 0.316690 T T T Ti
0.416626 0.375016 0.155113 F F F Ti
0.916771 0.374857 0.155143 F F F Ti
0.416659 0.875115 0.155169 F F F Ti
0.916549 0.874950 0.155119 F F F Ti
0.416671 0.375007 -0.000074 F F F Ti
0.916643 0.374982 -0.000059 F F F Ti
0.416701 0.875021 -0.000044 F F F Ti
0.916614 0.874999 -0.000045 F F F Ti
0.116745 0.139842 0.323610 T T T Ti
0.595168 0.139032 0.314723 T T T Ti
0.083561 0.635180 0.316423 T T T Ti
0.570400 0.585144 0.316689 T T T Ti
0.083378 0.125003 0.155113 F F F Ti
0.583226 0.125160 0.155141 F F F Ti
0.083344 0.624902 0.155171 F F F Ti
0.583447 0.625070 0.155120 F F F Ti
0.083333 0.125001 -0.000075 F F F Ti
0.583354 0.125024 -0.000059 F F F Ti
0.083303 0.624984 -0.000044 F F F Ti
0.583384 0.625008 -0.000044 F F F Ti
0.361540 0.122159 0.409567 T T T Ti
0.846529 0.134399 0.406845 T T T Ti
0.333660 0.618255 0.398268 T T T Ti
0.896330 0.551496 0.419301 T T T Ti
0.340715 0.123852 0.233415 T T T Ti
0.841028 0.128144 0.230580 T T T Ti
0.334604 0.623074 0.235750 T T T Ti
0.837583 0.617749 0.233730 T T T Ti
0.333340 0.125048 0.077524 F F F Ti
0.833299 0.125032 0.077556 F F F Ti
0.333321 0.625021 0.077522 F F F Ti
0.833334 0.624951 0.077627 F F F Ti
0.374966 0.375017 0.823864 F F F Ti
0.874974 0.374968 0.823847 F F F Ti
0.375052 0.874975 0.823863 F F F Ti
0.874997 0.874953 0.823765 F F F Ti
0.125037 0.124972 0.823863 F F F Ti
0.625029 0.125022 0.823846 F F F Ti
0.124951 0.625011 0.823863 F F F Ti
0.625008 0.625038 0.823766 F F F Ti
0.124952 0.375009 0.910134 F F F Ti
0.625042 0.375050 0.910130 F F F Ti
0.124952 0.874964 0.910139 F F F Ti
0.625064 0.874958 0.910144 F F F Ti
0.375051 0.124982 0.910134 F F F Ti
0.874961 0.124939 0.910130 F F F Ti
0.375052 0.625025 0.910140 F F F Ti
0.874938 0.625032 0.910144 F F F Ti
0.393940 0.362537 0.648969 T T T Ti
0.889154 0.361616 0.660869 T T T Ti
0.382511 0.867522 0.664655 T T T Ti
0.885169 0.866343 0.661870 T T T Ti
0.106059 0.137460 0.648969 T T T Ti
0.610845 0.138380 0.660869 T T T Ti
0.117487 0.632472 0.664655 T T T Ti
0.614829 0.633652 0.661870 T T T Ti
0.147531 0.388877 0.572395 T T T Ti
0.652000 0.400456 0.577918 T T T Ti
0.139876 0.881770 0.581397 T T T Ti
0.628923 0.887984 0.580104 T T T Ti
0.352469 0.111122 0.572395 T T T Ti
0.847999 0.099543 0.577918 T T T Ti
0.360124 0.618228 0.581397 T T T Ti
0.871076 0.612014 0.580104 T T T Ti
0.391402 0.379776 0.489582 T T T Ti
0.904734 0.337450 0.503101 T T T Ti
0.384915 0.852074 0.495185 T T T Ti
0.911466 0.879975 0.484717 T T T Ti
0.108598 0.120224 0.489582 T T T Ti
0.595265 0.162549 0.503101 T T T Ti
0.115085 0.647926 0.495185 T T T Ti
0.588534 0.620024 0.484717 T T T Ti
0.125192 0.874975 0.737611 F F F Ti
0.625068 0.874993 0.737547 F F F Ti
0.374802 0.625006 0.737613 F F F Ti
0.874928 0.624992 0.737548 F F F Ti
0.124969 0.374887 0.737632 F F F Ti
0.624918 0.375050 0.737602 F F F Ti
0.375025 0.125095 0.737630 F F F Ti
0.875077 0.124932 0.737602 F F F Ti
0.750000 0.750000 0.388804 T T T Sn

0.000000 0.000000 0.000000
0.000000 0.000000 0.000000
0.000000 0.000000 0.000000
0.000000 0.000000 0.000000
0.000000 0.000000 0.000000
0.000000 0.000000 0.000000
0.000000 0.000000 0.000000
0.000000 0.000000 0.000000
0.000000 0.000000 0.000000
0.000000 0.000000 0.000000
0.000000 0.000000 0.000000
0.000000 0.000000 0.000000
0.000000 0.000000 0.000000
0.000000 0.000000 0.000000
0.000000 0.000000 0.000000
0.000000 0.000000 0.000000
0.000000 0.000000 0.000000
0.000000 0.000000 0.000000
0.000000 0.000000 0.000000
0.000000 0.000000 0.000000
0.000000 0.000000 0.000000
0.000000 0.000000 0.000000
0.000000 0.000000 0.000000
0.000000 0.000000 0.000000
0.000000 0.000000 0.000000
0.000000 0.000000 0.000000
0.000000 0.000000 0.000000
0.000000 0.000000 0.000000
0.000000 0.000000 0.000000
0.000000 0.000000 0.000000
0.000000 0.000000 0.000000
0.000000 0.000000 0.000000
0.000000 0.000000 0.000000
0.000000 0.000000 0.000000
0.000000 0.000000 0.000000
0.000000 0.000000 0.000000
0.000000 0.000000 0.000000
0.000000 0.000000 0.000000
0.000000 0.000000 0.000000
0.000000 0.000000 0.000000
0.000000 0.000000 0.000000
0.000000 0.000000 0.000000
0.000000 0.000000 0.000000
0.000000 0.000000 0.000000
0.000000 0.000000 0.000000
0.000000 0.000000 0.000000
0.000000 0.000000 0.000000
0.000000 0.000000 0.000000
0.000000 0.000000 0.000000
0.000000 0.000000 0.000000
0.000000 0.000000 0.000000
0.000000 0.000000 0.000000
0.000000 0.000000 0.000000
0.000000 0.000000 0.000000
0.000000 0.000000 0.000000
0.000000 0.000000 0.000000
0.000000 0.000000 0.000000
0.000000 0.000000 0.000000
0.000000 0.000000 0.000000
0.000000 0.000000 0.000000
0.000000 0.000000 0.000000
0.000000 0.000000 0.000000
0.000000 0.000000 0.000000
0.000000 0.000000 0.000000
0.000000 0.000000 0.000000
0.000000 0.000000 0.000000
0.000000 0.000000 0.000000
0.000000 0.000000 0.000000
0.000000 0.000000 0.000000
0.000000 0.000000 0.000000
0.000000 0.000000 0.000000
0.000000 0.000000 0.000000
0.000000 0.000000 0.000000
0.000000 0.000000 0.000000
0.000000 0.000000 0.000000
0.000000 0.000000 0.000000
0.000000 0.000000 0.000000
0.000000 0.000000 0.000000
0.000000 0.000000 0.000000
0.000000 0.000000 0.000000
0.000000 0.000000 0.000000
0.000000 0.000000 0.000000
0.000000 0.000000 0.000000
0.000000 0.000000 0.000000
0.000000 0.000000 0.000000
0.000000 0.000000 0.000000
0.000000 0.000000 0.000000
0.000000 0.000000 0.000000
0.000000 0.000000 0.000000
0.000000 0.000000 0.000000
0.000000 0.000000 0.000000
0.000000 0.000000 0.000000
0.000000 0.000000 0.000000
0.000000 0.000000 0.000000
0.000000 0.000000 0.000000
0.000000 0.000000 0.000000
0.000000 0.000000 0.000000
