Ti67
1.0
6.309760 0.000000 0.000000
0.000000 9.464640 0.000000
0.000000 0.000000 18.918326
Ti
67
Selective dynamics
direct
0.125114 0.042314 0.500147 F F F Ti
0.625486 0.042219 0.499936 F F F Ti
0.125073 0.041853 0.658617 F F F Ti
0.625058 0.041836 0.658607 F F F Ti
0.125039 0.041712 0.817066 F F F Ti
0.624975 0.041704 0.817072 F F F Ti
0.125233 0.376646 0.500537 F F F Ti
0.625270 0.375585 0.501228 F F F Ti
0.124978 0.375323 0.658703 F F F Ti
0.625018 0.375273 0.658785 F F F Ti
0.124997 0.375112 0.817091 F F F Ti
0.624947 0.375113 0.817107 F F F Ti
0.125111 0.710127 0.499772 F F F Ti
0.624254 0.709756 0.500018 F F F Ti
0.125001 0.708835 0.658548 F F F Ti
0.624860 0.708813 0.658617 F F F Ti
0.125001 0.708439 0.817069 F F F Ti
0.624935 0.708430 0.817087 F F F Ti
0.375003 0.208602 0.579429 F F F Ti
0.875195 0.208632 0.579512 F F F Ti
0.375015 0.208430 0.737869 F F F Ti
0.875006 0.208428 0.737886 F F F Ti
0.375011 0.208421 0.896265 F F F Ti
0.875023 0.208426 0.896245 F F F Ti
0.375008 0.542534 0.579523 F F F Ti
0.874998 0.542668 0.579550 F F F Ti
0.374982 0.541888 0.737892 F F F Ti
0.874979 0.541908 0.737900 F F F Ti
0.374979 0.541714 0.896350 F F F Ti
0.875011 0.541724 0.896337 F F F Ti
0.375063 0.875573 0.579299 F F F Ti
0.874949 0.875442 0.579325 F F F Ti
0.374993 0.875143 0.737853 F F F Ti
0.874978 0.875130 0.737858 F F F Ti
0.375004 0.874955 0.896302 F F F Ti
0.875033 0.874948 0.896285 F F F Ti
0.125475 0.625620 0.356727 F F F Ti
0.624987 0.626905 0.356535 F F F Ti
0.125219 0.624648 0.118823 F F F Ti
0.624965 0.624784 0.118792 F F F Ti
0.630314 0.125806 0.356568 F F F Ti
0.125307 0.124723 0.118421 F F F Ti
0.624952 0.124837 0.117575 F F F Ti
0.125119 0.374975 0.039473 F F F Ti
0.624934 0.375190 0.039345 F F F Ti
0.125072 0.874706 0.039334 F F F Ti
0.625009 0.874564 0.039205 F F F Ti
0.627035 0.375418 0.277340 F F F Ti
0.125236 0.874435 0.276847 F F F Ti
0.625518 0.874415 0.277286 F F F Ti
0.375438 0.874174 0.158096 F F F Ti
0.874803 0.873912 0.157959 F F F Ti
0.375284 0.374822 0.158467 F F F Ti
0.874996 0.375219 0.158127 F F F Ti
0.382484 0.380489 0.397835 F F F Ti
0.867027 0.382527 0.398274 F F F Ti
0.375014 0.876310 0.396140 F F F Ti
0.875334 0.875239 0.396288 F F F Ti
0.374963 0.624497 0.237799 F F F Ti
0.875445 0.624714 0.237744 F F F Ti
0.374951 0.624878 -0.000107 F F F Ti
0.875082 0.624889 -0.000119 F F F Ti
0.382856 0.123119 0.235737 F F F Ti
0.866325 0.122743 0.234690 F F F Ti
0.374882 0.124921 -0.000340 F F F Ti
0.875254 0.124923 -0.000361 F F F Ti
0.115138 0.185179 0.342300 T T T Ti

0.000000 0.000000 0.000000
0.000000 0.000000 0.000000
0.000000 0.000000 0.000000
0.000000 0.000000 0.000000
0.000000 0.000000 0.000000
0.000000 0.000000 0.000000
0.000000 0.000000 0.000000
0.000000 0.000000 0.000000
0.000000 0.000000 0.000000
0.000000 0.000000 0.000000
0.000000 0.000000 0.000000
0.000000 0.000000 0.000000
0.000000 0.000000 0.000000
0.000000 0.000000 0.000000
0.000000 0.000000 0.000000
0.000000 0.000000 0.000000
0.000000 0.000000 0.000000
0.000000 0.000000 0.000000
0.000000 0.000000 0.000000
0.000000 0.000000 0.000000
0.000000 0.000000 0.000000
0.000000 0.000000 0.000000
0.000000 0.000000 0.000000
0.000000 0.000000 0.000000
0.000000 0.000000 0.000000
0.000000 0.000000 0.000000
0.000000 0.000000 0.000000
0.000000 0.000000 0.000000
0.000000 0.000000 0.000000
0.000000 0.000000 0.000000
0.000000 0.000000 0.000000
0.000000 0.000000 0.000000
0.000000 0.000000 0.000000
0.000000 0.000000 0.000000
0.000000 0.000000 0.000000
0.000000 0.000000 0.000000
0.000000 0.000000 0.000000
0.000000 0.000000 0.000000
0.000000 0.000000 0.000000
0.000000 0.000000 0.000000
0.000000 0.000000 0.000000
0.000000 0.000000 0.000000
0.000000 0.000000 0.000000
0.000000 0.000000 0.000000
0.000000 0.000000 0.000000
0.000000 0.000000 0.000000
0.000000 0.000000 0.000000
0.000000 0.000000 0.000000
0.000000 0.000000 0.000000
0.000000 0.000000 0.000000
0.000000 0.000000 0.000000
0.000000 0.000000 0.000000
0.000000 0.000000 0.000000
0.000000 0.000000 0.000000
0.000000 0.000000 0.000000
0.000000 0.000000 0.000000
0.000000 0.000000 0.000000
0.000000 0.000000 0.000000
0.000000 0.000000 0.000000
0.000000 0.000000 0.000000
0.000000 0.000000 0.000000
0.000000 0.000000 0.000000
0.000000 0.000000 0.000000
0.000000 0.000000 0.000000
0.000000 0.000000 0.000000
0.000000 0.000000 0.000000
0.000000 0.000000 0.000000
