Ti66 Cr1
1.0
6.309760 0.000000 0.000000
0.000000 9.464640 0.000000
0.000000 0.000000 18.918326
Ti Cr
66 1
Selective dynamics
direct
0.056985 0.025229 0.487627 T T T Ti
0.606801 0.024071 0.490410 T T T Ti
0.136109 0.067201 0.646418 T T T Ti
0.598980 0.067765 0.643658 T T T Ti
0.124845 0.041572 0.817415 F F F Ti
0.624943 0.041649 0.817360 F F F Ti
0.599942 0.375307 0.457866 T T T Ti
0.130706 0.375032 0.647093 T T T Ti
0.595110 0.375039 0.638944 T T T Ti
0.124635 0.375010 0.817426 F F F Ti
0.624919 0.375017 0.817365 F F F Ti
0.057162 0.724742 0.487593 T T T Ti
0.606647 0.725993 0.490376 T T T Ti
0.136104 0.682781 0.646419 T T T Ti
0.598979 0.682223 0.643654 T T T Ti
0.124835 0.708420 0.817416 F F F Ti
0.624947 0.708349 0.817360 F F F Ti
0.326853 0.227997 0.537316 T T T Ti
0.869863 0.231649 0.552089 T T T Ti
0.374759 0.208318 0.738627 F F F Ti
0.874616 0.208262 0.738076 F F F Ti
0.374946 0.208337 0.896531 F F F Ti
0.874850 0.208321 0.896465 F F F Ti
0.326781 0.521983 0.537281 T T T Ti
0.869924 0.518407 0.552091 T T T Ti
0.374760 0.541662 0.738629 F F F Ti
0.874621 0.541741 0.738077 F F F Ti
0.374948 0.541650 0.896537 F F F Ti
0.874846 0.541666 0.896472 F F F Ti
0.336423 0.874907 0.570160 T T T Ti
0.854561 0.874960 0.585819 T T T Ti
0.375172 0.874954 0.738443 F F F Ti
0.874537 0.874990 0.738129 F F F Ti
0.375051 0.874959 0.896566 F F F Ti
0.874824 0.874972 0.896508 F F F Ti
0.218880 0.615072 0.373651 T T T Ti
0.688945 0.605809 0.370733 T T T Ti
0.124952 0.625071 0.118582 F F F Ti
0.624632 0.625053 0.118831 F F F Ti
0.218447 0.134667 0.373586 T T T Ti
0.689204 0.144239 0.370769 T T T Ti
0.124932 0.124947 0.118570 F F F Ti
0.624662 0.124955 0.118817 F F F Ti
0.124987 0.374999 0.039430 F F F Ti
0.624693 0.374993 0.039456 F F F Ti
0.124857 0.875020 0.039447 F F F Ti
0.624969 0.875011 0.039508 F F F Ti
0.112780 0.375071 0.281597 T T T Ti
0.636637 0.374996 0.283079 T T T Ti
0.142802 0.875146 0.281440 T T T Ti
0.599573 0.875212 0.284426 T T T Ti
0.375138 0.875020 0.157955 F F F Ti
0.874829 0.874990 0.158288 F F F Ti
0.374975 0.374968 0.158315 F F F Ti
0.873782 0.375000 0.157741 F F F Ti
-0.038022 0.375126 0.421000 T T T Ti
0.354910 0.875500 0.405601 T T T Ti
0.868429 0.874752 0.389273 T T T Ti
0.383802 0.619090 0.245703 T T T Ti
0.887599 0.629446 0.248274 T T T Ti
0.375024 0.625025 -0.000022 F F F Ti
0.874725 0.625069 -0.000063 F F F Ti
0.383813 0.130986 0.245672 T T T Ti
0.887539 0.120627 0.248256 T T T Ti
0.375033 0.124962 -0.000032 F F F Ti
0.874726 0.124924 -0.000072 F F F Ti
0.301970 0.374117 0.399284 T T T Cr

0.000000 0.000000 0.000000
0.000000 0.000000 0.000000
0.000000 0.000000 0.000000
0.000000 0.000000 0.000000
0.000000 0.000000 0.000000
0.000000 0.000000 0.000000
0.000000 0.000000 0.000000
0.000000 0.000000 0.000000
0.000000 0.000000 0.000000
0.000000 0.000000 0.000000
0.000000 0.000000 0.000000
0.000000 0.000000 0.000000
0.000000 0.000000 0.000000
0.000000 0.000000 0.000000
0.000000 0.000000 0.000000
0.000000 0.000000 0.000000
0.000000 0.000000 0.000000
0.000000 0.000000 0.000000
0.000000 0.000000 0.000000
0.000000 0.000000 0.000000
0.000000 0.000000 0.000000
0.000000 0.000000 0.000000
0.000000 0.000000 0.000000
0.000000 0.000000 0.000000
0.000000 0.000000 0.000000
0.000000 0.000000 0.000000
0.000000 0.000000 0.000000
0.000000 0.000000 0.000000
0.000000 0.000000 0.000000
0.000000 0.000000 0.000000
0.000000 0.000000 0.000000
0.000000 0.000000 0.000000
0.000000 0.000000 0.000000
0.000000 0.000000 0.000000
0.000000 0.000000 0.000000
0.000000 0.000000 0.000000
0.000000 0.000000 0.000000
0.000000 0.000000 0.000000
0.000000 0.000000 0.000000
0.000000 0.000000 0.000000
0.000000 0.000000 0.000000
0.000000 0.000000 0.000000
0.000000 0.000000 0.000000
0.000000 0.000000 0.000000
0.000000 0.000000 0.000000
0.000000 0.000000 0.000000
0.000000 0.000000 0.000000
0.000000 0.000000 0.000000
0.000000 0.000000 0.000000
0.000000 0.000000 0.000000
0.000000 0.000000 0.000000
0.000000 0.000000 0.000000
0.000000 0.000000 0.000000
0.000000 0.000000 0.000000
0.000000 0.000000 0.000000
0.000000 0.000000 0.000000
0.000000 0.000000 0.000000
0.000000 0.000000 0.000000
0.000000 0.000000 0.000000
0.000000 0.000000 0.000000
0.000000 0.000000 0.000000
0.000000 0.000000 0.000000
0.000000 0.000000 0.000000
0.000000 0.000000 0.000000
0.000000 0.000000 0.000000
0.000000 0.000000 0.000000
0.000000 0.000000 0.000000
