total_Ti
1.0
6.391540 0.000000 0.000000
0.000000 9.587310 0.000000
0.000000 0.000000 23.450000
Ti
84
direct
0.125000 0.083333 0.579957 Ti
0.625000 0.083333 0.579957 Ti
0.125000 0.083333 0.707889 Ti
0.625000 0.083333 0.707889 Ti
0.125000 0.083333 0.835821 Ti
0.625000 0.083333 0.835821 Ti
0.125000 0.416667 0.579957 Ti
0.625000 0.416667 0.579957 Ti
0.125000 0.416667 0.707889 Ti
0.625000 0.416667 0.707889 Ti
0.125000 0.416667 0.835821 Ti
0.625000 0.416667 0.835821 Ti
0.125000 0.750000 0.579957 Ti
0.625000 0.750000 0.579957 Ti
0.125000 0.750000 0.707889 Ti
0.625000 0.750000 0.707889 Ti
0.125000 0.750000 0.835821 Ti
0.625000 0.750000 0.835821 Ti
0.375000 0.250000 0.643923 Ti
0.875000 0.250000 0.643923 Ti
0.375000 0.250000 0.771855 Ti
0.875000 0.250000 0.771855 Ti
0.375000 0.250000 0.899787 Ti
0.875000 0.250000 0.899787 Ti
0.375000 0.583333 0.643923 Ti
0.875000 0.583333 0.643923 Ti
0.375000 0.583333 0.771855 Ti
0.875000 0.583333 0.771855 Ti
0.375000 0.583333 0.899787 Ti
0.875000 0.583333 0.899787 Ti
0.375000 0.916667 0.643923 Ti
0.875000 0.916667 0.643923 Ti
0.375000 0.916667 0.771855 Ti
0.875000 0.916667 0.771855 Ti
0.375000 0.916667 0.899787 Ti
0.875000 0.916667 0.899787 Ti
0.125000 0.166667 0.383795 Ti
0.625000 0.166667 0.383795 Ti
0.125000 0.666667 0.383795 Ti
0.625000 0.666667 0.383795 Ti
0.125000 0.166667 -0.000000 Ti
0.625000 0.166667 -0.000000 Ti
0.125000 0.666667 -0.000000 Ti
0.625000 0.666667 -0.000000 Ti
0.125000 0.833333 0.095949 Ti
0.625000 0.833333 0.095949 Ti
0.125000 0.833333 0.479744 Ti
0.625000 0.833333 0.479744 Ti
0.125000 0.333333 0.095949 Ti
0.625000 0.333333 0.095949 Ti
0.125000 0.333333 0.479744 Ti
0.625000 0.333333 0.479744 Ti
0.375000 0.583333 0.479744 Ti
0.875000 0.583333 0.479744 Ti
0.374999 0.583333 0.095949 Ti
0.874999 0.583333 0.095949 Ti
0.375000 0.083333 0.095949 Ti
0.875000 0.083333 0.095949 Ti
0.375000 0.083333 0.479744 Ti
0.875000 0.083333 0.479744 Ti
0.375000 0.416667 0.383795 Ti
0.875000 0.416667 0.383795 Ti
0.375000 0.916667 0.383795 Ti
0.875000 0.916667 0.383795 Ti
0.375000 0.416667 -0.000000 Ti
0.875000 0.416667 -0.000000 Ti
0.375000 0.916667 -0.000000 Ti
0.875000 0.916667 -0.000000 Ti
0.375000 0.083333 0.287846 Ti
0.875000 0.083333 0.287846 Ti
0.125000 0.166667 0.191898 Ti
0.625000 0.166667 0.191898 Ti
0.125000 0.333333 0.287846 Ti
0.625000 0.333333 0.287846 Ti
0.375000 0.416667 0.191898 Ti
0.875000 0.416667 0.191898 Ti
0.374999 0.583333 0.287846 Ti
0.874999 0.583333 0.287846 Ti
0.125000 0.666667 0.191898 Ti
0.625000 0.666667 0.191898 Ti
0.125000 0.833333 0.287846 Ti
0.625000 0.833333 0.287846 Ti
0.375000 0.916667 0.191898 Ti
0.875000 0.916667 0.191898 Ti
