beta_Ti
1.0
8.805261 0.000000 0.000000
-4.402630 7.625580 0.000000
0.000000 0.000000 17.688801
Ti
36
direct
0.083333 0.916670 0.485727 Ti
0.083333 0.416670 0.485727 Ti
0.583333 0.916670 0.485727 Ti
0.583333 0.416670 0.485727 Ti
0.250000 0.250004 0.851622 Ti
0.250000 0.750004 0.851622 Ti
0.750000 0.250004 0.851622 Ti
0.750000 0.750004 0.851622 Ti
0.416667 0.083337 0.903893 Ti
0.416667 0.583337 0.903893 Ti
0.916667 0.083337 0.903893 Ti
0.916667 0.583337 0.903893 Ti
0.250000 0.250004 0.537998 Ti
0.250000 0.750004 0.537998 Ti
0.750000 0.250004 0.537998 Ti
0.750000 0.750004 0.537998 Ti
0.416667 0.083337 0.590269 Ti
0.416667 0.583337 0.590269 Ti
0.916667 0.083337 0.590269 Ti
0.916667 0.583337 0.590269 Ti
0.083333 0.916670 0.642539 Ti
0.083333 0.416670 0.642539 Ti
0.583333 0.916670 0.642539 Ti
0.583333 0.416670 0.642539 Ti
0.250000 0.250004 0.694810 Ti
0.250000 0.750004 0.694810 Ti
0.750000 0.250004 0.694810 Ti
0.750000 0.750004 0.694810 Ti
0.416667 0.083337 0.747081 Ti
0.416667 0.583337 0.747081 Ti
0.916667 0.083337 0.747081 Ti
0.916667 0.583337 0.747081 Ti
0.083333 0.916670 0.799352 Ti
0.083333 0.416670 0.799352 Ti
0.583333 0.916670 0.799352 Ti
0.583333 0.416670 0.799352 Ti
