beta_Ti
1.0
6.391540 0.000000 0.000000
0.000000 9.587310 0.000000
0.000000 0.000000 23.350000
Ti
36
direct
0.125000 0.083333 0.580300 Ti
0.625000 0.083333 0.580300 Ti
0.125000 0.083333 0.708779 Ti
0.625000 0.083333 0.708779 Ti
0.125000 0.083333 0.837259 Ti
0.625000 0.083333 0.837259 Ti
0.125000 0.416667 0.580300 Ti
0.625000 0.416667 0.580300 Ti
0.125000 0.416667 0.708779 Ti
0.625000 0.416667 0.708779 Ti
0.125000 0.416667 0.837259 Ti
0.625000 0.416667 0.837259 Ti
0.125000 0.750000 0.580300 Ti
0.625000 0.750000 0.580300 Ti
0.125000 0.750000 0.708779 Ti
0.625000 0.750000 0.708779 Ti
0.125000 0.750000 0.837259 Ti
0.625000 0.750000 0.837259 Ti
0.375000 0.250000 0.644540 Ti
0.875000 0.250000 0.644540 Ti
0.375000 0.250000 0.773019 Ti
0.875000 0.250000 0.773019 Ti
0.375000 0.250000 0.901499 Ti
0.875000 0.250000 0.901499 Ti
0.375000 0.583333 0.644540 Ti
0.875000 0.583333 0.644540 Ti
0.375000 0.583333 0.773019 Ti
0.875000 0.583333 0.773019 Ti
0.375000 0.583333 0.901499 Ti
0.875000 0.583333 0.901499 Ti
0.375000 0.916667 0.644540 Ti
0.875000 0.916667 0.644540 Ti
0.375000 0.916667 0.773019 Ti
0.875000 0.916667 0.773019 Ti
0.375000 0.916667 0.901499 Ti
0.875000 0.916667 0.901499 Ti
