Ti66 Al1
1.0
6.309760 0.000000 0.000000
0.000000 9.464640 0.000000
0.000000 0.000000 18.918326
Ti Al
66 1
Selective dynamics
direct
0.122913 0.040627 0.498104 F F F Ti
0.625137 0.041345 0.499687 F F F Ti
0.630529 0.041038 0.658928 F F F Ti
0.125416 0.041912 0.817261 F F F Ti
0.625926 0.041512 0.817458 F F F Ti
0.124765 0.375220 0.499865 F F F Ti
0.623944 0.375452 0.499761 F F F Ti
0.124034 0.377709 0.658910 F F F Ti
0.625178 0.375676 0.658721 F F F Ti
0.124952 0.375510 0.817440 F F F Ti
0.625890 0.375823 0.817617 F F F Ti
0.124864 0.707750 0.499710 F F F Ti
0.625747 0.707537 0.499572 F F F Ti
0.125322 0.708371 0.658518 F F F Ti
0.625814 0.707972 0.658684 F F F Ti
0.125129 0.708518 0.817232 F F F Ti
0.625421 0.708472 0.817334 F F F Ti
0.868595 0.210790 0.578168 F F F Ti
0.379555 0.210824 0.739647 F F F Ti
0.874144 0.209455 0.738327 F F F Ti
0.375208 0.208505 0.896690 F F F Ti
0.875129 0.208438 0.896574 F F F Ti
0.375139 0.541573 0.579253 F F F Ti
0.874666 0.542069 0.579174 F F F Ti
0.375347 0.542228 0.738052 F F F Ti
0.874832 0.542212 0.738071 F F F Ti
0.375043 0.541921 0.896577 F F F Ti
0.875130 0.541920 0.896593 F F F Ti
0.379091 0.871508 0.578223 F F F Ti
0.874279 0.874106 0.578820 F F F Ti
0.376610 0.874503 0.738142 F F F Ti
0.876118 0.875071 0.737884 F F F Ti
0.375096 0.875049 0.896528 F F F Ti
0.875268 0.875050 0.896499 F F F Ti
0.124975 0.624967 0.356708 F F F Ti
0.624829 0.624917 0.356650 F F F Ti
0.124997 0.625045 0.118907 F F F Ti
0.624970 0.625039 0.118914 F F F Ti
0.124986 0.125098 0.356458 F F F Ti
0.624850 0.125020 0.356657 F F F Ti
0.124985 0.125008 0.118898 F F F Ti
0.624972 0.125010 0.118906 F F F Ti
0.124977 0.375052 0.039682 F F F Ti
0.625021 0.375061 0.039700 F F F Ti
0.124988 0.875022 0.039651 F F F Ti
0.625028 0.875008 0.039664 F F F Ti
0.124965 0.375051 0.277423 F F F Ti
0.624914 0.375003 0.277427 F F F Ti
0.124975 0.874946 0.277378 F F F Ti
0.624937 0.874976 0.277368 F F F Ti
0.375004 0.874991 0.158533 F F F Ti
0.874970 0.874993 0.158531 F F F Ti
0.375003 0.375022 0.158556 F F F Ti
0.875009 0.375026 0.158553 F F F Ti
0.374831 0.374925 0.396329 F F F Ti
0.874790 0.375094 0.396277 F F F Ti
0.375270 0.874738 0.396163 F F F Ti
0.874545 0.874660 0.396110 F F F Ti
0.374969 0.624992 0.237812 F F F Ti
0.874976 0.624988 0.237809 F F F Ti
0.374993 0.625112 0.000066 F F F Ti
0.875014 0.625113 0.000066 F F F Ti
0.375042 0.125009 0.237777 F F F Ti
0.874901 0.125015 0.237768 F F F Ti
0.375022 0.124972 0.000102 F F F Ti
0.874990 0.125000 0.000057 F F F Ti
0.189744 0.085770 0.637220 T T T Al

0.000000 0.000000 0.000000
0.000000 0.000000 0.000000
0.000000 0.000000 0.000000
0.000000 0.000000 0.000000
0.000000 0.000000 0.000000
0.000000 0.000000 0.000000
0.000000 0.000000 0.000000
0.000000 0.000000 0.000000
0.000000 0.000000 0.000000
0.000000 0.000000 0.000000
0.000000 0.000000 0.000000
0.000000 0.000000 0.000000
0.000000 0.000000 0.000000
0.000000 0.000000 0.000000
0.000000 0.000000 0.000000
0.000000 0.000000 0.000000
0.000000 0.000000 0.000000
0.000000 0.000000 0.000000
0.000000 0.000000 0.000000
0.000000 0.000000 0.000000
0.000000 0.000000 0.000000
0.000000 0.000000 0.000000
0.000000 0.000000 0.000000
0.000000 0.000000 0.000000
0.000000 0.000000 0.000000
0.000000 0.000000 0.000000
0.000000 0.000000 0.000000
0.000000 0.000000 0.000000
0.000000 0.000000 0.000000
0.000000 0.000000 0.000000
0.000000 0.000000 0.000000
0.000000 0.000000 0.000000
0.000000 0.000000 0.000000
0.000000 0.000000 0.000000
0.000000 0.000000 0.000000
0.000000 0.000000 0.000000
0.000000 0.000000 0.000000
0.000000 0.000000 0.000000
0.000000 0.000000 0.000000
0.000000 0.000000 0.000000
0.000000 0.000000 0.000000
0.000000 0.000000 0.000000
0.000000 0.000000 0.000000
0.000000 0.000000 0.000000
0.000000 0.000000 0.000000
0.000000 0.000000 0.000000
0.000000 0.000000 0.000000
0.000000 0.000000 0.000000
0.000000 0.000000 0.000000
0.000000 0.000000 0.000000
0.000000 0.000000 0.000000
0.000000 0.000000 0.000000
0.000000 0.000000 0.000000
0.000000 0.000000 0.000000
0.000000 0.000000 0.000000
0.000000 0.000000 0.000000
0.000000 0.000000 0.000000
0.000000 0.000000 0.000000
0.000000 0.000000 0.000000
0.000000 0.000000 0.000000
0.000000 0.000000 0.000000
0.000000 0.000000 0.000000
0.000000 0.000000 0.000000
0.000000 0.000000 0.000000
0.000000 0.000000 0.000000
0.000000 0.000000 0.000000
0.000000 0.000000 0.000000
