Ti66 Nb1
1.0
6.309760 0.000000 0.000000
0.000000 9.464640 0.000000
0.000000 0.000000 18.918326
Ti Nb
66 1
Selective dynamics
direct
0.126692 0.032040 0.506643 F F F Ti
0.628779 0.042097 0.500758 F F F Ti
0.125457 0.040984 0.659978 F F F Ti
0.625115 0.041469 0.659488 F F F Ti
0.125072 0.041583 0.817671 F F F Ti
0.624965 0.041643 0.817647 F F F Ti
0.626872 0.375448 0.501234 F F F Ti
0.125232 0.374830 0.658897 F F F Ti
0.625262 0.375137 0.659133 F F F Ti
0.125095 0.374961 0.817465 F F F Ti
0.625077 0.375011 0.817516 F F F Ti
0.125239 0.709694 0.500207 F F F Ti
0.623203 0.709662 0.500403 F F F Ti
0.125265 0.707758 0.659125 F F F Ti
0.624543 0.707344 0.659358 F F F Ti
0.125029 0.708122 0.817553 F F F Ti
0.624922 0.708051 0.817612 F F F Ti
0.376587 0.208039 0.580169 F F F Ti
0.874749 0.208120 0.580657 F F F Ti
0.375296 0.208354 0.738399 F F F Ti
0.875021 0.208318 0.738471 F F F Ti
0.375043 0.208421 0.896652 F F F Ti
0.875056 0.208409 0.896663 F F F Ti
0.374745 0.541297 0.579516 F F F Ti
0.875305 0.541914 0.579689 F F F Ti
0.374945 0.541255 0.738285 F F F Ti
0.875251 0.541330 0.738313 F F F Ti
0.374986 0.541552 0.896640 F F F Ti
0.875071 0.541567 0.896637 F F F Ti
0.378489 0.873347 0.580856 F F F Ti
0.872362 0.872805 0.581018 F F F Ti
0.375432 0.874509 0.738633 F F F Ti
0.874698 0.874460 0.738636 F F F Ti
0.375059 0.875059 0.896718 F F F Ti
0.874956 0.875060 0.896714 F F F Ti
0.126353 0.628382 0.356533 F F F Ti
0.623692 0.630884 0.355980 F F F Ti
0.125325 0.626199 0.118774 F F F Ti
0.625099 0.626190 0.118725 F F F Ti
0.632907 0.128027 0.357175 F F F Ti
0.125717 0.126021 0.119132 F F F Ti
0.624979 0.125926 0.119053 F F F Ti
0.125320 0.375480 0.039599 F F F Ti
0.625086 0.375458 0.039586 F F F Ti
0.125149 0.875710 0.039748 F F F Ti
0.624968 0.875707 0.039749 F F F Ti
0.125595 0.380198 0.276916 F F F Ti
0.626073 0.377492 0.276452 F F F Ti
0.125253 0.877894 0.277918 F F F Ti
0.625511 0.878294 0.277500 F F F Ti
0.375034 0.876691 0.158751 F F F Ti
0.875462 0.876474 0.158590 F F F Ti
0.375238 0.376233 0.158405 F F F Ti
0.875509 0.376467 0.158156 F F F Ti
0.387110 0.385126 0.396145 F F F Ti
0.859353 0.391460 0.395869 F F F Ti
0.376182 0.877484 0.396974 F F F Ti
0.874265 0.874459 0.397072 F F F Ti
0.375539 0.627534 0.237477 F F F Ti
0.875201 0.627700 0.237454 F F F Ti
0.375054 0.625471 0.000054 F F F Ti
0.875081 0.625488 0.000050 F F F Ti
0.375492 0.127381 0.238518 F F F Ti
0.875518 0.127245 0.237503 F F F Ti
0.375133 0.125330 0.000194 F F F Ti
0.875185 0.125333 0.000214 F F F Ti
0.102742 0.176522 0.399290 T T T Nb

0.000000 0.000000 0.000000
0.000000 0.000000 0.000000
0.000000 0.000000 0.000000
0.000000 0.000000 0.000000
0.000000 0.000000 0.000000
0.000000 0.000000 0.000000
0.000000 0.000000 0.000000
0.000000 0.000000 0.000000
0.000000 0.000000 0.000000
0.000000 0.000000 0.000000
0.000000 0.000000 0.000000
0.000000 0.000000 0.000000
0.000000 0.000000 0.000000
0.000000 0.000000 0.000000
0.000000 0.000000 0.000000
0.000000 0.000000 0.000000
0.000000 0.000000 0.000000
0.000000 0.000000 0.000000
0.000000 0.000000 0.000000
0.000000 0.000000 0.000000
0.000000 0.000000 0.000000
0.000000 0.000000 0.000000
0.000000 0.000000 0.000000
0.000000 0.000000 0.000000
0.000000 0.000000 0.000000
0.000000 0.000000 0.000000
0.000000 0.000000 0.000000
0.000000 0.000000 0.000000
0.000000 0.000000 0.000000
0.000000 0.000000 0.000000
0.000000 0.000000 0.000000
0.000000 0.000000 0.000000
0.000000 0.000000 0.000000
0.000000 0.000000 0.000000
0.000000 0.000000 0.000000
0.000000 0.000000 0.000000
0.000000 0.000000 0.000000
0.000000 0.000000 0.000000
0.000000 0.000000 0.000000
0.000000 0.000000 0.000000
0.000000 0.000000 0.000000
0.000000 0.000000 0.000000
0.000000 0.000000 0.000000
0.000000 0.000000 0.000000
0.000000 0.000000 0.000000
0.000000 0.000000 0.000000
0.000000 0.000000 0.000000
0.000000 0.000000 0.000000
0.000000 0.000000 0.000000
0.000000 0.000000 0.000000
0.000000 0.000000 0.000000
0.000000 0.000000 0.000000
0.000000 0.000000 0.000000
0.000000 0.000000 0.000000
0.000000 0.000000 0.000000
0.000000 0.000000 0.000000
0.000000 0.000000 0.000000
0.000000 0.000000 0.000000
0.000000 0.000000 0.000000
0.000000 0.000000 0.000000
0.000000 0.000000 0.000000
0.000000 0.000000 0.000000
0.000000 0.000000 0.000000
0.000000 0.000000 0.000000
0.000000 0.000000 0.000000
0.000000 0.000000 0.000000
0.000000 0.000000 0.000000
