Ti72
1.0
8.805261 0.000000 0.000000
-4.402630 7.625579 0.000000
0.000000 0.000000 17.588801
Ti
72
direct
0.000000 0.000000 0.485646 Ti
1.000000 0.500000 0.485646 Ti
0.500000 0.000000 0.485646 Ti
0.500000 0.500000 0.485646 Ti
0.166667 0.333333 0.853621 Ti
0.166667 0.833333 0.853621 Ti
0.666667 0.333333 0.853621 Ti
0.666667 0.833333 0.853621 Ti
0.333333 0.166667 0.906189 Ti
0.333333 0.666667 0.906189 Ti
0.833333 0.166667 0.906189 Ti
0.833333 0.666667 0.906189 Ti
0.166667 0.333333 0.538214 Ti
0.166667 0.833333 0.538214 Ti
0.666667 0.333333 0.538214 Ti
0.666667 0.833333 0.538214 Ti
0.333333 0.166667 0.590782 Ti
0.333333 0.666667 0.590782 Ti
0.833333 0.166667 0.590782 Ti
0.833333 0.666667 0.590782 Ti
0.000000 0.000000 0.643350 Ti
1.000000 0.500000 0.643350 Ti
0.500000 0.000000 0.643350 Ti
0.500000 0.500000 0.643350 Ti
0.166667 0.333333 0.695918 Ti
0.166667 0.833333 0.695918 Ti
0.666667 0.333333 0.695918 Ti
0.666667 0.833333 0.695918 Ti
0.333333 0.166667 0.748486 Ti
0.333333 0.666667 0.748486 Ti
0.833333 0.166667 0.748486 Ti
0.833333 0.666667 0.748486 Ti
0.000000 0.000000 0.801053 Ti
1.000000 0.500000 0.801053 Ti
0.500000 0.000000 0.801053 Ti
0.500000 0.500000 0.801053 Ti
0.111111 0.888889 -0.000000 Ti
0.111111 0.888889 0.261224 Ti
0.111111 0.555556 -0.000000 Ti
0.222222 0.777778 0.130612 Ti
0.111111 0.555556 0.261224 Ti
0.444444 0.888889 -0.000000 Ti
0.111111 0.222222 -0.000000 Ti
0.222222 0.777778 0.391836 Ti
0.222222 0.444444 0.130612 Ti
0.444444 0.888889 0.261224 Ti
0.111111 0.222222 0.261224 Ti
0.444444 0.555556 -0.000000 Ti
0.222222 0.444444 0.391836 Ti
0.555556 0.777778 0.130612 Ti
0.222222 0.111111 0.130612 Ti
0.444444 0.555556 0.261224 Ti
0.777778 0.888889 -0.000000 Ti
0.444444 0.222222 -0.000000 Ti
0.555556 0.777778 0.391836 Ti
0.222222 0.111111 0.391836 Ti
0.555556 0.444444 0.130612 Ti
0.777778 0.888889 0.261224 Ti
0.444444 0.222222 0.261224 Ti
0.777778 0.555556 -0.000000 Ti
0.555556 0.444444 0.391836 Ti
0.888889 0.777778 0.130612 Ti
0.555556 0.111111 0.130612 Ti
0.777778 0.555556 0.261224 Ti
0.777778 0.222222 -0.000000 Ti
0.888889 0.777778 0.391836 Ti
0.555556 0.111111 0.391836 Ti
0.888889 0.444444 0.130612 Ti
0.777778 0.222222 0.261224 Ti
0.888889 0.444444 0.391836 Ti
0.888889 0.111111 0.130612 Ti
0.888889 0.111111 0.391836 Ti

0.000000 0.000000 0.000000
0.000000 0.000000 0.000000
0.000000 0.000000 0.000000
0.000000 0.000000 0.000000
0.000000 0.000000 0.000000
0.000000 0.000000 0.000000
0.000000 0.000000 0.000000
0.000000 0.000000 0.000000
0.000000 0.000000 0.000000
0.000000 0.000000 0.000000
0.000000 0.000000 0.000000
0.000000 0.000000 0.000000
0.000000 0.000000 0.000000
0.000000 0.000000 0.000000
0.000000 0.000000 0.000000
0.000000 0.000000 0.000000
0.000000 0.000000 0.000000
0.000000 0.000000 0.000000
0.000000 0.000000 0.000000
0.000000 0.000000 0.000000
0.000000 0.000000 0.000000
0.000000 0.000000 0.000000
0.000000 0.000000 0.000000
0.000000 0.000000 0.000000
0.000000 0.000000 0.000000
0.000000 0.000000 0.000000
0.000000 0.000000 0.000000
0.000000 0.000000 0.000000
0.000000 0.000000 0.000000
0.000000 0.000000 0.000000
0.000000 0.000000 0.000000
0.000000 0.000000 0.000000
0.000000 0.000000 0.000000
0.000000 0.000000 0.000000
0.000000 0.000000 0.000000
0.000000 0.000000 0.000000
0.000000 0.000000 0.000000
0.000000 0.000000 0.000000
0.000000 0.000000 0.000000
0.000000 0.000000 0.000000
0.000000 0.000000 0.000000
0.000000 0.000000 0.000000
0.000000 0.000000 0.000000
0.000000 0.000000 0.000000
0.000000 0.000000 0.000000
0.000000 0.000000 0.000000
0.000000 0.000000 0.000000
0.000000 0.000000 0.000000
0.000000 0.000000 0.000000
0.000000 0.000000 0.000000
0.000000 0.000000 0.000000
0.000000 0.000000 0.000000
0.000000 0.000000 0.000000
0.000000 0.000000 0.000000
0.000000 0.000000 0.000000
0.000000 0.000000 0.000000
0.000000 0.000000 0.000000
0.000000 0.000000 0.000000
0.000000 0.000000 0.000000
0.000000 0.000000 0.000000
0.000000 0.000000 0.000000
0.000000 0.000000 0.000000
0.000000 0.000000 0.000000
0.000000 0.000000 0.000000
0.000000 0.000000 0.000000
0.000000 0.000000 0.000000
0.000000 0.000000 0.000000
0.000000 0.000000 0.000000
0.000000 0.000000 0.000000
0.000000 0.000000 0.000000
0.000000 0.000000 0.000000
0.000000 0.000000 0.000000
