total_Ti
1.0
4.756512 0.000000 0.000000
0.000000 4.675432 0.000000
0.000000 0.000000 20.011800
Ti
24
direct
0.333333 0.750000 0.360018 Ti
0.333333 0.750000 0.216011 Ti
0.333333 0.750000 0.072004 Ti
0.833334 0.750000 0.288014 Ti
0.833334 0.750000 0.144007 Ti
0.833334 0.750000 -0.000000 Ti
0.166666 0.250000 0.288014 Ti
0.166666 0.250000 0.144007 Ti
0.166666 0.250000 -0.000000 Ti
0.666667 0.250000 0.360018 Ti
0.666667 0.250000 0.216011 Ti
0.666667 0.250000 0.072004 Ti
0.666667 0.750000 0.880073 Ti
0.166667 0.250000 0.880073 Ti
0.166667 0.750000 0.800048 Ti
0.666667 0.250000 0.800048 Ti
0.666667 0.750000 0.720023 Ti
0.166667 0.250000 0.720023 Ti
0.166667 0.750000 0.639997 Ti
0.666667 0.250000 0.639997 Ti
0.666667 0.750000 0.559972 Ti
0.166667 0.250000 0.559972 Ti
0.166667 0.750000 0.479947 Ti
0.666667 0.250000 0.479947 Ti
