Ti96 Mo1
1.0
9.513020 0.000000 0.000000
0.000000 9.350860 0.000000
0.000000 0.000000 18.547230
Ti Mo
96 1
Selective dynamics
direct
0.135435 0.362537 0.405970 T T T Ti
0.647501 0.347416 0.406595 T T T Ti
0.162727 0.853272 0.399156 T T T Ti
0.677483 0.914691 0.401064 T T T Ti
0.158706 0.377948 0.236885 T T T Ti
0.665656 0.369180 0.229288 T T T Ti
0.159714 0.872337 0.234183 T T T Ti
0.654479 0.861676 0.244959 T T T Ti
0.166678 0.374999 0.077637 F F F Ti
0.666669 0.375001 0.077649 F F F Ti
0.166689 0.875001 0.077657 F F F Ti
0.666678 0.875008 0.077661 F F F Ti
0.403803 0.368743 0.311911 T T T Ti
0.896404 0.376684 0.318948 T T T Ti
0.400134 0.909864 0.318455 T T T Ti
0.917262 0.881594 0.317924 T T T Ti
0.416668 0.374961 0.155300 F F F Ti
0.916630 0.374981 0.155304 F F F Ti
0.416649 0.875027 0.155347 F F F Ti
0.916735 0.874979 0.155302 F F F Ti
0.416668 0.375000 -0.000014 F F F Ti
0.916659 0.375001 -0.000017 F F F Ti
0.416667 0.874996 0.000001 F F F Ti
0.916674 0.874994 -0.000013 F F F Ti
0.103596 0.123316 0.318947 T T T Ti
0.596197 0.131257 0.311910 T T T Ti
0.082738 0.618406 0.317923 T T T Ti
0.599866 0.590137 0.318454 T T T Ti
0.083369 0.125022 0.155304 F F F Ti
0.583332 0.125043 0.155300 F F F Ti
0.083265 0.625025 0.155302 F F F Ti
0.583351 0.624975 0.155347 F F F Ti
0.083341 0.125000 -0.000017 F F F Ti
0.583333 0.125002 -0.000014 F F F Ti
0.083326 0.625008 -0.000013 F F F Ti
0.583333 0.625004 0.000001 F F F Ti
0.352498 0.152584 0.406595 T T T Ti
0.864564 0.137463 0.405970 T T T Ti
0.322516 0.585309 0.401064 T T T Ti
0.837272 0.646728 0.399156 T T T Ti
0.334343 0.130821 0.229288 T T T Ti
0.841293 0.122053 0.236885 T T T Ti
0.345520 0.638324 0.244959 T T T Ti
0.840285 0.627664 0.234183 T T T Ti
0.333330 0.125002 0.077649 F F F Ti
0.833321 0.125004 0.077637 F F F Ti
0.333321 0.624995 0.077661 F F F Ti
0.833310 0.625002 0.077657 F F F Ti
0.375003 0.375018 0.823796 F F F Ti
0.874996 0.374984 0.823788 F F F Ti
0.374995 0.874997 0.823778 F F F Ti
0.875014 0.874976 0.823772 F F F Ti
0.125004 0.125014 0.823788 F F F Ti
0.624999 0.124980 0.823796 F F F Ti
0.124987 0.625024 0.823772 F F F Ti
0.625006 0.625001 0.823778 F F F Ti
0.124994 0.375013 0.910091 F F F Ti
0.625002 0.375005 0.910098 F F F Ti
0.125001 0.874990 0.910087 F F F Ti
0.624995 0.874986 0.910091 F F F Ti
0.374998 0.124994 0.910098 F F F Ti
0.875007 0.124986 0.910091 F F F Ti
0.375005 0.625013 0.910091 F F F Ti
0.875000 0.625008 0.910087 F F F Ti
0.390662 0.393847 0.655354 T T T Ti
0.899931 0.378254 0.649521 T T T Ti
0.393376 0.882484 0.651036 T T T Ti
0.883664 0.886111 0.661838 T T T Ti
0.100068 0.121746 0.649521 T T T Ti
0.609338 0.106152 0.655354 T T T Ti
0.116336 0.613888 0.661838 T T T Ti
0.606624 0.617515 0.651036 T T T Ti
0.148617 0.375050 0.565987 T T T Ti
0.649097 0.351155 0.582657 T T T Ti
0.133376 0.857893 0.581786 T T T Ti
0.652394 0.857282 0.565369 T T T Ti
0.350903 0.148845 0.582657 T T T Ti
0.851383 0.124949 0.565987 T T T Ti
0.347606 0.642717 0.565369 T T T Ti
0.866624 0.642106 0.581786 T T T Ti
0.406890 0.382436 0.495712 T T T Ti
0.891287 0.383336 0.490242 T T T Ti
0.366161 0.919159 0.497018 T T T Ti
0.915464 0.879528 0.485147 T T T Ti
0.108713 0.116664 0.490242 T T T Ti
0.593110 0.117564 0.495712 T T T Ti
0.084535 0.620472 0.485147 T T T Ti
0.633839 0.580840 0.497018 T T T Ti
0.124977 0.875002 0.737467 F F F Ti
0.624984 0.874903 0.737471 F F F Ti
0.375014 0.625093 0.737470 F F F Ti
0.875021 0.624994 0.737466 F F F Ti
0.124931 0.375010 0.737484 F F F Ti
0.625011 0.374924 0.737500 F F F Ti
0.374986 0.125070 0.737499 F F F Ti
0.875067 0.124985 0.737483 F F F Ti
0.500000 0.750000 0.427164 T T T Mo

0.000000 0.000000 0.000000
0.000000 0.000000 0.000000
0.000000 0.000000 0.000000
0.000000 0.000000 0.000000
0.000000 0.000000 0.000000
0.000000 0.000000 0.000000
0.000000 0.000000 0.000000
0.000000 0.000000 0.000000
0.000000 0.000000 0.000000
0.000000 0.000000 0.000000
0.000000 0.000000 0.000000
0.000000 0.000000 0.000000
0.000000 0.000000 0.000000
0.000000 0.000000 0.000000
0.000000 0.000000 0.000000
0.000000 0.000000 0.000000
0.000000 0.000000 0.000000
0.000000 0.000000 0.000000
0.000000 0.000000 0.000000
0.000000 0.000000 0.000000
0.000000 0.000000 0.000000
0.000000 0.000000 0.000000
0.000000 0.000000 0.000000
0.000000 0.000000 0.000000
0.000000 0.000000 0.000000
0.000000 0.000000 0.000000
0.000000 0.000000 0.000000
0.000000 0.000000 0.000000
0.000000 0.000000 0.000000
0.000000 0.000000 0.000000
0.000000 0.000000 0.000000
0.000000 0.000000 0.000000
0.000000 0.000000 0.000000
0.000000 0.000000 0.000000
0.000000 0.000000 0.000000
0.000000 0.000000 0.000000
0.000000 0.000000 0.000000
0.000000 0.000000 0.000000
0.000000 0.000000 0.000000
0.000000 0.000000 0.000000
0.000000 0.000000 0.000000
0.000000 0.000000 0.000000
0.000000 0.000000 0.000000
0.000000 0.000000 0.000000
0.000000 0.000000 0.000000
0.000000 0.000000 0.000000
0.000000 0.000000 0.000000
0.000000 0.000000 0.000000
0.000000 0.000000 0.000000
0.000000 0.000000 0.000000
0.000000 0.000000 0.000000
0.000000 0.000000 0.000000
0.000000 0.000000 0.000000
0.000000 0.000000 0.000000
0.000000 0.000000 0.000000
0.000000 0.000000 0.000000
0.000000 0.000000 0.000000
0.000000 0.000000 0.000000
0.000000 0.000000 0.000000
0.000000 0.000000 0.000000
0.000000 0.000000 0.000000
0.000000 0.000000 0.000000
0.000000 0.000000 0.000000
0.000000 0.000000 0.000000
0.000000 0.000000 0.000000
0.000000 0.000000 0.000000
0.000000 0.000000 0.000000
0.000000 0.000000 0.000000
0.000000 0.000000 0.000000
0.000000 0.000000 0.000000
0.000000 0.000000 0.000000
0.000000 0.000000 0.000000
0.000000 0.000000 0.000000
0.000000 0.000000 0.000000
0.000000 0.000000 0.000000
0.000000 0.000000 0.000000
0.000000 0.000000 0.000000
0.000000 0.000000 0.000000
0.000000 0.000000 0.000000
0.000000 0.000000 0.000000
0.000000 0.000000 0.000000
0.000000 0.000000 0.000000
0.000000 0.000000 0.000000
0.000000 0.000000 0.000000
0.000000 0.000000 0.000000
0.000000 0.000000 0.000000
0.000000 0.000000 0.000000
0.000000 0.000000 0.000000
0.000000 0.000000 0.000000
0.000000 0.000000 0.000000
0.000000 0.000000 0.000000
0.000000 0.000000 0.000000
0.000000 0.000000 0.000000
0.000000 0.000000 0.000000
0.000000 0.000000 0.000000
0.000000 0.000000 0.000000
0.000000 0.000000 0.000000
