Ti66 Sn1
1.0
6.309760 0.000000 0.000000
0.000000 9.464640 0.000000
0.000000 0.000000 18.918326
Ti Sn
66 1
Selective dynamics
direct
0.125074 0.041868 0.499994 F F F Ti
0.625119 0.041577 0.500116 F F F Ti
0.125051 0.041590 0.658664 F F F Ti
0.625028 0.041564 0.658686 F F F Ti
0.125032 0.041627 0.817190 F F F Ti
0.624976 0.041618 0.817182 F F F Ti
0.125229 0.375241 0.500554 F F F Ti
0.624950 0.375049 0.501502 F F F Ti
0.124966 0.375017 0.658780 F F F Ti
0.625010 0.375001 0.658888 F F F Ti
0.124999 0.375002 0.817230 F F F Ti
0.624952 0.375003 0.817229 F F F Ti
0.125080 0.708299 0.500042 F F F Ti
0.624797 0.708674 0.500152 F F F Ti
0.124997 0.708468 0.658675 F F F Ti
0.624960 0.708513 0.658707 F F F Ti
0.125005 0.708303 0.817210 F F F Ti
0.624954 0.708314 0.817205 F F F Ti
0.374905 0.208119 0.579536 F F F Ti
0.875187 0.208116 0.579573 F F F Ti
0.374991 0.208276 0.737954 F F F Ti
0.875016 0.208271 0.737964 F F F Ti
0.374997 0.208311 0.896377 F F F Ti
0.875003 0.208316 0.896358 F F F Ti
0.374977 0.542009 0.579633 F F F Ti
0.875061 0.542058 0.579661 F F F Ti
0.374986 0.541727 0.737978 F F F Ti
0.874996 0.541737 0.737988 F F F Ti
0.374980 0.541639 0.896440 F F F Ti
0.874994 0.541644 0.896427 F F F Ti
0.374922 0.875096 0.579339 F F F Ti
0.875110 0.875067 0.579346 F F F Ti
0.374981 0.874999 0.737920 F F F Ti
0.875007 0.874998 0.737924 F F F Ti
0.375013 0.874904 0.896394 F F F Ti
0.875013 0.874897 0.896380 F F F Ti
0.125214 0.625739 0.357165 F F F Ti
0.625546 0.625769 0.356788 F F F Ti
0.125188 0.624450 0.118949 F F F Ti
0.624984 0.624685 0.118886 F F F Ti
0.627068 0.124789 0.356905 F F F Ti
0.125199 0.124257 0.118605 F F F Ti
0.625158 0.124484 0.118070 F F F Ti
0.125153 0.374791 0.039566 F F F Ti
0.624927 0.374959 0.039384 F F F Ti
0.125048 0.874589 0.039461 F F F Ti
0.625005 0.874557 0.039373 F F F Ti
0.628792 0.374620 0.277588 F F F Ti
0.125226 0.874412 0.277350 F F F Ti
0.625134 0.873668 0.277560 F F F Ti
0.375291 0.873881 0.158285 F F F Ti
0.874892 0.873685 0.158189 F F F Ti
0.376126 0.374418 0.158411 F F F Ti
0.873755 0.374680 0.157897 F F F Ti
0.382550 0.377371 0.398573 F F F Ti
0.866821 0.378124 0.399271 F F F Ti
0.374998 0.875435 0.396437 F F F Ti
0.875333 0.875168 0.396486 F F F Ti
0.375121 0.624264 0.237981 F F F Ti
0.875258 0.624780 0.237848 F F F Ti
0.374944 0.624832 -0.000020 F F F Ti
0.875074 0.624842 -0.000035 F F F Ti
0.381635 0.121279 0.236683 F F F Ti
0.867918 0.120342 0.236147 F F F Ti
0.374947 0.124795 -0.000189 F F F Ti
0.875154 0.124792 -0.000214 F F F Ti
0.117221 0.308906 0.299264 T T T Sn

0.000000 0.000000 0.000000
0.000000 0.000000 0.000000
0.000000 0.000000 0.000000
0.000000 0.000000 0.000000
0.000000 0.000000 0.000000
0.000000 0.000000 0.000000
0.000000 0.000000 0.000000
0.000000 0.000000 0.000000
0.000000 0.000000 0.000000
0.000000 0.000000 0.000000
0.000000 0.000000 0.000000
0.000000 0.000000 0.000000
0.000000 0.000000 0.000000
0.000000 0.000000 0.000000
0.000000 0.000000 0.000000
0.000000 0.000000 0.000000
0.000000 0.000000 0.000000
0.000000 0.000000 0.000000
0.000000 0.000000 0.000000
0.000000 0.000000 0.000000
0.000000 0.000000 0.000000
0.000000 0.000000 0.000000
0.000000 0.000000 0.000000
0.000000 0.000000 0.000000
0.000000 0.000000 0.000000
0.000000 0.000000 0.000000
0.000000 0.000000 0.000000
0.000000 0.000000 0.000000
0.000000 0.000000 0.000000
0.000000 0.000000 0.000000
0.000000 0.000000 0.000000
0.000000 0.000000 0.000000
0.000000 0.000000 0.000000
0.000000 0.000000 0.000000
0.000000 0.000000 0.000000
0.000000 0.000000 0.000000
0.000000 0.000000 0.000000
0.000000 0.000000 0.000000
0.000000 0.000000 0.000000
0.000000 0.000000 0.000000
0.000000 0.000000 0.000000
0.000000 0.000000 0.000000
0.000000 0.000000 0.000000
0.000000 0.000000 0.000000
0.000000 0.000000 0.000000
0.000000 0.000000 0.000000
0.000000 0.000000 0.000000
0.000000 0.000000 0.000000
0.000000 0.000000 0.000000
0.000000 0.000000 0.000000
0.000000 0.000000 0.000000
0.000000 0.000000 0.000000
0.000000 0.000000 0.000000
0.000000 0.000000 0.000000
0.000000 0.000000 0.000000
0.000000 0.000000 0.000000
0.000000 0.000000 0.000000
0.000000 0.000000 0.000000
0.000000 0.000000 0.000000
0.000000 0.000000 0.000000
0.000000 0.000000 0.000000
0.000000 0.000000 0.000000
0.000000 0.000000 0.000000
0.000000 0.000000 0.000000
0.000000 0.000000 0.000000
0.000000 0.000000 0.000000
0.000000 0.000000 0.000000
