total_Ti
1.0
8.805261 0.000000 0.000000
-4.402631 7.625580 0.000000
0.000000 0.000000 19.883422
Ti
90
direct
0.083333 0.916670 0.602841 Ti
0.083333 0.416670 0.602841 Ti
0.583333 0.916670 0.602841 Ti
0.583333 0.416670 0.602841 Ti
0.250000 0.250004 0.928351 Ti
0.250000 0.750004 0.928351 Ti
0.750000 0.250004 0.928351 Ti
0.750000 0.750004 0.928351 Ti
0.416667 0.083337 0.974853 Ti
0.416667 0.583337 0.974853 Ti
0.916667 0.083337 0.974853 Ti
0.916667 0.583337 0.974853 Ti
0.250000 0.250004 0.649343 Ti
0.250000 0.750004 0.649343 Ti
0.750000 0.250004 0.649343 Ti
0.750000 0.750004 0.649343 Ti
0.416667 0.083337 0.695844 Ti
0.416667 0.583337 0.695844 Ti
0.916667 0.083337 0.695844 Ti
0.916667 0.583337 0.695844 Ti
0.083333 0.916670 0.742346 Ti
0.083333 0.416670 0.742346 Ti
0.583333 0.916670 0.742346 Ti
0.583333 0.416670 0.742346 Ti
0.250000 0.250004 0.788847 Ti
0.250000 0.750004 0.788847 Ti
0.750000 0.250004 0.788847 Ti
0.750000 0.750004 0.788847 Ti
0.416667 0.083337 0.835348 Ti
0.416667 0.583337 0.835348 Ti
0.916667 0.083337 0.835348 Ti
0.916667 0.583337 0.835348 Ti
0.083333 0.916670 0.881850 Ti
0.083333 0.416670 0.881850 Ti
0.583333 0.916670 0.881850 Ti
0.583333 0.416670 0.881850 Ti
0.138888 0.861108 -0.000000 Ti
0.138888 0.861108 0.462156 Ti
0.138888 0.527774 -0.000000 Ti
0.249999 0.749996 0.115539 Ti
0.138888 0.527774 0.462156 Ti
0.472221 0.861108 -0.000000 Ti
0.138888 0.194441 -0.000000 Ti
0.249999 0.749996 0.577695 Ti
0.250000 0.416663 0.115539 Ti
0.472221 0.861108 0.462156 Ti
0.138888 0.194441 0.462156 Ti
0.472222 0.527774 -0.000000 Ti
0.250000 0.416663 0.577695 Ti
0.583333 0.749996 0.115539 Ti
0.250000 0.083330 0.115539 Ti
0.472222 0.527774 0.462156 Ti
0.805555 0.861108 -0.000000 Ti
0.472222 0.194441 -0.000000 Ti
0.583333 0.749996 0.577695 Ti
0.250000 0.083330 0.577695 Ti
0.583333 0.416663 0.115539 Ti
0.805555 0.861108 0.462156 Ti
0.472222 0.194441 0.462156 Ti
0.805555 0.527774 -0.000000 Ti
0.583333 0.416663 0.577695 Ti
0.916666 0.749996 0.115539 Ti
0.583333 0.083330 0.115539 Ti
0.805555 0.527774 0.462156 Ti
0.805555 0.194441 -0.000000 Ti
0.916666 0.749996 0.577695 Ti
0.583333 0.083330 0.577695 Ti
0.916666 0.416663 0.115539 Ti
0.805555 0.194441 0.462156 Ti
0.916666 0.416663 0.577695 Ti
0.916666 0.083330 0.115539 Ti
0.916666 0.083330 0.577695 Ti
0.138888 0.861108 0.231078 Ti
0.138888 0.527774 0.231078 Ti
0.249999 0.749996 0.346617 Ti
0.472221 0.861108 0.231078 Ti
0.138888 0.194441 0.231078 Ti
0.250000 0.416663 0.346617 Ti
0.472222 0.527774 0.231078 Ti
0.583333 0.749996 0.346617 Ti
0.250000 0.083330 0.346617 Ti
0.805555 0.861108 0.231078 Ti
0.472222 0.194441 0.231078 Ti
0.583333 0.416663 0.346617 Ti
0.805555 0.527774 0.231078 Ti
0.916666 0.749996 0.346617 Ti
0.583333 0.083330 0.346617 Ti
0.805555 0.194441 0.231078 Ti
0.916666 0.416663 0.346617 Ti
0.916666 0.083330 0.346617 Ti
