Ti66 Sn1
1.0
6.309760 0.000000 0.000000
0.000000 9.464640 0.000000
0.000000 0.000000 18.918326
Ti Sn
66 1
Selective dynamics
direct
0.123076 0.040697 0.498247 F F F Ti
0.625129 0.041372 0.499723 F F F Ti
0.630070 0.041063 0.658909 F F F Ti
0.125343 0.041869 0.817249 F F F Ti
0.625811 0.041517 0.817428 F F F Ti
0.124788 0.375205 0.499879 F F F Ti
0.624073 0.375396 0.499791 F F F Ti
0.124088 0.377512 0.658887 F F F Ti
0.625161 0.375596 0.658708 F F F Ti
0.124933 0.375451 0.817411 F F F Ti
0.625791 0.375723 0.817564 F F F Ti
0.124859 0.707807 0.499744 F F F Ti
0.625666 0.707628 0.499624 F F F Ti
0.125259 0.708359 0.658528 F F F Ti
0.625712 0.707998 0.658676 F F F Ti
0.125098 0.708487 0.817224 F F F Ti
0.625354 0.708446 0.817312 F F F Ti
0.869144 0.210548 0.578275 F F F Ti
0.379117 0.210601 0.739522 F F F Ti
0.874247 0.209308 0.738273 F F F Ti
0.375172 0.208479 0.896665 F F F Ti
0.875100 0.208419 0.896557 F F F Ti
0.375124 0.541579 0.579257 F F F Ti
0.874687 0.542029 0.579186 F F F Ti
0.375304 0.542165 0.738032 F F F Ti
0.874827 0.542145 0.738050 F F F Ti
0.375035 0.541884 0.896560 F F F Ti
0.875099 0.541882 0.896573 F F F Ti
0.378688 0.871754 0.578320 F F F Ti
0.874359 0.874203 0.578879 F F F Ti
0.376391 0.874544 0.738115 F F F Ti
0.875972 0.875048 0.737885 F F F Ti
0.375075 0.875036 0.896518 F F F Ti
0.875220 0.875036 0.896492 F F F Ti
0.124980 0.624984 0.356724 F F F Ti
0.624848 0.624938 0.356674 F F F Ti
0.124997 0.625043 0.118908 F F F Ti
0.624972 0.625037 0.118915 F F F Ti
0.124989 0.125093 0.356495 F F F Ti
0.624869 0.125020 0.356676 F F F Ti
0.124987 0.125008 0.118900 F F F Ti
0.624974 0.125009 0.118909 F F F Ti
0.124979 0.375046 0.039678 F F F Ti
0.625018 0.375053 0.039694 F F F Ti
0.124988 0.875018 0.039650 F F F Ti
0.625023 0.875006 0.039662 F F F Ti
0.124973 0.375049 0.277436 F F F Ti
0.624927 0.375007 0.277439 F F F Ti
0.124978 0.874955 0.277395 F F F Ti
0.624946 0.874982 0.277387 F F F Ti
0.375004 0.874994 0.158540 F F F Ti
0.874973 0.874995 0.158538 F F F Ti
0.375003 0.375021 0.158559 F F F Ti
0.875007 0.375025 0.158557 F F F Ti
0.374861 0.374940 0.396346 F F F Ti
0.874815 0.375089 0.396296 F F F Ti
0.375244 0.874768 0.396195 F F F Ti
0.874590 0.874698 0.396149 F F F Ti
0.374975 0.624997 0.237821 F F F Ti
0.874980 0.624993 0.237819 F F F Ti
0.374992 0.625100 0.000055 F F F Ti
0.875012 0.625098 0.000055 F F F Ti
0.375038 0.125010 0.237789 F F F Ti
0.874915 0.125015 0.237781 F F F Ti
0.375017 0.124974 0.000090 F F F Ti
0.874990 0.124999 0.000050 F F F Ti
0.192394 0.087237 0.636545 T T T Sn

0.000000 0.000000 0.000000
0.000000 0.000000 0.000000
0.000000 0.000000 0.000000
0.000000 0.000000 0.000000
0.000000 0.000000 0.000000
0.000000 0.000000 0.000000
0.000000 0.000000 0.000000
0.000000 0.000000 0.000000
0.000000 0.000000 0.000000
0.000000 0.000000 0.000000
0.000000 0.000000 0.000000
0.000000 0.000000 0.000000
0.000000 0.000000 0.000000
0.000000 0.000000 0.000000
0.000000 0.000000 0.000000
0.000000 0.000000 0.000000
0.000000 0.000000 0.000000
0.000000 0.000000 0.000000
0.000000 0.000000 0.000000
0.000000 0.000000 0.000000
0.000000 0.000000 0.000000
0.000000 0.000000 0.000000
0.000000 0.000000 0.000000
0.000000 0.000000 0.000000
0.000000 0.000000 0.000000
0.000000 0.000000 0.000000
0.000000 0.000000 0.000000
0.000000 0.000000 0.000000
0.000000 0.000000 0.000000
0.000000 0.000000 0.000000
0.000000 0.000000 0.000000
0.000000 0.000000 0.000000
0.000000 0.000000 0.000000
0.000000 0.000000 0.000000
0.000000 0.000000 0.000000
0.000000 0.000000 0.000000
0.000000 0.000000 0.000000
0.000000 0.000000 0.000000
0.000000 0.000000 0.000000
0.000000 0.000000 0.000000
0.000000 0.000000 0.000000
0.000000 0.000000 0.000000
0.000000 0.000000 0.000000
0.000000 0.000000 0.000000
0.000000 0.000000 0.000000
0.000000 0.000000 0.000000
0.000000 0.000000 0.000000
0.000000 0.000000 0.000000
0.000000 0.000000 0.000000
0.000000 0.000000 0.000000
0.000000 0.000000 0.000000
0.000000 0.000000 0.000000
0.000000 0.000000 0.000000
0.000000 0.000000 0.000000
0.000000 0.000000 0.000000
0.000000 0.000000 0.000000
0.000000 0.000000 0.000000
0.000000 0.000000 0.000000
0.000000 0.000000 0.000000
0.000000 0.000000 0.000000
0.000000 0.000000 0.000000
0.000000 0.000000 0.000000
0.000000 0.000000 0.000000
0.000000 0.000000 0.000000
0.000000 0.000000 0.000000
0.000000 0.000000 0.000000
0.000000 0.000000 0.000000
