Ti66 Sn1
1.0
6.309760 0.000000 0.000000
0.000000 9.464640 0.000000
0.000000 0.000000 18.918326
Ti Sn
66 1
Selective dynamics
direct
0.625000 1.040633 0.479288 T T T Ti
0.125000 0.047082 0.654831 T T T Ti
0.625000 0.064423 0.651838 T T T Ti
0.125000 0.041667 0.817153 F F F Ti
0.625000 0.041667 0.817153 F F F Ti
0.125000 0.372005 0.466563 T T T Ti
0.625000 0.340745 0.458786 T T T Ti
0.125000 0.390133 0.643141 T T T Ti
0.625000 0.375049 0.655403 T T T Ti
0.125000 0.375000 0.817153 F F F Ti
0.625000 0.375000 0.817153 F F F Ti
0.125000 0.716171 0.498435 T T T Ti
0.625000 0.724277 0.480372 T T T Ti
0.125000 0.699211 0.646121 T T T Ti
0.625000 0.681483 0.647966 T T T Ti
0.125000 0.708333 0.817153 F F F Ti
0.625000 0.708333 0.817153 F F F Ti
0.388909 0.228728 0.561737 T T T Ti
0.861091 0.228728 0.561737 T T T Ti
0.375000 0.208333 0.737865 F F F Ti
0.875000 0.208333 0.737865 F F F Ti
0.375000 0.208333 0.896441 F F F Ti
0.875000 0.208333 0.896441 F F F Ti
0.402236 0.520283 0.551739 T T T Ti
0.847764 0.520283 0.551739 T T T Ti
0.375000 0.541667 0.737865 F F F Ti
0.875000 0.541667 0.737865 F F F Ti
0.375000 0.541667 0.896441 F F F Ti
0.875000 0.541667 0.896441 F F F Ti
0.402524 0.872880 0.576257 T T T Ti
0.847476 0.872880 0.576257 T T T Ti
0.375000 0.875000 0.737865 F F F Ti
0.875000 0.875000 0.737865 F F F Ti
0.375000 0.875000 0.896441 F F F Ti
0.875000 0.875000 0.896441 F F F Ti
0.125000 0.613682 0.372756 T T T Ti
0.625000 0.563580 0.368631 T T T Ti
0.125000 0.625000 0.118932 F F F Ti
0.625000 0.625000 0.118932 F F F Ti
0.625000 0.042973 0.333584 T T T Ti
0.125000 0.125000 0.118932 F F F Ti
0.625000 0.125000 0.118932 F F F Ti
0.125000 0.375000 0.039644 F F F Ti
0.625000 0.375000 0.039644 F F F Ti
0.125000 0.875000 0.039644 F F F Ti
0.625000 0.875000 0.039644 F F F Ti
0.125000 0.376623 0.287107 T T T Ti
0.625000 0.344311 0.283792 T T T Ti
0.125000 0.875757 0.276717 T T T Ti
0.625000 0.803550 0.280204 T T T Ti
0.375000 0.875000 0.158576 F F F Ti
0.875000 0.875000 0.158576 F F F Ti
0.374999 0.375000 0.158576 F F F Ti
0.874999 0.375000 0.158576 F F F Ti
0.338761 0.191809 0.380876 T T T Ti
0.911239 0.191809 0.380876 T T T Ti
0.354947 0.863721 0.392770 T T T Ti
0.895053 0.863721 0.392770 T T T Ti
0.361249 0.611096 0.245964 T T T Ti
0.888751 0.611096 0.245964 T T T Ti
0.375000 0.625000 0.000000 F F F Ti
0.875000 0.625000 0.000000 F F F Ti
0.349992 0.130178 0.241164 T T T Ti
0.900008 0.130178 0.241164 T T T Ti
0.375000 0.125000 0.000000 F F F Ti
0.875000 0.125000 0.000000 F F F Ti
0.125000 0.036971 0.489837 T T T Sn
