total_Ti
1.0
6.391540 0.000000 0.000000
0.000000 9.587310 0.000000
0.000000 0.000000 38.750000
Ti
84
direct
0.125000 0.083333 0.548387 Ti
0.625000 0.083333 0.548387 Ti
0.125000 0.083333 0.625806 Ti
0.625000 0.083333 0.625806 Ti
0.125000 0.083333 0.703226 Ti
0.625000 0.083333 0.703226 Ti
0.125000 0.416667 0.548387 Ti
0.625000 0.416667 0.548387 Ti
0.125000 0.416667 0.625806 Ti
0.625000 0.416667 0.625806 Ti
0.125000 0.416667 0.703226 Ti
0.625000 0.416667 0.703226 Ti
0.125000 0.750000 0.548387 Ti
0.625000 0.750000 0.548387 Ti
0.125000 0.750000 0.625806 Ti
0.625000 0.750000 0.625806 Ti
0.125000 0.750000 0.703226 Ti
0.625000 0.750000 0.703226 Ti
0.375000 0.250000 0.587097 Ti
0.875000 0.250000 0.587097 Ti
0.375000 0.250000 0.664516 Ti
0.875000 0.250000 0.664516 Ti
0.375000 0.250000 0.741935 Ti
0.875000 0.250000 0.741935 Ti
0.375000 0.583333 0.587097 Ti
0.875000 0.583333 0.587097 Ti
0.375000 0.583333 0.664516 Ti
0.875000 0.583333 0.664516 Ti
0.375000 0.583333 0.741935 Ti
0.875000 0.583333 0.741935 Ti
0.375000 0.916667 0.587097 Ti
0.875000 0.916667 0.587097 Ti
0.375000 0.916667 0.664516 Ti
0.875000 0.916667 0.664516 Ti
0.375000 0.916667 0.741935 Ti
0.875000 0.916667 0.741935 Ti
0.125000 0.166667 0.232258 Ti
0.625000 0.166667 0.232258 Ti
0.125000 0.666667 0.232258 Ti
0.625000 0.666667 0.232258 Ti
0.125000 0.166667 -0.000000 Ti
0.625000 0.166667 -0.000000 Ti
0.125000 0.666667 -0.000000 Ti
0.625000 0.666667 -0.000000 Ti
0.125000 0.833333 0.058065 Ti
0.625000 0.833333 0.058065 Ti
0.125000 0.833333 0.290323 Ti
0.625000 0.833333 0.290323 Ti
0.125000 0.333333 0.058065 Ti
0.625000 0.333333 0.058065 Ti
0.125000 0.333333 0.290323 Ti
0.625000 0.333333 0.290323 Ti
0.375000 0.583333 0.290323 Ti
0.875000 0.583333 0.290323 Ti
0.374999 0.583333 0.058065 Ti
0.874999 0.583333 0.058065 Ti
0.375000 0.083333 0.058065 Ti
0.875000 0.083333 0.058065 Ti
0.375000 0.083333 0.290323 Ti
0.875000 0.083333 0.290323 Ti
0.375000 0.416667 0.232258 Ti
0.875000 0.416667 0.232258 Ti
0.375000 0.916667 0.232258 Ti
0.875000 0.916667 0.232258 Ti
0.375000 0.416667 -0.000000 Ti
0.875000 0.416667 -0.000000 Ti
0.375000 0.916667 -0.000000 Ti
0.875000 0.916667 -0.000000 Ti
0.375000 0.083333 0.174194 Ti
0.875000 0.083333 0.174194 Ti
0.125000 0.166667 0.116129 Ti
0.625000 0.166667 0.116129 Ti
0.125000 0.333333 0.174194 Ti
0.625000 0.333333 0.174194 Ti
0.375000 0.416667 0.116129 Ti
0.875000 0.416667 0.116129 Ti
0.374999 0.583333 0.174194 Ti
0.874999 0.583333 0.174194 Ti
0.125000 0.666667 0.116129 Ti
0.625000 0.666667 0.116129 Ti
0.125000 0.833333 0.174194 Ti
0.625000 0.833333 0.174194 Ti
0.375000 0.916667 0.116129 Ti
0.875000 0.916667 0.116129 Ti
