Ti97
1.0
9.513020 0.000000 0.000000
0.000000 9.350860 0.000000
0.000000 0.000000 18.547230
Ti
97
Selective dynamics
direct
0.146245 0.376747 0.400514 T T T Ti
0.651449 0.372747 0.397366 T T T Ti
0.163368 0.885880 0.395844 T T T Ti
0.647915 0.906697 0.403495 T T T Ti
0.163236 0.377057 0.236479 T T T Ti
0.660615 0.379115 0.235198 T T T Ti
0.157850 0.875291 0.235727 T T T Ti
0.660810 0.875440 0.233993 T T T Ti
0.166660 0.374992 0.077669 F F F Ti
0.666667 0.374985 0.077670 F F F Ti
0.166674 0.875016 0.077682 F F F Ti
0.666670 0.875017 0.077692 F F F Ti
0.409512 0.374121 0.317216 T T T Ti
0.909090 0.371308 0.312571 T T T Ti
0.410698 0.873027 0.316767 T T T Ti
0.900070 0.865291 0.323398 T T T Ti
0.416669 0.374981 0.155327 F F F Ti
0.916648 0.374977 0.155337 F F F Ti
0.416707 0.875054 0.155357 F F F Ti
0.916672 0.875035 0.155364 F F F Ti
0.416679 0.375010 -0.000007 F F F Ti
0.916654 0.375008 -0.000004 F F F Ti
0.416685 0.875003 0.000005 F F F Ti
0.916654 0.875003 0.000004 F F F Ti
0.090488 0.125879 0.317215 T T T Ti
0.590910 0.128692 0.312570 T T T Ti
0.089302 0.626973 0.316766 T T T Ti
0.599930 0.634710 0.323397 T T T Ti
0.083331 0.125023 0.155327 F F F Ti
0.583351 0.125027 0.155336 F F F Ti
0.083294 0.624949 0.155357 F F F Ti
0.583328 0.624967 0.155364 F F F Ti
0.083322 0.124996 -0.000008 F F F Ti
0.583345 0.124997 -0.000004 F F F Ti
0.083315 0.625000 0.000005 F F F Ti
0.583347 0.625001 0.000004 F F F Ti
0.353754 0.123253 0.400514 T T T Ti
0.848550 0.127253 0.397366 T T T Ti
0.336631 0.614120 0.395844 T T T Ti
0.852084 0.593303 0.403495 T T T Ti
0.336763 0.122943 0.236479 T T T Ti
0.839384 0.120886 0.235198 T T T Ti
0.342149 0.624709 0.235727 T T T Ti
0.839189 0.624561 0.233994 T T T Ti
0.333339 0.125013 0.077669 F F F Ti
0.833332 0.125020 0.077669 F F F Ti
0.333325 0.624988 0.077682 F F F Ti
0.833329 0.624986 0.077692 F F F Ti
0.374989 0.375017 0.823831 F F F Ti
0.874998 0.375002 0.823813 F F F Ti
0.375013 0.875009 0.823864 F F F Ti
0.874944 0.874967 0.823785 F F F Ti
0.125013 0.124982 0.823830 F F F Ti
0.625005 0.124998 0.823813 F F F Ti
0.124988 0.624988 0.823863 F F F Ti
0.625059 0.625031 0.823785 F F F Ti
0.124985 0.374993 0.910129 F F F Ti
0.625029 0.375020 0.910112 F F F Ti
0.124984 0.875000 0.910142 F F F Ti
0.625031 0.874985 0.910128 F F F Ti
0.375017 0.125008 0.910128 F F F Ti
0.874973 0.124981 0.910111 F F F Ti
0.375018 0.624998 0.910142 F F F Ti
0.874971 0.625014 0.910127 F F F Ti
0.394665 0.372034 0.646178 T T T Ti
0.886515 0.351966 0.658480 T T T Ti
0.375710 0.867235 0.668233 T T T Ti
0.890422 0.869253 0.655253 T T T Ti
0.105334 0.127965 0.646178 T T T Ti
0.613484 0.148032 0.658480 T T T Ti
0.124289 0.632763 0.668233 T T T Ti
0.609578 0.630746 0.655253 T T T Ti
0.144061 0.387570 0.573393 T T T Ti
0.656793 0.394953 0.570744 T T T Ti
0.147713 0.874793 0.573431 T T T Ti
0.594809 0.916361 0.579544 T T T Ti
0.355938 0.112429 0.573393 T T T Ti
0.843207 0.105047 0.570744 T T T Ti
0.352287 0.625207 0.573431 T T T Ti
0.905191 0.583639 0.579544 T T T Ti
0.388309 0.366648 0.488870 T T T Ti
0.900256 0.348661 0.489229 T T T Ti
0.394046 0.857569 0.480408 T T T Ti
0.928958 0.895926 0.477835 T T T Ti
0.111690 0.133352 0.488870 T T T Ti
0.599744 0.151339 0.489229 T T T Ti
0.105954 0.642431 0.480408 T T T Ti
0.571042 0.604074 0.477835 T T T Ti
0.125089 0.875085 0.737603 F F F Ti
0.625074 0.875123 0.737584 F F F Ti
0.374906 0.624905 0.737605 F F F Ti
0.874922 0.624867 0.737586 F F F Ti
0.125069 0.374911 0.737559 F F F Ti
0.624983 0.375337 0.737549 F F F Ti
0.374928 0.125083 0.737558 F F F Ti
0.875014 0.124655 0.737553 F F F Ti
0.750000 0.750000 0.527773 T T T Ti

0.000000 0.000000 0.000000
0.000000 0.000000 0.000000
0.000000 0.000000 0.000000
0.000000 0.000000 0.000000
0.000000 0.000000 0.000000
0.000000 0.000000 0.000000
0.000000 0.000000 0.000000
0.000000 0.000000 0.000000
0.000000 0.000000 0.000000
0.000000 0.000000 0.000000
0.000000 0.000000 0.000000
0.000000 0.000000 0.000000
0.000000 0.000000 0.000000
0.000000 0.000000 0.000000
0.000000 0.000000 0.000000
0.000000 0.000000 0.000000
0.000000 0.000000 0.000000
0.000000 0.000000 0.000000
0.000000 0.000000 0.000000
0.000000 0.000000 0.000000
0.000000 0.000000 0.000000
0.000000 0.000000 0.000000
0.000000 0.000000 0.000000
0.000000 0.000000 0.000000
0.000000 0.000000 0.000000
0.000000 0.000000 0.000000
0.000000 0.000000 0.000000
0.000000 0.000000 0.000000
0.000000 0.000000 0.000000
0.000000 0.000000 0.000000
0.000000 0.000000 0.000000
0.000000 0.000000 0.000000
0.000000 0.000000 0.000000
0.000000 0.000000 0.000000
0.000000 0.000000 0.000000
0.000000 0.000000 0.000000
0.000000 0.000000 0.000000
0.000000 0.000000 0.000000
0.000000 0.000000 0.000000
0.000000 0.000000 0.000000
0.000000 0.000000 0.000000
0.000000 0.000000 0.000000
0.000000 0.000000 0.000000
0.000000 0.000000 0.000000
0.000000 0.000000 0.000000
0.000000 0.000000 0.000000
0.000000 0.000000 0.000000
0.000000 0.000000 0.000000
0.000000 0.000000 0.000000
0.000000 0.000000 0.000000
0.000000 0.000000 0.000000
0.000000 0.000000 0.000000
0.000000 0.000000 0.000000
0.000000 0.000000 0.000000
0.000000 0.000000 0.000000
0.000000 0.000000 0.000000
0.000000 0.000000 0.000000
0.000000 0.000000 0.000000
0.000000 0.000000 0.000000
0.000000 0.000000 0.000000
0.000000 0.000000 0.000000
0.000000 0.000000 0.000000
0.000000 0.000000 0.000000
0.000000 0.000000 0.000000
0.000000 0.000000 0.000000
0.000000 0.000000 0.000000
0.000000 0.000000 0.000000
0.000000 0.000000 0.000000
0.000000 0.000000 0.000000
0.000000 0.000000 0.000000
0.000000 0.000000 0.000000
0.000000 0.000000 0.000000
0.000000 0.000000 0.000000
0.000000 0.000000 0.000000
0.000000 0.000000 0.000000
0.000000 0.000000 0.000000
0.000000 0.000000 0.000000
0.000000 0.000000 0.000000
0.000000 0.000000 0.000000
0.000000 0.000000 0.000000
0.000000 0.000000 0.000000
0.000000 0.000000 0.000000
0.000000 0.000000 0.000000
0.000000 0.000000 0.000000
0.000000 0.000000 0.000000
0.000000 0.000000 0.000000
0.000000 0.000000 0.000000
0.000000 0.000000 0.000000
0.000000 0.000000 0.000000
0.000000 0.000000 0.000000
0.000000 0.000000 0.000000
0.000000 0.000000 0.000000
0.000000 0.000000 0.000000
0.000000 0.000000 0.000000
0.000000 0.000000 0.000000
0.000000 0.000000 0.000000
0.000000 0.000000 0.000000
