Zr1 Ti82
1.0
6.391540 0.000000 0.000000
0.000000 9.587310 0.000000
0.000000 0.000000 23.271695
Ti Zr
82 1
Selective dynamics
direct
0.626450 0.083332 0.580693 F F F Ti
0.125028 0.083335 0.709490 F F F Ti
0.625102 0.083333 0.709519 F F F Ti
0.124998 0.083333 0.838398 F F F Ti
0.625009 0.083333 0.838403 F F F Ti
0.124950 0.416943 0.580589 F F F Ti
0.625126 0.416752 0.580576 F F F Ti
0.124992 0.416696 0.709500 F F F Ti
0.625071 0.416717 0.709508 F F F Ti
0.124999 0.416669 0.838400 F F F Ti
0.625006 0.416672 0.838402 F F F Ti
0.124936 0.749738 0.580586 F F F Ti
0.625125 0.749919 0.580575 F F F Ti
0.124986 0.749977 0.709500 F F F Ti
0.625070 0.749961 0.709508 F F F Ti
0.124997 0.750000 0.838400 F F F Ti
0.625006 0.749998 0.838402 F F F Ti
0.375385 0.250281 0.645181 F F F Ti
0.875058 0.250076 0.645052 F F F Ti
0.375009 0.250007 0.773956 F F F Ti
0.875011 0.250005 0.773947 F F F Ti
0.375000 0.250001 0.902854 F F F Ti
0.875001 0.250000 0.902853 F F F Ti
0.375043 0.583358 0.645040 F F F Ti
0.874981 0.583338 0.645045 F F F Ti
0.375003 0.583337 0.773949 F F F Ti
0.875009 0.583333 0.773949 F F F Ti
0.374999 0.583333 0.902854 F F F Ti
0.875001 0.583333 0.902854 F F F Ti
0.375366 0.916401 0.645173 F F F Ti
0.875078 0.916604 0.645048 F F F Ti
0.375008 0.916662 0.773955 F F F Ti
0.875011 0.916664 0.773945 F F F Ti
0.374999 0.916666 0.902853 F F F Ti
0.875000 0.916667 0.902853 F F F Ti
0.124956 0.166689 0.386698 F F F Ti
0.624902 0.166692 0.386710 F F F Ti
0.125000 0.666622 0.386701 F F F Ti
0.625009 0.666656 0.386724 F F F Ti
0.125000 0.166667 0.000001 F F F Ti
0.625001 0.166667 0.000001 F F F Ti
0.125000 0.666667 0.000001 F F F Ti
0.625000 0.666667 0.000001 F F F Ti
0.125000 0.833333 0.096683 F F F Ti
0.625000 0.833333 0.096683 F F F Ti
0.124680 0.832731 0.483284 F F F Ti
0.625068 0.833241 0.483409 F F F Ti
0.125000 0.333333 0.096683 F F F Ti
0.625000 0.333333 0.096683 F F F Ti
0.124683 0.333934 0.483283 F F F Ti
0.625037 0.333419 0.483412 F F F Ti
0.375072 0.583365 0.483412 F F F Ti
0.874897 0.583351 0.483408 F F F Ti
0.375000 0.583333 0.096683 F F F Ti
0.874999 0.583333 0.096683 F F F Ti
0.375000 0.083333 0.096683 F F F Ti
0.874999 0.083333 0.096683 F F F Ti
0.873585 0.083331 0.483168 F F F Ti
0.375026 0.416689 0.386716 F F F Ti
0.874928 0.416700 0.386704 F F F Ti
0.374985 0.916644 0.386719 F F F Ti
0.874931 0.916621 0.386689 F F F Ti
0.375000 0.416668 0.000001 F F F Ti
0.874999 0.416667 0.000001 F F F Ti
0.375000 0.916667 0.000001 F F F Ti
0.874999 0.916667 0.000001 F F F Ti
0.374992 0.083332 0.290044 F F F Ti
0.874986 0.083334 0.290039 F F F Ti
0.125000 0.166667 0.193364 F F F Ti
0.624997 0.166667 0.193364 F F F Ti
0.124998 0.333339 0.290041 F F F Ti
0.624988 0.333335 0.290043 F F F Ti
0.374999 0.416668 0.193364 F F F Ti
0.874997 0.416668 0.193363 F F F Ti
0.375007 0.583335 0.290044 F F F Ti
0.874990 0.583335 0.290040 F F F Ti
0.125000 0.666666 0.193364 F F F Ti
0.624997 0.666666 0.193364 F F F Ti
0.125001 0.833329 0.290041 F F F Ti
0.624988 0.833328 0.290043 F F F Ti
0.374998 0.916666 0.193364 F F F Ti
0.874997 0.916666 0.193364 F F F Ti
0.216773 0.083981 0.548842 T T T Zr

0.000000 0.000000 0.000000
0.000000 0.000000 0.000000
0.000000 0.000000 0.000000
0.000000 0.000000 0.000000
0.000000 0.000000 0.000000
0.000000 0.000000 0.000000
0.000000 0.000000 0.000000
0.000000 0.000000 0.000000
0.000000 0.000000 0.000000
0.000000 0.000000 0.000000
0.000000 0.000000 0.000000
0.000000 0.000000 0.000000
0.000000 0.000000 0.000000
0.000000 0.000000 0.000000
0.000000 0.000000 0.000000
0.000000 0.000000 0.000000
0.000000 0.000000 0.000000
0.000000 0.000000 0.000000
0.000000 0.000000 0.000000
0.000000 0.000000 0.000000
0.000000 0.000000 0.000000
0.000000 0.000000 0.000000
0.000000 0.000000 0.000000
0.000000 0.000000 0.000000
0.000000 0.000000 0.000000
0.000000 0.000000 0.000000
0.000000 0.000000 0.000000
0.000000 0.000000 0.000000
0.000000 0.000000 0.000000
0.000000 0.000000 0.000000
0.000000 0.000000 0.000000
0.000000 0.000000 0.000000
0.000000 0.000000 0.000000
0.000000 0.000000 0.000000
0.000000 0.000000 0.000000
0.000000 0.000000 0.000000
0.000000 0.000000 0.000000
0.000000 0.000000 0.000000
0.000000 0.000000 0.000000
0.000000 0.000000 0.000000
0.000000 0.000000 0.000000
0.000000 0.000000 0.000000
0.000000 0.000000 0.000000
0.000000 0.000000 0.000000
0.000000 0.000000 0.000000
0.000000 0.000000 0.000000
0.000000 0.000000 0.000000
0.000000 0.000000 0.000000
0.000000 0.000000 0.000000
0.000000 0.000000 0.000000
0.000000 0.000000 0.000000
0.000000 0.000000 0.000000
0.000000 0.000000 0.000000
0.000000 0.000000 0.000000
0.000000 0.000000 0.000000
0.000000 0.000000 0.000000
0.000000 0.000000 0.000000
0.000000 0.000000 0.000000
0.000000 0.000000 0.000000
0.000000 0.000000 0.000000
0.000000 0.000000 0.000000
0.000000 0.000000 0.000000
0.000000 0.000000 0.000000
0.000000 0.000000 0.000000
0.000000 0.000000 0.000000
0.000000 0.000000 0.000000
0.000000 0.000000 0.000000
0.000000 0.000000 0.000000
0.000000 0.000000 0.000000
0.000000 0.000000 0.000000
0.000000 0.000000 0.000000
0.000000 0.000000 0.000000
0.000000 0.000000 0.000000
0.000000 0.000000 0.000000
0.000000 0.000000 0.000000
0.000000 0.000000 0.000000
0.000000 0.000000 0.000000
0.000000 0.000000 0.000000
0.000000 0.000000 0.000000
0.000000 0.000000 0.000000
0.000000 0.000000 0.000000
0.000000 0.000000 0.000000
0.000000 0.000000 0.000000
