Ti66 Sn1
1.0
6.309760 0.000000 0.000000
0.000000 9.464640 0.000000
0.000000 0.000000 18.918326
Ti Sn
66 1
Selective dynamics
direct
0.124145 0.040100 0.501670 F F F Ti
0.626530 0.041572 0.500294 F F F Ti
0.124938 0.041680 0.658920 F F F Ti
0.624972 0.041727 0.658813 F F F Ti
0.124993 0.041692 0.817236 F F F Ti
0.624984 0.041698 0.817230 F F F Ti
0.122877 0.376754 0.500980 F F F Ti
0.624417 0.375212 0.500387 F F F Ti
0.124858 0.375258 0.658804 F F F Ti
0.624843 0.375232 0.658769 F F F Ti
0.124986 0.375096 0.817211 F F F Ti
0.624965 0.375096 0.817211 F F F Ti
0.125256 0.709546 0.499898 F F F Ti
0.624170 0.708998 0.499975 F F F Ti
0.125016 0.708512 0.658660 F F F Ti
0.624670 0.708452 0.658723 F F F Ti
0.124991 0.708386 0.817189 F F F Ti
0.624933 0.708380 0.817201 F F F Ti
0.375102 0.208482 0.579649 F F F Ti
0.874429 0.208591 0.579720 F F F Ti
0.375021 0.208426 0.737999 F F F Ti
0.874884 0.208433 0.738019 F F F Ti
0.375022 0.208396 0.896408 F F F Ti
0.874991 0.208401 0.896404 F F F Ti
0.374946 0.542035 0.579423 F F F Ti
0.874328 0.542366 0.579522 F F F Ti
0.374970 0.541762 0.737958 F F F Ti
0.874914 0.541796 0.737974 F F F Ti
0.375003 0.541716 0.896414 F F F Ti
0.874973 0.541721 0.896409 F F F Ti
0.375602 0.874914 0.579631 F F F Ti
0.874397 0.874646 0.579681 F F F Ti
0.375026 0.875014 0.738015 F F F Ti
0.874885 0.874979 0.738018 F F F Ti
0.375029 0.875020 0.896433 F F F Ti
0.874983 0.875016 0.896429 F F F Ti
0.125051 0.625688 0.356704 F F F Ti
0.624360 0.625433 0.356649 F F F Ti
0.125073 0.625303 0.118734 F F F Ti
0.625098 0.625239 0.118733 F F F Ti
0.635978 0.123884 0.356197 F F F Ti
0.125310 0.125148 0.118697 F F F Ti
0.625728 0.125046 0.118532 F F F Ti
0.125084 0.375113 0.039466 F F F Ti
0.625025 0.375124 0.039400 F F F Ti
0.125057 0.875098 0.039517 F F F Ti
0.625128 0.875026 0.039487 F F F Ti
0.122763 0.378497 0.275926 F F F Ti
0.625679 0.375327 0.277154 F F F Ti
0.125828 0.875425 0.277416 F F F Ti
0.626116 0.874822 0.277278 F F F Ti
0.375310 0.874961 0.158371 F F F Ti
0.875363 0.875174 0.158400 F F F Ti
0.375515 0.375340 0.158231 F F F Ti
0.874452 0.375412 0.158062 F F F Ti
0.870059 0.379029 0.396770 F F F Ti
0.376938 0.874238 0.396509 F F F Ti
0.875992 0.874665 0.396514 F F F Ti
0.375378 0.625512 0.237676 F F F Ti
0.874519 0.625817 0.237610 F F F Ti
0.375015 0.625124 -0.000091 F F F Ti
0.874999 0.625120 -0.000100 F F F Ti
0.378281 0.124876 0.236800 F F F Ti
0.876187 0.125371 0.237258 F F F Ti
0.375084 0.125002 -0.000111 F F F Ti
0.875130 0.125007 -0.000123 F F F Ti
0.198853 0.187424 0.373664 T T T Sn

0.000000 0.000000 0.000000
0.000000 0.000000 0.000000
0.000000 0.000000 0.000000
0.000000 0.000000 0.000000
0.000000 0.000000 0.000000
0.000000 0.000000 0.000000
0.000000 0.000000 0.000000
0.000000 0.000000 0.000000
0.000000 0.000000 0.000000
0.000000 0.000000 0.000000
0.000000 0.000000 0.000000
0.000000 0.000000 0.000000
0.000000 0.000000 0.000000
0.000000 0.000000 0.000000
0.000000 0.000000 0.000000
0.000000 0.000000 0.000000
0.000000 0.000000 0.000000
0.000000 0.000000 0.000000
0.000000 0.000000 0.000000
0.000000 0.000000 0.000000
0.000000 0.000000 0.000000
0.000000 0.000000 0.000000
0.000000 0.000000 0.000000
0.000000 0.000000 0.000000
0.000000 0.000000 0.000000
0.000000 0.000000 0.000000
0.000000 0.000000 0.000000
0.000000 0.000000 0.000000
0.000000 0.000000 0.000000
0.000000 0.000000 0.000000
0.000000 0.000000 0.000000
0.000000 0.000000 0.000000
0.000000 0.000000 0.000000
0.000000 0.000000 0.000000
0.000000 0.000000 0.000000
0.000000 0.000000 0.000000
0.000000 0.000000 0.000000
0.000000 0.000000 0.000000
0.000000 0.000000 0.000000
0.000000 0.000000 0.000000
0.000000 0.000000 0.000000
0.000000 0.000000 0.000000
0.000000 0.000000 0.000000
0.000000 0.000000 0.000000
0.000000 0.000000 0.000000
0.000000 0.000000 0.000000
0.000000 0.000000 0.000000
0.000000 0.000000 0.000000
0.000000 0.000000 0.000000
0.000000 0.000000 0.000000
0.000000 0.000000 0.000000
0.000000 0.000000 0.000000
0.000000 0.000000 0.000000
0.000000 0.000000 0.000000
0.000000 0.000000 0.000000
0.000000 0.000000 0.000000
0.000000 0.000000 0.000000
0.000000 0.000000 0.000000
0.000000 0.000000 0.000000
0.000000 0.000000 0.000000
0.000000 0.000000 0.000000
0.000000 0.000000 0.000000
0.000000 0.000000 0.000000
0.000000 0.000000 0.000000
0.000000 0.000000 0.000000
0.000000 0.000000 0.000000
0.000000 0.000000 0.000000
