Ti66 Al1
1.0
6.309760 0.000000 0.000000
0.000000 9.464640 0.000000
0.000000 0.000000 18.918326
Ti Al
66 1
Selective dynamics
direct
0.135754 0.046523 0.484156 T T T Ti
0.631224 0.059987 0.490890 T T T Ti
0.126896 0.063313 0.653540 T T T Ti
0.626519 0.070876 0.645835 T T T Ti
0.125570 0.042723 0.817843 F F F Ti
0.625458 0.042566 0.817622 F F F Ti
0.623421 0.383187 0.477834 T T T Ti
0.126099 0.386028 0.655241 T T T Ti
0.624997 0.380635 0.642553 T T T Ti
0.125385 0.376261 0.817697 F F F Ti
0.625415 0.376392 0.817691 F F F Ti
0.127171 0.746003 0.488761 T T T Ti
0.622781 0.734651 0.501185 T T T Ti
0.126072 0.699436 0.644631 T T T Ti
0.624933 0.701856 0.648659 T T T Ti
0.125294 0.709783 0.817696 F F F Ti
0.625177 0.709758 0.817516 F F F Ti
0.345364 0.236417 0.556565 T T T Ti
0.908214 0.237062 0.556934 T T T Ti
0.376712 0.209108 0.738767 F F F Ti
0.874965 0.209109 0.738728 F F F Ti
0.375493 0.209990 0.896639 F F F Ti
0.875152 0.209971 0.896614 F F F Ti
0.347740 0.530513 0.549786 T T T Ti
0.901721 0.531767 0.550115 T T T Ti
0.375532 0.543018 0.738532 F F F Ti
0.875376 0.543078 0.738456 F F F Ti
0.375183 0.543460 0.896627 F F F Ti
0.875149 0.543491 0.896599 F F F Ti
0.368952 0.898243 0.577419 T T T Ti
0.885319 0.897794 0.577217 T T T Ti
0.375813 0.875804 0.738463 F F F Ti
0.875449 0.875756 0.738360 F F F Ti
0.375387 0.876907 0.896755 F F F Ti
0.875006 0.876907 0.896711 F F F Ti
0.129855 0.604745 0.372780 T T T Ti
0.620027 0.620760 0.375843 T T T Ti
0.125496 0.631589 0.118074 F F F Ti
0.624873 0.631426 0.117995 F F F Ti
0.637426 0.121196 0.360277 T T T Ti
0.126056 0.130893 0.118896 F F F Ti
0.624843 0.130779 0.118455 F F F Ti
0.125455 0.379099 0.038965 F F F Ti
0.625197 0.379142 0.038887 F F F Ti
0.125076 0.879636 0.039648 F F F Ti
0.624731 0.879434 0.039521 F F F Ti
0.126246 0.384088 0.275037 T T T Ti
0.623661 0.384203 0.283523 T T T Ti
0.125592 0.864986 0.283212 T T T Ti
0.625979 0.874186 0.273868 T T T Ti
0.375505 0.882883 0.158536 F F F Ti
0.874796 0.882301 0.158250 F F F Ti
0.375313 0.381943 0.157183 F F F Ti
0.875577 0.382727 0.156977 F F F Ti
0.343485 0.336295 0.396459 T T T Ti
0.899473 0.355165 0.396655 T T T Ti
0.405390 0.878953 0.396157 T T T Ti
0.846698 0.873292 0.396723 T T T Ti
0.373868 0.626802 0.247607 T T T Ti
0.876717 0.626882 0.247874 T T T Ti
0.374931 0.628949 -0.000285 F F F Ti
0.875068 0.628965 -0.000291 F F F Ti
0.384520 0.129834 0.244885 T T T Ti
0.865224 0.130485 0.242530 T T T Ti
0.375084 0.128142 0.000130 F F F Ti
0.875348 0.128153 0.000132 F F F Ti
0.076796 0.155247 0.384500 T T T Al

0.000000 0.000000 0.000000
0.000000 0.000000 0.000000
0.000000 0.000000 0.000000
0.000000 0.000000 0.000000
0.000000 0.000000 0.000000
0.000000 0.000000 0.000000
0.000000 0.000000 0.000000
0.000000 0.000000 0.000000
0.000000 0.000000 0.000000
0.000000 0.000000 0.000000
0.000000 0.000000 0.000000
0.000000 0.000000 0.000000
0.000000 0.000000 0.000000
0.000000 0.000000 0.000000
0.000000 0.000000 0.000000
0.000000 0.000000 0.000000
0.000000 0.000000 0.000000
0.000000 0.000000 0.000000
0.000000 0.000000 0.000000
0.000000 0.000000 0.000000
0.000000 0.000000 0.000000
0.000000 0.000000 0.000000
0.000000 0.000000 0.000000
0.000000 0.000000 0.000000
0.000000 0.000000 0.000000
0.000000 0.000000 0.000000
0.000000 0.000000 0.000000
0.000000 0.000000 0.000000
0.000000 0.000000 0.000000
0.000000 0.000000 0.000000
0.000000 0.000000 0.000000
0.000000 0.000000 0.000000
0.000000 0.000000 0.000000
0.000000 0.000000 0.000000
0.000000 0.000000 0.000000
0.000000 0.000000 0.000000
0.000000 0.000000 0.000000
0.000000 0.000000 0.000000
0.000000 0.000000 0.000000
0.000000 0.000000 0.000000
0.000000 0.000000 0.000000
0.000000 0.000000 0.000000
0.000000 0.000000 0.000000
0.000000 0.000000 0.000000
0.000000 0.000000 0.000000
0.000000 0.000000 0.000000
0.000000 0.000000 0.000000
0.000000 0.000000 0.000000
0.000000 0.000000 0.000000
0.000000 0.000000 0.000000
0.000000 0.000000 0.000000
0.000000 0.000000 0.000000
0.000000 0.000000 0.000000
0.000000 0.000000 0.000000
0.000000 0.000000 0.000000
0.000000 0.000000 0.000000
0.000000 0.000000 0.000000
0.000000 0.000000 0.000000
0.000000 0.000000 0.000000
0.000000 0.000000 0.000000
0.000000 0.000000 0.000000
0.000000 0.000000 0.000000
0.000000 0.000000 0.000000
0.000000 0.000000 0.000000
0.000000 0.000000 0.000000
0.000000 0.000000 0.000000
0.000000 0.000000 0.000000
