beta_Ti
1.0
4.756510 0.000000 0.000000
0.000000 4.675430 0.000000
0.000000 0.000000 27.211761
Ti
12
direct
0.750000 0.750000 0.779509 Ti
0.250000 0.250000 0.779509 Ti
0.250000 0.750000 0.720658 Ti
0.750000 0.250000 0.720658 Ti
0.750000 0.750000 0.661807 Ti
0.250000 0.250000 0.661807 Ti
0.250000 0.750000 0.602956 Ti
0.750000 0.250000 0.602956 Ti
0.750000 0.750000 0.544104 Ti
0.250000 0.250000 0.544104 Ti
0.250000 0.750000 0.485253 Ti
0.750000 0.250000 0.485253 Ti
