total_Ti
1.0
4.756510 0.000000 0.000000
0.000000 4.675430 0.000000
0.000000 0.000000 27.211761
Ti
24
direct
0.333333 0.750000 0.264760 Ti
0.333333 0.750000 0.158857 Ti
0.333333 0.750000 0.052952 Ti
0.833334 0.750000 0.211809 Ti
0.833334 0.750000 0.105904 Ti
0.833334 0.750000 -0.000000 Ti
0.166666 0.250000 0.211808 Ti
0.166666 0.250000 0.105904 Ti
0.166666 0.250000 -0.000000 Ti
0.666667 0.250000 0.264760 Ti
0.666667 0.250000 0.158857 Ti
0.666667 0.250000 0.052952 Ti
0.750000 0.750000 0.779509 Ti
0.250000 0.250000 0.779509 Ti
0.250000 0.750000 0.720658 Ti
0.750000 0.250000 0.720658 Ti
0.750000 0.750000 0.661807 Ti
0.250000 0.250000 0.661807 Ti
0.250000 0.750000 0.602956 Ti
0.750000 0.250000 0.602956 Ti
0.750000 0.750000 0.544104 Ti
0.250000 0.250000 0.544104 Ti
0.250000 0.750000 0.485253 Ti
0.750000 0.250000 0.485253 Ti
