alpha_Ti
1.0
6.309760 0.000000 0.000000
0.000000 9.464640 0.000000
0.000000 0.000000 18.300004
Ti
32
direct
0.125000 0.625000 0.368852 Ti
0.625000 0.625000 0.368852 Ti
0.125000 0.625000 0.122951 Ti
0.625000 0.625000 0.122951 Ti
0.125000 0.125000 0.368852 Ti
0.625000 0.125000 0.368852 Ti
0.125000 0.125000 0.122951 Ti
0.625000 0.125000 0.122951 Ti
0.125000 0.375000 0.040984 Ti
0.625000 0.375000 0.040984 Ti
0.125000 0.875000 0.040984 Ti
0.625000 0.875000 0.040984 Ti
0.125000 0.375000 0.286885 Ti
0.625000 0.375000 0.286885 Ti
0.125000 0.875000 0.286885 Ti
0.625000 0.875000 0.286885 Ti
0.375000 0.875000 0.163934 Ti
0.875000 0.875000 0.163934 Ti
0.374999 0.375000 0.163934 Ti
0.874999 0.375000 0.163934 Ti
0.375000 0.375000 0.409836 Ti
0.875000 0.375000 0.409836 Ti
0.375000 0.875000 0.409836 Ti
0.875000 0.875000 0.409836 Ti
0.375000 0.625000 0.245901 Ti
0.875000 0.625000 0.245901 Ti
0.375000 0.625000 -0.000000 Ti
0.875000 0.625000 -0.000000 Ti
0.375000 0.125000 0.245902 Ti
0.875000 0.125000 0.245902 Ti
0.375000 0.125000 -0.000000 Ti
0.875000 0.125000 -0.000000 Ti
