Ti66 Al1
1.0
6.309760 0.000000 0.000000
0.000000 9.464640 0.000000
0.000000 0.000000 18.918326
Ti Al
66 1
Selective dynamics
direct
0.124864 0.040643 0.500094 F F F Ti
0.625579 0.041393 0.500026 F F F Ti
0.125057 0.041550 0.658689 F F F Ti
0.625382 0.041499 0.658740 F F F Ti
0.125018 0.041667 0.817202 F F F Ti
0.625044 0.041666 0.817212 F F F Ti
0.629888 0.375123 0.500556 F F F Ti
0.125281 0.374993 0.658555 F F F Ti
0.625522 0.375021 0.658754 F F F Ti
0.125014 0.375002 0.817170 F F F Ti
0.625062 0.375007 0.817203 F F F Ti
0.124902 0.709190 0.500091 F F F Ti
0.625450 0.708624 0.500024 F F F Ti
0.125059 0.708428 0.658662 F F F Ti
0.625321 0.708516 0.658724 F F F Ti
0.125009 0.708335 0.817191 F F F Ti
0.625035 0.708342 0.817207 F F F Ti
0.376564 0.207497 0.579826 F F F Ti
0.875430 0.207998 0.579435 F F F Ti
0.375073 0.208320 0.737951 F F F Ti
0.875121 0.208329 0.737915 F F F Ti
0.375007 0.208340 0.896458 F F F Ti
0.875013 0.208339 0.896453 F F F Ti
0.376489 0.542459 0.579795 F F F Ti
0.875476 0.541992 0.579426 F F F Ti
0.375067 0.541687 0.737949 F F F Ti
0.875122 0.541673 0.737914 F F F Ti
0.375004 0.541664 0.896459 F F F Ti
0.875013 0.541662 0.896453 F F F Ti
0.375289 0.875078 0.579383 F F F Ti
0.874915 0.875005 0.579407 F F F Ti
0.375039 0.875006 0.737944 F F F Ti
0.875061 0.874993 0.737953 F F F Ti
0.375010 0.875002 0.896467 F F F Ti
0.875004 0.875000 0.896466 F F F Ti
0.124326 0.625829 0.356453 F F F Ti
0.624760 0.625403 0.356705 F F F Ti
0.125000 0.625016 0.118895 F F F Ti
0.624937 0.625023 0.118882 F F F Ti
0.124322 0.124188 0.356432 F F F Ti
0.624834 0.124656 0.356699 F F F Ti
0.125005 0.124996 0.118891 F F F Ti
0.624937 0.124991 0.118878 F F F Ti
0.124999 0.375003 0.039619 F F F Ti
0.624971 0.375003 0.039614 F F F Ti
0.124995 0.875006 0.039625 F F F Ti
0.624979 0.875007 0.039622 F F F Ti
0.124690 0.375010 0.277347 F F F Ti
0.624148 0.375016 0.277215 F F F Ti
0.124951 0.875050 0.277391 F F F Ti
0.624880 0.875052 0.277436 F F F Ti
0.375015 0.875008 0.158529 F F F Ti
0.874944 0.875017 0.158510 F F F Ti
0.374907 0.375005 0.158517 F F F Ti
0.874912 0.375005 0.158482 F F F Ti
0.868388 0.374996 0.395102 F F F Ti
0.375093 0.875199 0.396415 F F F Ti
0.874789 0.875108 0.396385 F F F Ti
0.374968 0.625037 0.237808 F F F Ti
0.874750 0.625097 0.237719 F F F Ti
0.374995 0.625008 -0.000004 F F F Ti
0.874988 0.625009 -0.000010 F F F Ti
0.374976 0.124986 0.237802 F F F Ti
0.874747 0.124924 0.237713 F F F Ti
0.374991 0.124991 -0.000007 F F F Ti
0.874988 0.124993 -0.000010 F F F Ti
0.203509 0.374327 0.468017 T T T Al

0.000000 0.000000 0.000000
0.000000 0.000000 0.000000
0.000000 0.000000 0.000000
0.000000 0.000000 0.000000
0.000000 0.000000 0.000000
0.000000 0.000000 0.000000
0.000000 0.000000 0.000000
0.000000 0.000000 0.000000
0.000000 0.000000 0.000000
0.000000 0.000000 0.000000
0.000000 0.000000 0.000000
0.000000 0.000000 0.000000
0.000000 0.000000 0.000000
0.000000 0.000000 0.000000
0.000000 0.000000 0.000000
0.000000 0.000000 0.000000
0.000000 0.000000 0.000000
0.000000 0.000000 0.000000
0.000000 0.000000 0.000000
0.000000 0.000000 0.000000
0.000000 0.000000 0.000000
0.000000 0.000000 0.000000
0.000000 0.000000 0.000000
0.000000 0.000000 0.000000
0.000000 0.000000 0.000000
0.000000 0.000000 0.000000
0.000000 0.000000 0.000000
0.000000 0.000000 0.000000
0.000000 0.000000 0.000000
0.000000 0.000000 0.000000
0.000000 0.000000 0.000000
0.000000 0.000000 0.000000
0.000000 0.000000 0.000000
0.000000 0.000000 0.000000
0.000000 0.000000 0.000000
0.000000 0.000000 0.000000
0.000000 0.000000 0.000000
0.000000 0.000000 0.000000
0.000000 0.000000 0.000000
0.000000 0.000000 0.000000
0.000000 0.000000 0.000000
0.000000 0.000000 0.000000
0.000000 0.000000 0.000000
0.000000 0.000000 0.000000
0.000000 0.000000 0.000000
0.000000 0.000000 0.000000
0.000000 0.000000 0.000000
0.000000 0.000000 0.000000
0.000000 0.000000 0.000000
0.000000 0.000000 0.000000
0.000000 0.000000 0.000000
0.000000 0.000000 0.000000
0.000000 0.000000 0.000000
0.000000 0.000000 0.000000
0.000000 0.000000 0.000000
0.000000 0.000000 0.000000
0.000000 0.000000 0.000000
0.000000 0.000000 0.000000
0.000000 0.000000 0.000000
0.000000 0.000000 0.000000
0.000000 0.000000 0.000000
0.000000 0.000000 0.000000
0.000000 0.000000 0.000000
0.000000 0.000000 0.000000
0.000000 0.000000 0.000000
0.000000 0.000000 0.000000
0.000000 0.000000 0.000000
