Ti96 Mo1
1.0
9.513020 0.000000 0.000000
0.000000 9.350860 0.000000
0.000000 0.000000 18.547230
Ti Mo
96 1
Selective dynamics
direct
0.150104 0.378635 0.408088 T T T Ti
0.656031 0.341664 0.416397 T T T Ti
0.132381 0.861367 0.403124 T T T Ti
0.681102 0.874236 0.398890 T T T Ti
0.151044 0.365039 0.237434 T T T Ti
0.660124 0.369271 0.232860 T T T Ti
0.167467 0.866988 0.237349 T T T Ti
0.667754 0.894135 0.239091 T T T Ti
0.166589 0.375088 0.077336 F F F Ti
0.666744 0.375028 0.077283 F F F Ti
0.166684 0.874993 0.077495 F F F Ti
0.666565 0.874940 0.077577 F F F Ti
0.398824 0.367797 0.322344 T T T Ti
0.895925 0.371792 0.324903 T T T Ti
0.382552 0.935129 0.332919 T T T Ti
0.918019 0.883868 0.313014 T T T Ti
0.416715 0.375003 0.154790 F F F Ti
0.916766 0.374834 0.154751 F F F Ti
0.416654 0.874898 0.155482 F F F Ti
0.916864 0.875128 0.154796 F F F Ti
0.416652 0.375068 -0.000170 F F F Ti
0.916632 0.375010 -0.000245 F F F Ti
0.416670 0.874940 0.000024 F F F Ti
0.916640 0.874975 -0.000187 F F F Ti
0.104075 0.128210 0.324901 T T T Ti
0.601176 0.132205 0.322343 T T T Ti
0.081980 0.616135 0.313013 T T T Ti
0.617449 0.564872 0.332918 T T T Ti
0.083234 0.125205 0.154748 F F F Ti
0.583285 0.125037 0.154789 F F F Ti
0.083134 0.624908 0.154797 F F F Ti
0.583348 0.625108 0.155480 F F F Ti
0.083370 0.125001 -0.000246 F F F Ti
0.583349 0.124950 -0.000168 F F F Ti
0.083360 0.625034 -0.000187 F F F Ti
0.583332 0.625054 0.000022 F F F Ti
0.343968 0.158336 0.416397 T T T Ti
0.849895 0.121366 0.408088 T T T Ti
0.318897 0.625765 0.398890 T T T Ti
0.867618 0.638634 0.403124 T T T Ti
0.339876 0.130735 0.232859 T T T Ti
0.848955 0.134969 0.237434 T T T Ti
0.332244 0.605872 0.239091 T T T Ti
0.832532 0.633020 0.237350 T T T Ti
0.333257 0.125001 0.077284 F F F Ti
0.833410 0.124940 0.077336 F F F Ti
0.333433 0.625079 0.077576 F F F Ti
0.833315 0.625029 0.077494 F F F Ti
0.375078 0.375151 0.823786 F F F Ti
0.874882 0.375008 0.823847 F F F Ti
0.375123 0.874903 0.823668 F F F Ti
0.874887 0.874978 0.823765 F F F Ti
0.125117 0.124967 0.823847 F F F Ti
0.624928 0.124840 0.823788 F F F Ti
0.125116 0.625003 0.823765 F F F Ti
0.624881 0.625083 0.823667 F F F Ti
0.125094 0.375125 0.910095 F F F Ti
0.624954 0.375157 0.910153 F F F Ti
0.125171 0.874913 0.910156 F F F Ti
0.624913 0.874869 0.910263 F F F Ti
0.375054 0.124827 0.910156 F F F Ti
0.874914 0.124866 0.910096 F F F Ti
0.375091 0.625098 0.910262 F F F Ti
0.874833 0.625063 0.910156 F F F Ti
0.395921 0.384467 0.656754 T T T Ti
0.895721 0.373494 0.650439 T T T Ti
0.397053 0.888315 0.647421 T T T Ti
0.889149 0.883998 0.662125 T T T Ti
0.104277 0.126501 0.650439 T T T Ti
0.604077 0.115527 0.656754 T T T Ti
0.110848 0.615995 0.662125 T T T Ti
0.602947 0.611680 0.647422 T T T Ti
0.154215 0.373536 0.569948 T T T Ti
0.644481 0.349191 0.573032 T T T Ti
0.135976 0.865545 0.582633 T T T Ti
0.657120 0.866193 0.575376 T T T Ti
0.355518 0.150807 0.573032 T T T Ti
0.845785 0.126462 0.569947 T T T Ti
0.342879 0.633806 0.575376 T T T Ti
0.864023 0.634453 0.582633 T T T Ti
0.411258 0.406032 0.488069 T T T Ti
0.906861 0.375585 0.489712 T T T Ti
0.355044 0.902089 0.492890 T T T Ti
0.907064 0.877737 0.493060 T T T Ti
0.093139 0.124415 0.489712 T T T Ti
0.588742 0.093967 0.488069 T T T Ti
0.092936 0.622263 0.493060 T T T Ti
0.644956 0.597910 0.492890 T T T Ti
0.125095 0.875169 0.737705 F F F Ti
0.624915 0.874998 0.737492 F F F Ti
0.375082 0.624984 0.737489 F F F Ti
0.874895 0.624799 0.737709 F F F Ti
0.124941 0.374964 0.737715 F F F Ti
0.624958 0.374946 0.737676 F F F Ti
0.375032 0.125027 0.737676 F F F Ti
0.875049 0.125008 0.737715 F F F Ti
0.500000 0.750000 0.375015 T T T Mo

0.000000 0.000000 0.000000
0.000000 0.000000 0.000000
0.000000 0.000000 0.000000
0.000000 0.000000 0.000000
0.000000 0.000000 0.000000
0.000000 0.000000 0.000000
0.000000 0.000000 0.000000
0.000000 0.000000 0.000000
0.000000 0.000000 0.000000
0.000000 0.000000 0.000000
0.000000 0.000000 0.000000
0.000000 0.000000 0.000000
0.000000 0.000000 0.000000
0.000000 0.000000 0.000000
0.000000 0.000000 0.000000
0.000000 0.000000 0.000000
0.000000 0.000000 0.000000
0.000000 0.000000 0.000000
0.000000 0.000000 0.000000
0.000000 0.000000 0.000000
0.000000 0.000000 0.000000
0.000000 0.000000 0.000000
0.000000 0.000000 0.000000
0.000000 0.000000 0.000000
0.000000 0.000000 0.000000
0.000000 0.000000 0.000000
0.000000 0.000000 0.000000
0.000000 0.000000 0.000000
0.000000 0.000000 0.000000
0.000000 0.000000 0.000000
0.000000 0.000000 0.000000
0.000000 0.000000 0.000000
0.000000 0.000000 0.000000
0.000000 0.000000 0.000000
0.000000 0.000000 0.000000
0.000000 0.000000 0.000000
0.000000 0.000000 0.000000
0.000000 0.000000 0.000000
0.000000 0.000000 0.000000
0.000000 0.000000 0.000000
0.000000 0.000000 0.000000
0.000000 0.000000 0.000000
0.000000 0.000000 0.000000
0.000000 0.000000 0.000000
0.000000 0.000000 0.000000
0.000000 0.000000 0.000000
0.000000 0.000000 0.000000
0.000000 0.000000 0.000000
0.000000 0.000000 0.000000
0.000000 0.000000 0.000000
0.000000 0.000000 0.000000
0.000000 0.000000 0.000000
0.000000 0.000000 0.000000
0.000000 0.000000 0.000000
0.000000 0.000000 0.000000
0.000000 0.000000 0.000000
0.000000 0.000000 0.000000
0.000000 0.000000 0.000000
0.000000 0.000000 0.000000
0.000000 0.000000 0.000000
0.000000 0.000000 0.000000
0.000000 0.000000 0.000000
0.000000 0.000000 0.000000
0.000000 0.000000 0.000000
0.000000 0.000000 0.000000
0.000000 0.000000 0.000000
0.000000 0.000000 0.000000
0.000000 0.000000 0.000000
0.000000 0.000000 0.000000
0.000000 0.000000 0.000000
0.000000 0.000000 0.000000
0.000000 0.000000 0.000000
0.000000 0.000000 0.000000
0.000000 0.000000 0.000000
0.000000 0.000000 0.000000
0.000000 0.000000 0.000000
0.000000 0.000000 0.000000
0.000000 0.000000 0.000000
0.000000 0.000000 0.000000
0.000000 0.000000 0.000000
0.000000 0.000000 0.000000
0.000000 0.000000 0.000000
0.000000 0.000000 0.000000
0.000000 0.000000 0.000000
0.000000 0.000000 0.000000
0.000000 0.000000 0.000000
0.000000 0.000000 0.000000
0.000000 0.000000 0.000000
0.000000 0.000000 0.000000
0.000000 0.000000 0.000000
0.000000 0.000000 0.000000
0.000000 0.000000 0.000000
0.000000 0.000000 0.000000
0.000000 0.000000 0.000000
0.000000 0.000000 0.000000
0.000000 0.000000 0.000000
0.000000 0.000000 0.000000
