Ti96 Sn1
1.0
9.513020 0.000000 0.000000
0.000000 9.350860 0.000000
0.000000 0.000000 18.547230
Ti Sn
96 1
Selective dynamics
direct
0.148526 0.375430 0.402626 T T T Ti
0.643562 0.335482 0.406842 T T T Ti
0.116710 0.855511 0.393579 T T T Ti
0.688910 0.872543 0.388638 T T T Ti
0.161956 0.369255 0.234776 T T T Ti
0.658905 0.375934 0.234600 T T T Ti
0.168223 0.874864 0.234989 T T T Ti
0.652448 0.870440 0.236105 T T T Ti
0.166666 0.375000 0.077689 F F F Ti
0.666666 0.375000 0.077689 F F F Ti
0.166666 0.875000 0.077689 F F F Ti
0.666666 0.875000 0.077689 F F F Ti
0.405879 0.382293 0.314110 T T T Ti
0.896086 0.374938 0.321282 T T T Ti
0.398854 0.896524 0.334620 T T T Ti
0.914862 0.887453 0.303796 T T T Ti
0.416667 0.375000 0.155379 F F F Ti
0.916667 0.375000 0.155379 F F F Ti
0.416667 0.875000 0.155379 F F F Ti
0.916667 0.875000 0.155379 F F F Ti
0.416667 0.375000 -0.000000 F F F Ti
0.916667 0.375000 -0.000000 F F F Ti
0.416667 0.875000 -0.000000 F F F Ti
0.916667 0.875000 -0.000000 F F F Ti
0.103914 0.125062 0.321281 T T T Ti
0.594121 0.117707 0.314109 T T T Ti
0.085138 0.612547 0.303795 T T T Ti
0.601146 0.603476 0.334619 T T T Ti
0.083333 0.125000 0.155379 F F F Ti
0.583333 0.125000 0.155379 F F F Ti
0.083333 0.625000 0.155379 F F F Ti
0.583333 0.625000 0.155379 F F F Ti
0.083333 0.125000 -0.000000 F F F Ti
0.583333 0.125000 -0.000000 F F F Ti
0.083333 0.625000 -0.000000 F F F Ti
0.583333 0.625000 -0.000000 F F F Ti
0.356437 0.164518 0.406842 T T T Ti
0.851473 0.124570 0.402626 T T T Ti
0.311089 0.627457 0.388638 T T T Ti
0.883289 0.644489 0.393579 T T T Ti
0.341094 0.124066 0.234600 T T T Ti
0.838043 0.130745 0.234776 T T T Ti
0.347551 0.629560 0.236105 T T T Ti
0.831776 0.625136 0.234989 T T T Ti
0.333333 0.125000 0.077689 F F F Ti
0.833333 0.125000 0.077689 F F F Ti
0.333333 0.625000 0.077689 F F F Ti
0.833333 0.625000 0.077689 F F F Ti
0.375000 0.375000 0.823738 F F F Ti
0.875000 0.375000 0.823738 F F F Ti
0.375000 0.875000 0.823738 F F F Ti
0.875000 0.875000 0.823738 F F F Ti
0.125000 0.125000 0.823738 F F F Ti
0.625000 0.125000 0.823738 F F F Ti
0.125000 0.625000 0.823738 F F F Ti
0.625000 0.625000 0.823738 F F F Ti
0.125000 0.375000 0.910084 F F F Ti
0.625000 0.375000 0.910084 F F F Ti
0.125000 0.875000 0.910084 F F F Ti
0.625000 0.875000 0.910084 F F F Ti
0.375000 0.125000 0.910084 F F F Ti
0.875000 0.125000 0.910084 F F F Ti
0.375000 0.625000 0.910084 F F F Ti
0.875000 0.625000 0.910084 F F F Ti
0.394862 0.384728 0.661340 T T T Ti
0.888816 0.375956 0.644707 T T T Ti
0.387563 0.895263 0.642354 T T T Ti
0.881725 0.885149 0.673222 T T T Ti
0.111184 0.124044 0.644707 T T T Ti
0.605138 0.115272 0.661340 T T T Ti
0.118275 0.614851 0.673222 T T T Ti
0.612437 0.604737 0.642354 T T T Ti
0.155170 0.380152 0.573765 T T T Ti
0.634106 0.334010 0.567764 T T T Ti
0.114489 0.853361 0.586545 T T T Ti
0.663543 0.867487 0.582051 T T T Ti
0.365894 0.165990 0.567764 T T T Ti
0.844830 0.119848 0.573765 T T T Ti
0.336457 0.632513 0.582051 T T T Ti
0.885511 0.646639 0.586545 T T T Ti
0.412512 0.426978 0.483550 T T T Ti
0.903230 0.365592 0.488167 T T T Ti
0.296314 0.934946 0.490629 T T T Ti
0.904963 0.894813 0.490422 T T T Ti
0.096770 0.134408 0.488167 T T T Ti
0.587488 0.073022 0.483550 T T T Ti
0.095037 0.605187 0.490422 T T T Ti
0.703686 0.565054 0.490629 T T T Ti
0.125000 0.875000 0.737395 F F F Ti
0.625000 0.875000 0.737395 F F F Ti
0.375000 0.625000 0.737395 F F F Ti
0.875000 0.625000 0.737395 F F F Ti
0.125000 0.375000 0.737395 F F F Ti
0.625000 0.375000 0.737395 F F F Ti
0.375000 0.125000 0.737395 F F F Ti
0.875000 0.125000 0.737395 F F F Ti
0.500000 0.750000 0.475317 T T T Sn

0.000000 0.000000 0.000000
0.000000 0.000000 0.000000
0.000000 0.000000 0.000000
0.000000 0.000000 0.000000
0.000000 0.000000 0.000000
0.000000 0.000000 0.000000
0.000000 0.000000 0.000000
0.000000 0.000000 0.000000
0.000000 0.000000 0.000000
0.000000 0.000000 0.000000
0.000000 0.000000 0.000000
0.000000 0.000000 0.000000
0.000000 0.000000 0.000000
0.000000 0.000000 0.000000
0.000000 0.000000 0.000000
0.000000 0.000000 0.000000
0.000000 0.000000 0.000000
0.000000 0.000000 0.000000
0.000000 0.000000 0.000000
0.000000 0.000000 0.000000
0.000000 0.000000 0.000000
0.000000 0.000000 0.000000
0.000000 0.000000 0.000000
0.000000 0.000000 0.000000
0.000000 0.000000 0.000000
0.000000 0.000000 0.000000
0.000000 0.000000 0.000000
0.000000 0.000000 0.000000
0.000000 0.000000 0.000000
0.000000 0.000000 0.000000
0.000000 0.000000 0.000000
0.000000 0.000000 0.000000
0.000000 0.000000 0.000000
0.000000 0.000000 0.000000
0.000000 0.000000 0.000000
0.000000 0.000000 0.000000
0.000000 0.000000 0.000000
0.000000 0.000000 0.000000
0.000000 0.000000 0.000000
0.000000 0.000000 0.000000
0.000000 0.000000 0.000000
0.000000 0.000000 0.000000
0.000000 0.000000 0.000000
0.000000 0.000000 0.000000
0.000000 0.000000 0.000000
0.000000 0.000000 0.000000
0.000000 0.000000 0.000000
0.000000 0.000000 0.000000
0.000000 0.000000 0.000000
0.000000 0.000000 0.000000
0.000000 0.000000 0.000000
0.000000 0.000000 0.000000
0.000000 0.000000 0.000000
0.000000 0.000000 0.000000
0.000000 0.000000 0.000000
0.000000 0.000000 0.000000
0.000000 0.000000 0.000000
0.000000 0.000000 0.000000
0.000000 0.000000 0.000000
0.000000 0.000000 0.000000
0.000000 0.000000 0.000000
0.000000 0.000000 0.000000
0.000000 0.000000 0.000000
0.000000 0.000000 0.000000
0.000000 0.000000 0.000000
0.000000 0.000000 0.000000
0.000000 0.000000 0.000000
0.000000 0.000000 0.000000
0.000000 0.000000 0.000000
0.000000 0.000000 0.000000
0.000000 0.000000 0.000000
0.000000 0.000000 0.000000
0.000000 0.000000 0.000000
0.000000 0.000000 0.000000
0.000000 0.000000 0.000000
0.000000 0.000000 0.000000
0.000000 0.000000 0.000000
0.000000 0.000000 0.000000
0.000000 0.000000 0.000000
0.000000 0.000000 0.000000
0.000000 0.000000 0.000000
0.000000 0.000000 0.000000
0.000000 0.000000 0.000000
0.000000 0.000000 0.000000
0.000000 0.000000 0.000000
0.000000 0.000000 0.000000
0.000000 0.000000 0.000000
0.000000 0.000000 0.000000
0.000000 0.000000 0.000000
0.000000 0.000000 0.000000
0.000000 0.000000 0.000000
0.000000 0.000000 0.000000
0.000000 0.000000 0.000000
0.000000 0.000000 0.000000
0.000000 0.000000 0.000000
0.000000 0.000000 0.000000
0.000000 0.000000 0.000000
