beta_Ti
1.0
6.391540 0.000000 0.000000
0.000000 9.587310 0.000000
0.000000 0.000000 24.650000
Ti
36
direct
0.125000 0.083333 0.576065 Ti
0.625000 0.083333 0.576065 Ti
0.125000 0.083333 0.697769 Ti
0.625000 0.083333 0.697769 Ti
0.125000 0.083333 0.819473 Ti
0.625000 0.083333 0.819473 Ti
0.125000 0.416667 0.576065 Ti
0.625000 0.416667 0.576065 Ti
0.125000 0.416667 0.697769 Ti
0.625000 0.416667 0.697769 Ti
0.125000 0.416667 0.819473 Ti
0.625000 0.416667 0.819473 Ti
0.125000 0.750000 0.576065 Ti
0.625000 0.750000 0.576065 Ti
0.125000 0.750000 0.697769 Ti
0.625000 0.750000 0.697769 Ti
0.125000 0.750000 0.819473 Ti
0.625000 0.750000 0.819473 Ti
0.375000 0.250000 0.636917 Ti
0.875000 0.250000 0.636917 Ti
0.375000 0.250000 0.758621 Ti
0.875000 0.250000 0.758621 Ti
0.375000 0.250000 0.880325 Ti
0.875000 0.250000 0.880325 Ti
0.375000 0.583333 0.636917 Ti
0.875000 0.583333 0.636917 Ti
0.375000 0.583333 0.758621 Ti
0.875000 0.583333 0.758621 Ti
0.375000 0.583333 0.880325 Ti
0.875000 0.583333 0.880325 Ti
0.375000 0.916667 0.636917 Ti
0.875000 0.916667 0.636917 Ti
0.375000 0.916667 0.758621 Ti
0.875000 0.916667 0.758621 Ti
0.375000 0.916667 0.880325 Ti
0.875000 0.916667 0.880325 Ti
