Ti97
1.0
9.513020 0.000000 0.000000
0.000000 9.350860 0.000000
0.000000 0.000000 18.547230
Ti
97
Selective dynamics
direct
0.146848 0.371025 0.406679 T T T Ti
0.643505 0.342635 0.406089 T T T Ti
0.143440 0.855837 0.393722 T T T Ti
0.671469 0.886446 0.393890 T T T Ti
0.160018 0.373543 0.234815 T T T Ti
0.662556 0.373362 0.232876 T T T Ti
0.161906 0.874125 0.235264 T T T Ti
0.654525 0.866976 0.239226 T T T Ti
0.166675 0.375007 0.077678 F F F Ti
0.666662 0.375004 0.077673 F F F Ti
0.166688 0.875011 0.077696 F F F Ti
0.666671 0.875008 0.077701 F F F Ti
0.404856 0.375874 0.312879 T T T Ti
0.897177 0.373082 0.321063 T T T Ti
0.402493 0.898639 0.325024 T T T Ti
0.913588 0.884685 0.312143 T T T Ti
0.416655 0.375010 0.155322 F F F Ti
0.916664 0.374985 0.155319 F F F Ti
0.416675 0.875018 0.155363 F F F Ti
0.916706 0.875041 0.155339 F F F Ti
0.416665 0.375004 -0.000008 F F F Ti
0.916663 0.375000 -0.000008 F F F Ti
0.416670 0.874998 0.000007 F F F Ti
0.916670 0.875004 0.000002 F F F Ti
0.102823 0.126918 0.321062 T T T Ti
0.595144 0.124126 0.312878 T T T Ti
0.086412 0.615315 0.312142 T T T Ti
0.597507 0.601361 0.325023 T T T Ti
0.083336 0.125017 0.155319 F F F Ti
0.583345 0.124993 0.155322 F F F Ti
0.083294 0.624961 0.155340 F F F Ti
0.583325 0.624983 0.155363 F F F Ti
0.083337 0.125001 -0.000009 F F F Ti
0.583335 0.124997 -0.000008 F F F Ti
0.083330 0.624996 0.000002 F F F Ti
0.583330 0.625001 0.000007 F F F Ti
0.356494 0.157365 0.406089 T T T Ti
0.853151 0.128975 0.406679 T T T Ti
0.328530 0.613554 0.393890 T T T Ti
0.856559 0.644163 0.393722 T T T Ti
0.337443 0.126638 0.232875 T T T Ti
0.839981 0.126458 0.234815 T T T Ti
0.345475 0.633025 0.239226 T T T Ti
0.838093 0.625875 0.235264 T T T Ti
0.333337 0.124997 0.077673 F F F Ti
0.833324 0.124994 0.077678 F F F Ti
0.333328 0.624993 0.077701 F F F Ti
0.833311 0.624989 0.077696 F F F Ti
0.374991 0.375018 0.823753 F F F Ti
0.874999 0.374994 0.823766 F F F Ti
0.374997 0.874990 0.823745 F F F Ti
0.874995 0.875001 0.823749 F F F Ti
0.125001 0.125006 0.823766 F F F Ti
0.625010 0.124981 0.823753 F F F Ti
0.125005 0.624999 0.823749 F F F Ti
0.625004 0.625010 0.823745 F F F Ti
0.125001 0.375006 0.910094 F F F Ti
0.625001 0.375005 0.910092 F F F Ti
0.124999 0.875000 0.910096 F F F Ti
0.625004 0.874998 0.910090 F F F Ti
0.375000 0.124995 0.910092 F F F Ti
0.875000 0.124994 0.910094 F F F Ti
0.374996 0.625002 0.910091 F F F Ti
0.875002 0.625000 0.910096 F F F Ti
0.392659 0.388129 0.658150 T T T Ti
0.894553 0.372080 0.647641 T T T Ti
0.393237 0.891946 0.645221 T T T Ti
0.882470 0.884559 0.668048 T T T Ti
0.105447 0.127920 0.647641 T T T Ti
0.607341 0.111871 0.658150 T T T Ti
0.117530 0.615441 0.668048 T T T Ti
0.606763 0.608053 0.645221 T T T Ti
0.150263 0.379638 0.566954 T T T Ti
0.642018 0.339805 0.574065 T T T Ti
0.123877 0.858788 0.585120 T T T Ti
0.656737 0.863904 0.576309 T T T Ti
0.357982 0.160195 0.574065 T T T Ti
0.849737 0.120362 0.566954 T T T Ti
0.343263 0.636096 0.576309 T T T Ti
0.876123 0.641211 0.585120 T T T Ti
0.411704 0.408078 0.489897 T T T Ti
0.898475 0.376543 0.487994 T T T Ti
0.332317 0.925064 0.492668 T T T Ti
0.907124 0.877290 0.486043 T T T Ti
0.101525 0.123457 0.487994 T T T Ti
0.588296 0.091922 0.489897 T T T Ti
0.092876 0.622710 0.486043 T T T Ti
0.667683 0.574936 0.492668 T T T Ti
0.124965 0.875015 0.737458 F F F Ti
0.625073 0.874969 0.737414 F F F Ti
0.374927 0.625030 0.737415 F F F Ti
0.875034 0.624982 0.737458 F F F Ti
0.124993 0.375024 0.737457 F F F Ti
0.625018 0.374939 0.737474 F F F Ti
0.374981 0.125057 0.737473 F F F Ti
0.875006 0.124974 0.737457 F F F Ti
0.500000 0.750000 0.464944 T T T Ti

0.000000 0.000000 0.000000
0.000000 0.000000 0.000000
0.000000 0.000000 0.000000
0.000000 0.000000 0.000000
0.000000 0.000000 0.000000
0.000000 0.000000 0.000000
0.000000 0.000000 0.000000
0.000000 0.000000 0.000000
0.000000 0.000000 0.000000
0.000000 0.000000 0.000000
0.000000 0.000000 0.000000
0.000000 0.000000 0.000000
0.000000 0.000000 0.000000
0.000000 0.000000 0.000000
0.000000 0.000000 0.000000
0.000000 0.000000 0.000000
0.000000 0.000000 0.000000
0.000000 0.000000 0.000000
0.000000 0.000000 0.000000
0.000000 0.000000 0.000000
0.000000 0.000000 0.000000
0.000000 0.000000 0.000000
0.000000 0.000000 0.000000
0.000000 0.000000 0.000000
0.000000 0.000000 0.000000
0.000000 0.000000 0.000000
0.000000 0.000000 0.000000
0.000000 0.000000 0.000000
0.000000 0.000000 0.000000
0.000000 0.000000 0.000000
0.000000 0.000000 0.000000
0.000000 0.000000 0.000000
0.000000 0.000000 0.000000
0.000000 0.000000 0.000000
0.000000 0.000000 0.000000
0.000000 0.000000 0.000000
0.000000 0.000000 0.000000
0.000000 0.000000 0.000000
0.000000 0.000000 0.000000
0.000000 0.000000 0.000000
0.000000 0.000000 0.000000
0.000000 0.000000 0.000000
0.000000 0.000000 0.000000
0.000000 0.000000 0.000000
0.000000 0.000000 0.000000
0.000000 0.000000 0.000000
0.000000 0.000000 0.000000
0.000000 0.000000 0.000000
0.000000 0.000000 0.000000
0.000000 0.000000 0.000000
0.000000 0.000000 0.000000
0.000000 0.000000 0.000000
0.000000 0.000000 0.000000
0.000000 0.000000 0.000000
0.000000 0.000000 0.000000
0.000000 0.000000 0.000000
0.000000 0.000000 0.000000
0.000000 0.000000 0.000000
0.000000 0.000000 0.000000
0.000000 0.000000 0.000000
0.000000 0.000000 0.000000
0.000000 0.000000 0.000000
0.000000 0.000000 0.000000
0.000000 0.000000 0.000000
0.000000 0.000000 0.000000
0.000000 0.000000 0.000000
0.000000 0.000000 0.000000
0.000000 0.000000 0.000000
0.000000 0.000000 0.000000
0.000000 0.000000 0.000000
0.000000 0.000000 0.000000
0.000000 0.000000 0.000000
0.000000 0.000000 0.000000
0.000000 0.000000 0.000000
0.000000 0.000000 0.000000
0.000000 0.000000 0.000000
0.000000 0.000000 0.000000
0.000000 0.000000 0.000000
0.000000 0.000000 0.000000
0.000000 0.000000 0.000000
0.000000 0.000000 0.000000
0.000000 0.000000 0.000000
0.000000 0.000000 0.000000
0.000000 0.000000 0.000000
0.000000 0.000000 0.000000
0.000000 0.000000 0.000000
0.000000 0.000000 0.000000
0.000000 0.000000 0.000000
0.000000 0.000000 0.000000
0.000000 0.000000 0.000000
0.000000 0.000000 0.000000
0.000000 0.000000 0.000000
0.000000 0.000000 0.000000
0.000000 0.000000 0.000000
0.000000 0.000000 0.000000
0.000000 0.000000 0.000000
0.000000 0.000000 0.000000
