Ti96 Mo1
1.0
9.513020 0.000000 0.000000
0.000000 9.350860 0.000000
0.000000 0.000000 18.547230
Ti Mo
96 1
Selective dynamics
direct
0.148675 0.376149 0.405223 T T T Ti
0.651184 0.340825 0.401121 T T T Ti
0.130247 0.858492 0.394026 T T T Ti
0.665805 0.860437 0.399154 T T T Ti
0.162592 0.370596 0.235147 T T T Ti
0.658373 0.374992 0.234900 T T T Ti
0.163887 0.874136 0.235241 T T T Ti
0.655156 0.871038 0.236338 T T T Ti
0.166672 0.375029 0.077658 F F F Ti
0.666672 0.375010 0.077640 F F F Ti
0.166666 0.874986 0.077660 F F F Ti
0.666682 0.874986 0.077651 F F F Ti
0.405220 0.384359 0.316944 T T T Ti
0.901897 0.373676 0.319577 T T T Ti
0.402267 0.891515 0.328001 T T T Ti
0.908902 0.883692 0.309891 T T T Ti
0.416656 0.375000 0.155309 F F F Ti
0.916670 0.374987 0.155293 F F F Ti
0.416665 0.874985 0.155331 F F F Ti
0.916671 0.875000 0.155331 F F F Ti
0.416667 0.375025 -0.000025 F F F Ti
0.916644 0.375014 -0.000019 F F F Ti
0.416669 0.874986 -0.000034 F F F Ti
0.916651 0.874987 -0.000025 F F F Ti
0.098103 0.126324 0.319576 T T T Ti
0.594780 0.115641 0.316943 T T T Ti
0.091098 0.616308 0.309890 T T T Ti
0.597733 0.608485 0.328000 T T T Ti
0.083330 0.125018 0.155294 F F F Ti
0.583344 0.125005 0.155309 F F F Ti
0.083329 0.625004 0.155331 F F F Ti
0.583335 0.625019 0.155331 F F F Ti
0.083356 0.124991 -0.000019 F F F Ti
0.583334 0.124981 -0.000024 F F F Ti
0.083350 0.625019 -0.000024 F F F Ti
0.583332 0.625021 -0.000034 F F F Ti
0.348815 0.159175 0.401121 T T T Ti
0.851324 0.123851 0.405223 T T T Ti
0.334194 0.639563 0.399154 T T T Ti
0.869752 0.641508 0.394026 T T T Ti
0.341626 0.125008 0.234900 T T T Ti
0.837407 0.129404 0.235147 T T T Ti
0.344843 0.628962 0.236338 T T T Ti
0.836112 0.625865 0.235241 T T T Ti
0.333328 0.124996 0.077640 F F F Ti
0.833328 0.124975 0.077659 F F F Ti
0.333317 0.625020 0.077651 F F F Ti
0.833333 0.625020 0.077660 F F F Ti
0.375021 0.375004 0.823839 F F F Ti
0.874963 0.374962 0.823836 F F F Ti
0.374999 0.874982 0.823787 F F F Ti
0.875059 0.874953 0.823783 F F F Ti
0.125041 0.125035 0.823836 F F F Ti
0.624983 0.124997 0.823840 F F F Ti
0.124943 0.625048 0.823784 F F F Ti
0.625003 0.625013 0.823788 F F F Ti
0.124983 0.375016 0.910128 F F F Ti
0.625005 0.374996 0.910122 F F F Ti
0.124998 0.874980 0.910102 F F F Ti
0.625007 0.874973 0.910106 F F F Ti
0.374998 0.125004 0.910122 F F F Ti
0.875021 0.124983 0.910128 F F F Ti
0.374995 0.625027 0.910106 F F F Ti
0.875006 0.625021 0.910102 F F F Ti
0.389758 0.380684 0.662480 T T T Ti
0.887632 0.376307 0.646612 T T T Ti
0.389365 0.893512 0.648000 T T T Ti
0.888349 0.884607 0.665089 T T T Ti
0.112367 0.123692 0.646611 T T T Ti
0.610241 0.119313 0.662481 T T T Ti
0.111650 0.615390 0.665090 T T T Ti
0.610634 0.606486 0.648000 T T T Ti
0.147049 0.372192 0.568632 T T T Ti
0.635940 0.340744 0.571414 T T T Ti
0.132685 0.856203 0.580895 T T T Ti
0.663403 0.882067 0.577710 T T T Ti
0.364060 0.159256 0.571414 T T T Ti
0.852950 0.127807 0.568632 T T T Ti
0.336596 0.617932 0.577710 T T T Ti
0.867315 0.643797 0.580895 T T T Ti
0.410351 0.406083 0.483331 T T T Ti
0.896902 0.376375 0.488211 T T T Ti
0.331734 -0.073999 0.484649 T T T Ti
0.909363 0.880391 0.488493 T T T Ti
0.103098 0.123625 0.488211 T T T Ti
0.589649 0.093917 0.483331 T T T Ti
0.090637 0.619609 0.488493 T T T Ti
0.668266 0.573999 0.484649 T T T Ti
0.125202 0.874981 0.737542 F F F Ti
0.625107 0.874861 0.737639 F F F Ti
0.374885 0.625125 0.737638 F F F Ti
0.874795 0.625011 0.737544 F F F Ti
0.124857 0.374832 0.737618 F F F Ti
0.625046 0.374772 0.737602 F F F Ti
0.374948 0.125215 0.737599 F F F Ti
0.875138 0.125155 0.737615 F F F Ti
0.500000 0.750000 0.504689 T T T Mo

0.000000 0.000000 0.000000
0.000000 0.000000 0.000000
0.000000 0.000000 0.000000
0.000000 0.000000 0.000000
0.000000 0.000000 0.000000
0.000000 0.000000 0.000000
0.000000 0.000000 0.000000
0.000000 0.000000 0.000000
0.000000 0.000000 0.000000
0.000000 0.000000 0.000000
0.000000 0.000000 0.000000
0.000000 0.000000 0.000000
0.000000 0.000000 0.000000
0.000000 0.000000 0.000000
0.000000 0.000000 0.000000
0.000000 0.000000 0.000000
0.000000 0.000000 0.000000
0.000000 0.000000 0.000000
0.000000 0.000000 0.000000
0.000000 0.000000 0.000000
0.000000 0.000000 0.000000
0.000000 0.000000 0.000000
0.000000 0.000000 0.000000
0.000000 0.000000 0.000000
0.000000 0.000000 0.000000
0.000000 0.000000 0.000000
0.000000 0.000000 0.000000
0.000000 0.000000 0.000000
0.000000 0.000000 0.000000
0.000000 0.000000 0.000000
0.000000 0.000000 0.000000
0.000000 0.000000 0.000000
0.000000 0.000000 0.000000
0.000000 0.000000 0.000000
0.000000 0.000000 0.000000
0.000000 0.000000 0.000000
0.000000 0.000000 0.000000
0.000000 0.000000 0.000000
0.000000 0.000000 0.000000
0.000000 0.000000 0.000000
0.000000 0.000000 0.000000
0.000000 0.000000 0.000000
0.000000 0.000000 0.000000
0.000000 0.000000 0.000000
0.000000 0.000000 0.000000
0.000000 0.000000 0.000000
0.000000 0.000000 0.000000
0.000000 0.000000 0.000000
0.000000 0.000000 0.000000
0.000000 0.000000 0.000000
0.000000 0.000000 0.000000
0.000000 0.000000 0.000000
0.000000 0.000000 0.000000
0.000000 0.000000 0.000000
0.000000 0.000000 0.000000
0.000000 0.000000 0.000000
0.000000 0.000000 0.000000
0.000000 0.000000 0.000000
0.000000 0.000000 0.000000
0.000000 0.000000 0.000000
0.000000 0.000000 0.000000
0.000000 0.000000 0.000000
0.000000 0.000000 0.000000
0.000000 0.000000 0.000000
0.000000 0.000000 0.000000
0.000000 0.000000 0.000000
0.000000 0.000000 0.000000
0.000000 0.000000 0.000000
0.000000 0.000000 0.000000
0.000000 0.000000 0.000000
0.000000 0.000000 0.000000
0.000000 0.000000 0.000000
0.000000 0.000000 0.000000
0.000000 0.000000 0.000000
0.000000 0.000000 0.000000
0.000000 0.000000 0.000000
0.000000 0.000000 0.000000
0.000000 0.000000 0.000000
0.000000 0.000000 0.000000
0.000000 0.000000 0.000000
0.000000 0.000000 0.000000
0.000000 0.000000 0.000000
0.000000 0.000000 0.000000
0.000000 0.000000 0.000000
0.000000 0.000000 0.000000
0.000000 0.000000 0.000000
0.000000 0.000000 0.000000
0.000000 0.000000 0.000000
0.000000 0.000000 0.000000
0.000000 0.000000 0.000000
0.000000 0.000000 0.000000
0.000000 0.000000 0.000000
0.000000 0.000000 0.000000
0.000000 0.000000 0.000000
0.000000 0.000000 0.000000
0.000000 0.000000 0.000000
0.000000 0.000000 0.000000
