total_Ti
1.0
8.805261 0.000000 0.000000
-4.402631 7.625580 0.000000
0.000000 0.000000 22.683422
Ti
90
direct
0.083333 0.916670 0.590147 Ti
0.083333 0.416670 0.590147 Ti
0.583333 0.916670 0.590147 Ti
0.583333 0.416670 0.590147 Ti
0.250000 0.250004 0.875476 Ti
0.250000 0.750004 0.875476 Ti
0.750000 0.250004 0.875476 Ti
0.750000 0.750004 0.875476 Ti
0.416667 0.083337 0.916238 Ti
0.416667 0.583337 0.916238 Ti
0.916667 0.083337 0.916238 Ti
0.916667 0.583337 0.916238 Ti
0.250000 0.250004 0.630908 Ti
0.250000 0.750004 0.630908 Ti
0.750000 0.250004 0.630908 Ti
0.750000 0.750004 0.630908 Ti
0.416667 0.083337 0.671670 Ti
0.416667 0.583337 0.671670 Ti
0.916667 0.083337 0.671670 Ti
0.916667 0.583337 0.671670 Ti
0.083333 0.916670 0.712431 Ti
0.083333 0.416670 0.712431 Ti
0.583333 0.916670 0.712431 Ti
0.583333 0.416670 0.712431 Ti
0.250000 0.250004 0.753192 Ti
0.250000 0.750004 0.753192 Ti
0.750000 0.250004 0.753192 Ti
0.750000 0.750004 0.753192 Ti
0.416667 0.083337 0.793954 Ti
0.416667 0.583337 0.793954 Ti
0.916667 0.083337 0.793954 Ti
0.916667 0.583337 0.793954 Ti
0.083333 0.916670 0.834715 Ti
0.083333 0.416670 0.834715 Ti
0.583333 0.916670 0.834715 Ti
0.583333 0.416670 0.834715 Ti
0.138888 0.861108 -0.000000 Ti
0.138888 0.861108 0.405108 Ti
0.138888 0.527774 -0.000000 Ti
0.249999 0.749996 0.101277 Ti
0.138888 0.527774 0.405108 Ti
0.472221 0.861108 -0.000000 Ti
0.138888 0.194441 -0.000000 Ti
0.249999 0.749996 0.506385 Ti
0.250000 0.416663 0.101277 Ti
0.472221 0.861108 0.405108 Ti
0.138888 0.194441 0.405108 Ti
0.472222 0.527774 -0.000000 Ti
0.250000 0.416663 0.506385 Ti
0.583333 0.749996 0.101277 Ti
0.250000 0.083330 0.101277 Ti
0.472222 0.527774 0.405108 Ti
0.805555 0.861108 -0.000000 Ti
0.472222 0.194441 -0.000000 Ti
0.583333 0.749996 0.506385 Ti
0.250000 0.083330 0.506385 Ti
0.583333 0.416663 0.101277 Ti
0.805555 0.861108 0.405108 Ti
0.472222 0.194441 0.405108 Ti
0.805555 0.527774 -0.000000 Ti
0.583333 0.416663 0.506385 Ti
0.916666 0.749996 0.101277 Ti
0.583333 0.083330 0.101277 Ti
0.805555 0.527774 0.405108 Ti
0.805555 0.194441 -0.000000 Ti
0.916666 0.749996 0.506385 Ti
0.583333 0.083330 0.506385 Ti
0.916666 0.416663 0.101277 Ti
0.805555 0.194441 0.405108 Ti
0.916666 0.416663 0.506385 Ti
0.916666 0.083330 0.101277 Ti
0.916666 0.083330 0.506385 Ti
0.138888 0.861108 0.202554 Ti
0.138888 0.527774 0.202554 Ti
0.249999 0.749996 0.303831 Ti
0.472221 0.861108 0.202554 Ti
0.138888 0.194441 0.202554 Ti
0.250000 0.416663 0.303831 Ti
0.472222 0.527774 0.202554 Ti
0.583333 0.749996 0.303831 Ti
0.250000 0.083330 0.303831 Ti
0.805555 0.861108 0.202554 Ti
0.472222 0.194441 0.202554 Ti
0.583333 0.416663 0.303831 Ti
0.805555 0.527774 0.202554 Ti
0.916666 0.749996 0.303831 Ti
0.583333 0.083330 0.303831 Ti
0.805555 0.194441 0.202554 Ti
0.916666 0.416663 0.303831 Ti
0.916666 0.083330 0.303831 Ti
