alpha_Ti
1.0
4.756510 0.000000 0.000000
0.000000 4.675430 0.000000
0.000000 0.000000 30.211761
Ti
12
direct
0.333333 0.750000 0.238470 Ti
0.333333 0.750000 0.143082 Ti
0.333333 0.750000 0.047694 Ti
0.833334 0.750000 0.190776 Ti
0.833334 0.750000 0.095388 Ti
0.833334 0.750000 -0.000000 Ti
0.166666 0.250000 0.190776 Ti
0.166666 0.250000 0.095388 Ti
0.166666 0.250000 -0.000000 Ti
0.666667 0.250000 0.238470 Ti
0.666667 0.250000 0.143082 Ti
0.666667 0.250000 0.047694 Ti
