Zr1 Ti96
1.0
9.513020 0.000000 0.000000
0.000000 9.350860 0.000000
0.000000 0.000000 18.547230
Ti Zr
96 1
Selective dynamics
direct
0.145607 0.369324 0.403357 T T T Ti
0.648216 0.350636 0.395845 T T T Ti
0.149993 0.856437 0.394459 T T T Ti
0.671118 0.886008 0.400830 T T T Ti
0.157608 0.370393 0.237147 T T T Ti
0.660891 0.373049 0.233792 T T T Ti
0.162192 0.874838 0.234665 T T T Ti
0.662651 0.871687 0.234655 T T T Ti
0.166640 0.375041 0.077645 F F F Ti
0.666678 0.374994 0.077635 F F F Ti
0.166666 0.874992 0.077646 F F F Ti
0.666664 0.874984 0.077625 F F F Ti
0.407088 0.381474 0.312736 T T T Ti
0.900126 0.381819 0.322996 T T T Ti
0.406705 0.880332 0.317910 T T T Ti
0.910360 0.880951 0.313593 T T T Ti
0.416697 0.375009 0.155203 F F F Ti
0.916637 0.374969 0.155213 F F F Ti
0.416660 0.874992 0.155226 F F F Ti
0.916711 0.874984 0.155171 F F F Ti
0.416666 0.375055 -0.000041 F F F Ti
0.916614 0.375031 -0.000029 F F F Ti
0.416655 0.874977 -0.000088 F F F Ti
0.916631 0.874980 -0.000072 F F F Ti
0.099874 0.118182 0.322995 T T T Ti
0.592912 0.118527 0.312735 T T T Ti
0.089640 0.619050 0.313592 T T T Ti
0.593295 0.619669 0.317909 T T T Ti
0.083364 0.125042 0.155213 F F F Ti
0.583303 0.125003 0.155203 F F F Ti
0.083289 0.625032 0.155171 F F F Ti
0.583341 0.625022 0.155226 F F F Ti
0.083387 0.124977 -0.000028 F F F Ti
0.583335 0.124957 -0.000039 F F F Ti
0.083369 0.625037 -0.000071 F F F Ti
0.583346 0.625041 -0.000087 F F F Ti
0.351783 0.149364 0.395845 T T T Ti
0.854392 0.130677 0.403357 T T T Ti
0.328881 0.613992 0.400830 T T T Ti
0.850006 0.643563 0.394459 T T T Ti
0.339108 0.126954 0.233792 T T T Ti
0.842391 0.129610 0.237147 T T T Ti
0.337348 0.628315 0.234655 T T T Ti
0.837807 0.625165 0.234665 T T T Ti
0.333322 0.125017 0.077635 F F F Ti
0.833359 0.124970 0.077646 F F F Ti
0.333335 0.625031 0.077625 F F F Ti
0.833334 0.625021 0.077646 F F F Ti
0.374978 0.375006 0.823990 F F F Ti
0.874966 0.374922 0.823952 F F F Ti
0.375032 0.874964 0.823862 F F F Ti
0.875031 0.874973 0.823866 F F F Ti
0.125043 0.125066 0.823952 F F F Ti
0.625028 0.124991 0.823991 F F F Ti
0.124971 0.625026 0.823868 F F F Ti
0.624974 0.625021 0.823864 F F F Ti
0.124985 0.375033 0.910173 F F F Ti
0.625023 0.374995 0.910184 F F F Ti
0.125036 0.874967 0.910111 F F F Ti
0.625004 0.874962 0.910123 F F F Ti
0.374982 0.125001 0.910183 F F F Ti
0.875022 0.124963 0.910172 F F F Ti
0.375000 0.625037 0.910122 F F F Ti
0.874971 0.625033 0.910110 F F F Ti
0.385516 0.378470 0.664352 T T T Ti
0.886356 0.381478 0.648850 T T T Ti
0.380235 0.891720 0.657377 T T T Ti
0.896136 0.880200 0.660145 T T T Ti
0.113643 0.118519 0.648849 T T T Ti
0.614482 0.121524 0.664352 T T T Ti
0.103861 0.619794 0.660145 T T T Ti
0.619764 0.608273 0.657378 T T T Ti
0.140333 0.369682 0.570126 T T T Ti
0.638703 0.351221 0.577376 T T T Ti
0.142542 0.856487 0.572645 T T T Ti
0.674255 0.903636 0.574691 T T T Ti
0.361296 0.148778 0.577376 T T T Ti
0.859666 0.130317 0.570126 T T T Ti
0.325745 0.596362 0.574691 T T T Ti
0.857457 0.643511 0.572645 T T T Ti
0.405001 0.381315 0.486726 T T T Ti
0.890628 0.376210 0.488868 T T T Ti
0.347307 0.936975 0.482078 T T T Ti
0.916255 0.882499 0.483057 T T T Ti
0.109371 0.123790 0.488868 T T T Ti
0.594999 0.118685 0.486726 T T T Ti
0.083744 0.617501 0.483057 T T T Ti
0.652693 0.563024 0.482079 T T T Ti
0.125597 0.875029 0.737702 F F F Ti
0.625202 0.874930 0.737776 F F F Ti
0.374785 0.625044 0.737777 F F F Ti
0.874396 0.624952 0.737708 F F F Ti
0.124795 0.374845 0.737770 F F F Ti
0.625103 0.374666 0.737826 F F F Ti
0.374885 0.125304 0.737822 F F F Ti
0.875197 0.125129 0.737766 F F F Ti
0.500000 0.749999 0.513998 T T T Zr

0.000000 0.000000 0.000000
0.000000 0.000000 0.000000
0.000000 0.000000 0.000000
0.000000 0.000000 0.000000
0.000000 0.000000 0.000000
0.000000 0.000000 0.000000
0.000000 0.000000 0.000000
0.000000 0.000000 0.000000
0.000000 0.000000 0.000000
0.000000 0.000000 0.000000
0.000000 0.000000 0.000000
0.000000 0.000000 0.000000
0.000000 0.000000 0.000000
0.000000 0.000000 0.000000
0.000000 0.000000 0.000000
0.000000 0.000000 0.000000
0.000000 0.000000 0.000000
0.000000 0.000000 0.000000
0.000000 0.000000 0.000000
0.000000 0.000000 0.000000
0.000000 0.000000 0.000000
0.000000 0.000000 0.000000
0.000000 0.000000 0.000000
0.000000 0.000000 0.000000
0.000000 0.000000 0.000000
0.000000 0.000000 0.000000
0.000000 0.000000 0.000000
0.000000 0.000000 0.000000
0.000000 0.000000 0.000000
0.000000 0.000000 0.000000
0.000000 0.000000 0.000000
0.000000 0.000000 0.000000
0.000000 0.000000 0.000000
0.000000 0.000000 0.000000
0.000000 0.000000 0.000000
0.000000 0.000000 0.000000
0.000000 0.000000 0.000000
0.000000 0.000000 0.000000
0.000000 0.000000 0.000000
0.000000 0.000000 0.000000
0.000000 0.000000 0.000000
0.000000 0.000000 0.000000
0.000000 0.000000 0.000000
0.000000 0.000000 0.000000
0.000000 0.000000 0.000000
0.000000 0.000000 0.000000
0.000000 0.000000 0.000000
0.000000 0.000000 0.000000
0.000000 0.000000 0.000000
0.000000 0.000000 0.000000
0.000000 0.000000 0.000000
0.000000 0.000000 0.000000
0.000000 0.000000 0.000000
0.000000 0.000000 0.000000
0.000000 0.000000 0.000000
0.000000 0.000000 0.000000
0.000000 0.000000 0.000000
0.000000 0.000000 0.000000
0.000000 0.000000 0.000000
0.000000 0.000000 0.000000
0.000000 0.000000 0.000000
0.000000 0.000000 0.000000
0.000000 0.000000 0.000000
0.000000 0.000000 0.000000
0.000000 0.000000 0.000000
0.000000 0.000000 0.000000
0.000000 0.000000 0.000000
0.000000 0.000000 0.000000
0.000000 0.000000 0.000000
0.000000 0.000000 0.000000
0.000000 0.000000 0.000000
0.000000 0.000000 0.000000
0.000000 0.000000 0.000000
0.000000 0.000000 0.000000
0.000000 0.000000 0.000000
0.000000 0.000000 0.000000
0.000000 0.000000 0.000000
0.000000 0.000000 0.000000
0.000000 0.000000 0.000000
0.000000 0.000000 0.000000
0.000000 0.000000 0.000000
0.000000 0.000000 0.000000
0.000000 0.000000 0.000000
0.000000 0.000000 0.000000
0.000000 0.000000 0.000000
0.000000 0.000000 0.000000
0.000000 0.000000 0.000000
0.000000 0.000000 0.000000
0.000000 0.000000 0.000000
0.000000 0.000000 0.000000
0.000000 0.000000 0.000000
0.000000 0.000000 0.000000
0.000000 0.000000 0.000000
0.000000 0.000000 0.000000
0.000000 0.000000 0.000000
0.000000 0.000000 0.000000
0.000000 0.000000 0.000000
