total_structure
1.0
   3.5061499999999999    0.0000000000000000    0.0000000000000002
   0.0000000000000019   12.0001999999999995    0.0000000000000007
   0.0000000000000000    0.0000000000000000   27.4716049620000007
Cr Fe N
16 36 16
Selective dynamics
direct
   0.0000000000000000    0.0000000000000000    0.2288297618830618 F F F Cr
  -0.0000000000000000    0.2500000000000000    0.2288297618830618 F F F Cr
   0.5000000000000000    0.1250000000000000    0.1525499118379467 F F F Cr
   0.5000000000000000    0.3750000000000000    0.1525499118379467 F F F Cr
   0.0000000000000000    0.0000000000000000    0.0762798500451151 F F F Cr
  -0.0000000000000000    0.2500000000000000    0.0762798500451151 F F F Cr
   0.5000000000000000    0.1250000000000000   -0.0000000000000000 F F F Cr
   0.5000000000000000    0.3750000000000000   -0.0000000000000000 F F F Cr
  -0.0000000000000000    0.5000000000000000    0.2288297618830618 F F F Cr
  -0.0000000000000000    0.7500000000000000    0.2288297618830618 F F F Cr
   0.5000000000000000    0.6250000000000000    0.1525499118379467 F F F Cr
   0.4999999999999999    0.8749999999999999    0.1525499118379467 F F F Cr
  -0.0000000000000000    0.5000000000000000    0.0762798500451151 F F F Cr
  -0.0000000000000000    0.7500000000000000    0.0762798500451151 F F F Cr
   0.5000000000000000    0.6250000000000000   -0.0000000000000000 F F F Cr
   0.4999999999999999    0.8749999999999999   -0.0000000000000000 F F F Cr
   0.9933200000000000    0.7184400000000000    0.6359846858298747 F F F Fe
   0.4933200000000000    0.5543100000000000    0.6233480521319095 F F F Fe
   0.4933200000000000    0.7391600000000000    0.5846648791076190 F F F Fe
   0.9933200000000000    0.5750200000000000    0.5720282454096538 F F F Fe
   0.9933200000000001    0.3901700000000000    0.6107016301816608 F F F Fe
   0.4933200000000000    0.2260400000000000    0.5980649964836953 F F F Fe
   0.4933200000000000    0.4108899999999999    0.5593818234594050 F F F Fe
   0.9933200000000001    0.2467500000000000    0.5467451897614397 F F F Fe
   0.9933200000000000    0.0619000000000000    0.5854185745334466 F F F Fe
   0.4933200000000000    0.8977699999999998    0.5727819408354814 F F F Fe
   0.4933200000000000    0.0826200000000000    0.5340987678111909 F F F Fe
   0.9933200000000000    0.9184800000000000    0.5214621341132256 F F F Fe
   0.9933200000000000    0.7598700000000000    0.5333548606376468 F F F Fe
   0.4933200000000000    0.5957300000000000    0.5207084386873981 F F F Fe
   0.4933200000000000    0.7805800000000001    0.4820350539153913 F F F Fe
   0.9933200000000001    0.6164500000000001    0.4693886319651424 F F F Fe
   0.9933200000000001    0.4315999999999999    0.5080718049894328 F F F Fe
   0.4933200000000000    0.2674600000000000    0.4954253830391840 F F F Fe
   0.4933200000000000    0.4523100000000000    0.4567519982671772 F F F Fe
   0.9933200000000001    0.2881800000000000    0.4441055763169284 F F F Fe
   0.9933199999999999    0.1033300000000000    0.4827887493412187 F F F Fe
   0.4933200000000000    0.9391999999999999    0.4701423273909699 F F F Fe
   0.4933200000000000    0.1240400000000000    0.4314689426189631 F F F Fe
   0.9933200000000000    0.9599100000000000    0.4188225206687143 F F F Fe
   0.9933200000000000    0.8013000000000000    0.4307152471931355 F F F Fe
   0.4933200000000000    0.6371599999999998    0.4180786134951703 F F F Fe
   0.4933200000000000    0.8220099999999999    0.3793954404708799 F F F Fe
   0.9933200000000001    0.6578799999999999    0.3667588067729146 F F F Fe
   0.9933200000000001    0.4730300000000000    0.4054321915449214 F F F Fe
   0.4933200000000000    0.3088900000000000    0.3927955578469562 F F F Fe
   0.4933200000000000    0.4937400000000000    0.3541123848226658 F F F Fe
   0.9933200000000000    0.3296100000000000    0.3414757511247006 F F F Fe
   0.9933200000000001    0.1447600000000000    0.3801491358967074 F F F Fe
   0.4933200000000000    0.9806200000000000    0.3675125021987420 F F F Fe
   0.4933200000000000    0.1654700000000000    0.3288293291744517 F F F Fe
   0.9933200000000000    0.0013400000000000    0.3161926954764864 F F F Fe
   0.5000000000000000    0.1250000000000000    0.2288297618830618 F F F N
   0.5000000000000000    0.3750000000000000    0.2288297618830618 F F F N
   0.0000000000000000    0.0000000000000000    0.1525499118379467 F F F N
  -0.0000000000000000    0.2500000000000000    0.1525499118379467 F F F N
   0.5000000000000000    0.1250000000000000    0.0762798500451151 F F F N
   0.5000000000000000    0.3750000000000000    0.0762798500451151 F F F N
   0.0000000000000000    0.0000000000000000    0.0000000000000000 F F F N
  -0.0000000000000000    0.2500000000000000   -0.0000000000000000 F F F N
   0.5000000000000000    0.6250000000000000    0.2288297618830618 F F F N
   0.4999999999999999    0.8749999999999999    0.2288297618830618 F F F N
  -0.0000000000000000    0.5000000000000000    0.1525499118379467 F F F N
  -0.0000000000000000    0.7500000000000000    0.1525499118379467 F F F N
   0.5000000000000000    0.6250000000000000    0.0762798500451151 F F F N
   0.4999999999999999    0.8749999999999999    0.0762798500451151 F F F N
  -0.0000000000000000    0.5000000000000000   -0.0000000000000000 F F F N
  -0.0000000000000000    0.7500000000000000   -0.0000000000000000 F F F N
