alpha_Ti
1.0
5.745590 0.000000 0.000000
0.000000 9.072750 0.000000
0.000000 0.000000 27.625032
Ti
32
direct
0.041667 0.875000 0.337848 Ti
0.041667 0.375000 0.337848 Ti
0.541667 0.875000 0.337848 Ti
0.541667 0.375000 0.337848 Ti
0.291667 0.875000 0.245707 Ti
0.291667 0.375000 0.245707 Ti
0.791667 0.875000 0.245707 Ti
0.791667 0.375000 0.245707 Ti
0.041667 0.625000 0.276422 Ti
0.041667 0.125000 0.276422 Ti
0.541667 0.625000 0.276422 Ti
0.541667 0.125000 0.276422 Ti
0.041667 0.875000 0.153567 Ti
0.041667 0.375000 0.153567 Ti
0.541667 0.875000 0.153567 Ti
0.541667 0.375000 0.153567 Ti
0.291667 0.625000 0.184281 Ti
0.291667 0.125000 0.184281 Ti
0.791667 0.625000 0.184281 Ti
0.791667 0.125000 0.184281 Ti
0.291667 0.875000 0.061426 Ti
0.291667 0.375000 0.061426 Ti
0.791667 0.875000 0.061426 Ti
0.791667 0.375000 0.061426 Ti
0.041667 0.625000 0.092141 Ti
0.041667 0.125000 0.092141 Ti
0.541667 0.625000 0.092141 Ti
0.541667 0.125000 0.092141 Ti
0.791667 0.125000 0.000000 Ti
0.291667 0.125000 0.000000 Ti
0.791667 0.625000 -0.000000 Ti
0.291667 0.625000 -0.000000 Ti
