alpha_Ti
1.0
6.309760 0.000000 0.000000
0.000000 9.464640 0.000000
0.000000 0.000000 19.000004
Ti
32
direct
0.125000 0.625000 0.355263 Ti
0.625000 0.625000 0.355263 Ti
0.125000 0.625000 0.118421 Ti
0.625000 0.625000 0.118421 Ti
0.125000 0.125000 0.355263 Ti
0.625000 0.125000 0.355263 Ti
0.125000 0.125000 0.118421 Ti
0.625000 0.125000 0.118421 Ti
0.125000 0.375000 0.039474 Ti
0.625000 0.375000 0.039474 Ti
0.125000 0.875000 0.039474 Ti
0.625000 0.875000 0.039474 Ti
0.125000 0.375000 0.276316 Ti
0.625000 0.375000 0.276316 Ti
0.125000 0.875000 0.276316 Ti
0.625000 0.875000 0.276316 Ti
0.375000 0.875000 0.157895 Ti
0.875000 0.875000 0.157895 Ti
0.374999 0.375000 0.157895 Ti
0.874999 0.375000 0.157895 Ti
0.375000 0.375000 0.394737 Ti
0.875000 0.375000 0.394737 Ti
0.375000 0.875000 0.394737 Ti
0.875000 0.875000 0.394737 Ti
0.375000 0.625000 0.236842 Ti
0.875000 0.625000 0.236842 Ti
0.375000 0.625000 -0.000000 Ti
0.875000 0.625000 -0.000000 Ti
0.375000 0.125000 0.236842 Ti
0.875000 0.125000 0.236842 Ti
0.375000 0.125000 -0.000000 Ti
0.875000 0.125000 -0.000000 Ti
