Ti66 Cr1
1.0
6.309760 0.000000 0.000000
0.000000 9.464640 0.000000
0.000000 0.000000 18.918326
Ti Cr
66 1
Selective dynamics
direct
0.124943 0.041331 0.500542 F F F Ti
0.625118 0.041743 0.500170 F F F Ti
0.124997 0.041669 0.658738 F F F Ti
0.624993 0.041694 0.658696 F F F Ti
0.125018 0.041706 0.817225 F F F Ti
0.624992 0.041704 0.817217 F F F Ti
0.124604 0.374997 0.500450 F F F Ti
0.623912 0.374996 0.500164 F F F Ti
0.124978 0.375011 0.658708 F F F Ti
0.624910 0.375015 0.658661 F F F Ti
0.125026 0.375012 0.817239 F F F Ti
0.624970 0.375011 0.817225 F F F Ti
0.124941 0.708716 0.500491 F F F Ti
0.625037 0.708298 0.500143 F F F Ti
0.124995 0.708347 0.658730 F F F Ti
0.624962 0.708319 0.658689 F F F Ti
0.125019 0.708300 0.817226 F F F Ti
0.624980 0.708302 0.817217 F F F Ti
0.375001 0.208296 0.579422 F F F Ti
0.874778 0.208332 0.579458 F F F Ti
0.375025 0.208347 0.737933 F F F Ti
0.874960 0.208353 0.737943 F F F Ti
0.375058 0.208356 0.896442 F F F Ti
0.875042 0.208348 0.896449 F F F Ti
0.374988 0.541723 0.579407 F F F Ti
0.874785 0.541690 0.579442 F F F Ti
0.375021 0.541658 0.737929 F F F Ti
0.874964 0.541653 0.737941 F F F Ti
0.375055 0.541649 0.896447 F F F Ti
0.875037 0.541659 0.896457 F F F Ti
0.375272 0.875016 0.579486 F F F Ti
0.874723 0.875009 0.579515 F F F Ti
0.375040 0.875006 0.737951 F F F Ti
0.874958 0.875003 0.737960 F F F Ti
0.375033 0.875004 0.896430 F F F Ti
0.875015 0.874995 0.896435 F F F Ti
0.122671 0.631015 0.357890 F F F Ti
0.625477 0.625218 0.356804 F F F Ti
0.125582 0.625171 0.118859 F F F Ti
0.626179 0.625092 0.118745 F F F Ti
0.122612 0.118762 0.358073 F F F Ti
0.625866 0.124816 0.356836 F F F Ti
0.125526 0.124862 0.118821 F F F Ti
0.626338 0.124951 0.118705 F F F Ti
0.125303 0.375013 0.039608 F F F Ti
0.626131 0.375012 0.039531 F F F Ti
0.124998 0.875034 0.039535 F F F Ti
0.625283 0.875015 0.039496 F F F Ti
0.631939 0.374986 0.277044 F F F Ti
0.125071 0.875397 0.277290 F F F Ti
0.625775 0.875101 0.277513 F F F Ti
0.375436 0.875133 0.158216 F F F Ti
0.875081 0.874973 0.158480 F F F Ti
0.378274 0.374997 0.157768 F F F Ti
0.877952 0.375025 0.158900 F F F Ti
0.872525 0.375051 0.397443 F F F Ti
0.376274 0.875284 0.396705 F F F Ti
0.873559 0.875050 0.396767 F F F Ti
0.378355 0.627984 0.237352 F F F Ti
0.876307 0.625330 0.237893 F F F Ti
0.375231 0.625023 -0.000043 F F F Ti
0.875296 0.624985 -0.000013 F F F Ti
0.378544 0.121966 0.237339 F F F Ti
0.876200 0.124668 0.237884 F F F Ti
0.375249 0.125007 -0.000047 F F F Ti
0.875299 0.125028 -0.000024 F F F Ti
0.189497 0.373788 0.296813 T T T Cr

0.000000 0.000000 0.000000
0.000000 0.000000 0.000000
0.000000 0.000000 0.000000
0.000000 0.000000 0.000000
0.000000 0.000000 0.000000
0.000000 0.000000 0.000000
0.000000 0.000000 0.000000
0.000000 0.000000 0.000000
0.000000 0.000000 0.000000
0.000000 0.000000 0.000000
0.000000 0.000000 0.000000
0.000000 0.000000 0.000000
0.000000 0.000000 0.000000
0.000000 0.000000 0.000000
0.000000 0.000000 0.000000
0.000000 0.000000 0.000000
0.000000 0.000000 0.000000
0.000000 0.000000 0.000000
0.000000 0.000000 0.000000
0.000000 0.000000 0.000000
0.000000 0.000000 0.000000
0.000000 0.000000 0.000000
0.000000 0.000000 0.000000
0.000000 0.000000 0.000000
0.000000 0.000000 0.000000
0.000000 0.000000 0.000000
0.000000 0.000000 0.000000
0.000000 0.000000 0.000000
0.000000 0.000000 0.000000
0.000000 0.000000 0.000000
0.000000 0.000000 0.000000
0.000000 0.000000 0.000000
0.000000 0.000000 0.000000
0.000000 0.000000 0.000000
0.000000 0.000000 0.000000
0.000000 0.000000 0.000000
0.000000 0.000000 0.000000
0.000000 0.000000 0.000000
0.000000 0.000000 0.000000
0.000000 0.000000 0.000000
0.000000 0.000000 0.000000
0.000000 0.000000 0.000000
0.000000 0.000000 0.000000
0.000000 0.000000 0.000000
0.000000 0.000000 0.000000
0.000000 0.000000 0.000000
0.000000 0.000000 0.000000
0.000000 0.000000 0.000000
0.000000 0.000000 0.000000
0.000000 0.000000 0.000000
0.000000 0.000000 0.000000
0.000000 0.000000 0.000000
0.000000 0.000000 0.000000
0.000000 0.000000 0.000000
0.000000 0.000000 0.000000
0.000000 0.000000 0.000000
0.000000 0.000000 0.000000
0.000000 0.000000 0.000000
0.000000 0.000000 0.000000
0.000000 0.000000 0.000000
0.000000 0.000000 0.000000
0.000000 0.000000 0.000000
0.000000 0.000000 0.000000
0.000000 0.000000 0.000000
0.000000 0.000000 0.000000
0.000000 0.000000 0.000000
0.000000 0.000000 0.000000
