alpha_Ti
1.0
9.588310 0.000000 0.000000
0.000000 9.588310 0.000000
0.000000 0.000000 18.800006
Ti
48
direct
0.125000 0.833333 -0.000000 Ti
0.125000 0.333333 -0.000000 Ti
0.625000 0.833333 -0.000000 Ti
0.625000 0.333333 -0.000000 Ti
0.375000 0.666667 -0.000000 Ti
0.375000 0.166667 -0.000000 Ti
0.875000 0.666667 -0.000000 Ti
0.875000 0.166667 -0.000000 Ti
0.875000 0.416667 0.079787 Ti
0.375000 0.416667 0.079787 Ti
0.875000 0.916667 0.079787 Ti
0.375000 0.916667 0.079787 Ti
0.625000 0.083333 0.079787 Ti
0.125000 0.083333 0.079787 Ti
0.625000 0.583333 0.079787 Ti
0.125000 0.583333 0.079787 Ti
0.125000 0.333333 0.159575 Ti
0.625000 0.333333 0.159575 Ti
0.625000 0.833333 0.159575 Ti
0.125000 0.833333 0.159575 Ti
0.875000 0.666667 0.159575 Ti
0.375000 0.166667 0.159575 Ti
0.875000 0.166667 0.159575 Ti
0.375000 0.666667 0.159575 Ti
0.875000 0.416667 0.239362 Ti
0.375000 0.416667 0.239362 Ti
0.875000 0.916667 0.239362 Ti
0.375000 0.916667 0.239362 Ti
0.125000 0.583333 0.239362 Ti
0.625000 0.083333 0.239362 Ti
0.125000 0.083333 0.239362 Ti
0.625000 0.583333 0.239362 Ti
0.625000 0.833333 0.319148 Ti
0.625000 0.333333 0.319148 Ti
0.125000 0.833333 0.319148 Ti
0.125000 0.333333 0.319148 Ti
0.375000 0.166667 0.319148 Ti
0.875000 0.166667 0.319148 Ti
0.375000 0.666667 0.319148 Ti
0.875000 0.666667 0.319148 Ti
0.875000 0.416667 0.398936 Ti
0.375000 0.416667 0.398936 Ti
0.375000 0.916667 0.398936 Ti
0.875000 0.916667 0.398936 Ti
0.625000 0.583333 0.398936 Ti
0.625000 0.083333 0.398936 Ti
0.125000 0.583333 0.398936 Ti
0.125000 0.083333 0.398936 Ti
