Ti96 Al1                                
   1.00000000000000     
     9.5130199999999991    0.0000000000000000    0.0000000000000000
     0.0000000000000000    9.3508600000000008    0.0000000000000000
     0.0000000000000000    0.0000000000000000   18.5472299999999990
   Ti   Al
    96     1
Selective dynamics
Direct
  0.1515733135495387  0.3784781866752559  0.4049657499158671   T   T   T
  0.6430411105845502  0.3338274686823050  0.4074123256231614   T   T   T
  0.1273604493698569  0.8531307288631554  0.3924750664679727   T   T   T
  0.6704245072753300  0.8724602511312577  0.3905778633408133   T   T   T
  0.1615835679887741  0.3712530458142808  0.2345659016356006   T   T   T
  0.6610060898716013  0.3767743685059722  0.2345572734014648   T   T   T
  0.1652095911439279  0.8742098238205162  0.2354565423355574   T   T   T
  0.6515523475692248  0.8689089662338855  0.2377294579280444   T   T   T
  0.1666659999999993  0.3750000000000000  0.0776889999999995   F   F   F
  0.6666659999999993  0.3750000000000000  0.0776889999999995   F   F   F
  0.1666659999999993  0.8750000000000000  0.0776889999999995   F   F   F
  0.6666659999999993  0.8750000000000000  0.0776889999999995   F   F   F
  0.4069001514127641  0.3805934056785030  0.3128767855638409   T   T   T
  0.8964003093065815  0.3725043033517970  0.3223520045605658   T   T   T
  0.3994073277014901  0.8974596252495283  0.3357645261102856   T   T   T
  0.9131197480007557  0.8859538554993596  0.3070163514580869   T   T   T
  0.4166669999999968  0.3750000000000000  0.1553790000000035   F   F   F
  0.9166669999999968  0.3750000000000000  0.1553790000000035   F   F   F
  0.4166669999999968  0.8750000000000000  0.1553790000000035   F   F   F
  0.9166669999999968  0.8750000000000000  0.1553790000000035   F   F   F
  0.4166669999999968  0.3750000000000000  0.0000000000000000   F   F   F
  0.9166669999999968  0.3750000000000000  0.0000000000000000   F   F   F
  0.4166669999999968  0.8750000000000000  0.0000000000000000   F   F   F
  0.9166669999999968  0.8750000000000000  0.0000000000000000   F   F   F
  0.1035996906934187  0.1274956966482026  0.3223510045605613   T   T   T
  0.5930998485872367  0.1194065943214970  0.3128757855638363   T   T   T
  0.0868802519992445  0.6140461445006404  0.3070153514580823   T   T   T
  0.6005926722985094  0.6025403747504717  0.3357635261102810   T   T   T
  0.0833330000000032  0.1250000000000000  0.1553790000000035   F   F   F
  0.5833330000000032  0.1250000000000000  0.1553790000000035   F   F   F
  0.0833330000000032  0.6250000000000000  0.1553790000000035   F   F   F
  0.5833330000000032  0.6250000000000000  0.1553790000000035   F   F   F
  0.0833330000000032  0.1250000000000000  0.0000000000000000   F   F   F
  0.5833330000000032  0.1250000000000000  0.0000000000000000   F   F   F
  0.0833330000000032  0.6250000000000000  0.0000000000000000   F   F   F
  0.5833330000000032  0.6250000000000000  0.0000000000000000   F   F   F
  0.3569578894154525  0.1661725313176949  0.4074123256231614   T   T   T
  0.8484256864504637  0.1215218133247440  0.4049657499158671   T   T   T
  0.3295744927246726  0.6275397488687423  0.3905778633408133   T   T   T
  0.8726385506301458  0.6468692711368446  0.3924750664679727   T   T   T
  0.3389929101284014  0.1232256314940279  0.2345572734014648   T   T   T
  0.8384154320112283  0.1287469541857193  0.2345659016356006   T   T   T
  0.3484466524307784  0.6310910337661145  0.2377294579280444   T   T   T
  0.8347894088560747  0.6257901761794838  0.2354565423355574   T   T   T
  0.3333330000000032  0.1250000000000000  0.0776889999999995   F   F   F
  0.8333330000000032  0.1250000000000000  0.0776889999999995   F   F   F
  0.3333330000000032  0.6250000000000000  0.0776889999999995   F   F   F
  0.8333330000000032  0.6250000000000000  0.0776889999999995   F   F   F
  0.3750000000000000  0.3750000000000000  0.8237379999999987   F   F   F
  0.8750000000000000  0.3750000000000000  0.8237379999999987   F   F   F
  0.3750000000000000  0.8750000000000000  0.8237379999999987   F   F   F
  0.8750000000000000  0.8750000000000000  0.8237379999999987   F   F   F
  0.1250000000000000  0.1250000000000000  0.8237379999999987   F   F   F
  0.6250000000000000  0.1250000000000000  0.8237379999999987   F   F   F
  0.1250000000000000  0.6250000000000000  0.8237379999999987   F   F   F
  0.6250000000000000  0.6250000000000000  0.8237379999999987   F   F   F
  0.1250000000000000  0.3750000000000000  0.9100839999999977   F   F   F
  0.6250000000000000  0.3750000000000000  0.9100839999999977   F   F   F
  0.1250000000000000  0.8750000000000000  0.9100839999999977   F   F   F
  0.6250000000000000  0.8750000000000000  0.9100839999999977   F   F   F
  0.3750000000000000  0.1250000000000000  0.9100839999999977   F   F   F
  0.8750000000000000  0.1250000000000000  0.9100839999999977   F   F   F
  0.3750000000000000  0.6250000000000000  0.9100839999999977   F   F   F
  0.8750000000000000  0.6250000000000000  0.9100839999999977   F   F   F
  0.3933780574743111  0.3851282526123683  0.6608543002642446   T   T   T
  0.8913204312268145  0.3718573315645123  0.6448568231005029   T   T   T
  0.3903221902704367  0.8955662915011890  0.6412836874722886   T   T   T
  0.8822721557352455  0.8848979114383483  0.6717548836916785   T   T   T
  0.1086795687731859  0.1281426684354875  0.6448568231005029   T   T   T
  0.6066219425256888  0.1148717473876315  0.6608543002642446   T   T   T
  0.1177278442647545  0.6151020885616517  0.6717548836916785   T   T   T
  0.6096778097295630  0.6044337084988110  0.6412836874722886   T   T   T
  0.1547973897106872  0.3823790594154506  0.5692220400499211   T   T   T
  0.6371119428098914  0.3334103301995957  0.5693903412790047   T   T   T
  0.1185757755322057  0.8557455333998779  0.5866689406936689   T   T   T
  0.6590141358375949  0.8648629905053258  0.5813775809397536   T   T   T
  0.3628880571901082  0.1665896698004043  0.5693903412790047   T   T   T
  0.8452026102893128  0.1176209405845493  0.5692220400499211   T   T   T
  0.3409858641624051  0.6351370094946742  0.5813775809397536   T   T   T
  0.8814242244677940  0.6442544666001221  0.5866689406936689   T   T   T
  0.4168037147532886  0.4272683865229194  0.4870558740194187   T   T   T
  0.9042852886543077  0.3696482733781618  0.4866831620923563   T   T   T
  0.3074780773252904  0.9333687699857064  0.4903644588159463   T   T   T
  0.9065262963074564  0.8819443981529161  0.4885685944675283   T   T   T
  0.0957147113456919  0.1303517266218382  0.4866831620923563   T   T   T
  0.5831962852467110  0.0727316134770807  0.4870558740194187   T   T   T
  0.0934737036925433  0.6180556018470839  0.4885685944675283   T   T   T
  0.6925219226747097  0.5666312300142936  0.4903644588159463   T   T   T
  0.1250000000000000  0.8750000000000000  0.7373949999999994   F   F   F
  0.6250000000000000  0.8750000000000000  0.7373949999999994   F   F   F
  0.3750000000000000  0.6250000000000000  0.7373949999999994   F   F   F
  0.8750000000000000  0.6250000000000000  0.7373949999999994   F   F   F
  0.1250000000000000  0.3750000000000000  0.7373949999999994   F   F   F
  0.6250000000000000  0.3750000000000000  0.7373949999999994   F   F   F
  0.3750000000000000  0.1250000000000000  0.7373949999999994   F   F   F
  0.8750000000000000  0.1250000000000000  0.7373949999999994   F   F   F
  0.5000000000000000  0.7500000000000000  0.4800962479611136   T   T   T
 
  0.00000000E+00  0.00000000E+00  0.00000000E+00
  0.00000000E+00  0.00000000E+00  0.00000000E+00
  0.00000000E+00  0.00000000E+00  0.00000000E+00
  0.00000000E+00  0.00000000E+00  0.00000000E+00
  0.00000000E+00  0.00000000E+00  0.00000000E+00
  0.00000000E+00  0.00000000E+00  0.00000000E+00
  0.00000000E+00  0.00000000E+00  0.00000000E+00
  0.00000000E+00  0.00000000E+00  0.00000000E+00
  0.00000000E+00  0.00000000E+00  0.00000000E+00
  0.00000000E+00  0.00000000E+00  0.00000000E+00
  0.00000000E+00  0.00000000E+00  0.00000000E+00
  0.00000000E+00  0.00000000E+00  0.00000000E+00
  0.00000000E+00  0.00000000E+00  0.00000000E+00
  0.00000000E+00  0.00000000E+00  0.00000000E+00
  0.00000000E+00  0.00000000E+00  0.00000000E+00
  0.00000000E+00  0.00000000E+00  0.00000000E+00
  0.00000000E+00  0.00000000E+00  0.00000000E+00
  0.00000000E+00  0.00000000E+00  0.00000000E+00
  0.00000000E+00  0.00000000E+00  0.00000000E+00
  0.00000000E+00  0.00000000E+00  0.00000000E+00
  0.00000000E+00  0.00000000E+00  0.00000000E+00
  0.00000000E+00  0.00000000E+00  0.00000000E+00
  0.00000000E+00  0.00000000E+00  0.00000000E+00
  0.00000000E+00  0.00000000E+00  0.00000000E+00
  0.00000000E+00  0.00000000E+00  0.00000000E+00
  0.00000000E+00  0.00000000E+00  0.00000000E+00
  0.00000000E+00  0.00000000E+00  0.00000000E+00
  0.00000000E+00  0.00000000E+00  0.00000000E+00
  0.00000000E+00  0.00000000E+00  0.00000000E+00
  0.00000000E+00  0.00000000E+00  0.00000000E+00
  0.00000000E+00  0.00000000E+00  0.00000000E+00
  0.00000000E+00  0.00000000E+00  0.00000000E+00
  0.00000000E+00  0.00000000E+00  0.00000000E+00
  0.00000000E+00  0.00000000E+00  0.00000000E+00
  0.00000000E+00  0.00000000E+00  0.00000000E+00
  0.00000000E+00  0.00000000E+00  0.00000000E+00
  0.00000000E+00  0.00000000E+00  0.00000000E+00
  0.00000000E+00  0.00000000E+00  0.00000000E+00
  0.00000000E+00  0.00000000E+00  0.00000000E+00
  0.00000000E+00  0.00000000E+00  0.00000000E+00
  0.00000000E+00  0.00000000E+00  0.00000000E+00
  0.00000000E+00  0.00000000E+00  0.00000000E+00
  0.00000000E+00  0.00000000E+00  0.00000000E+00
  0.00000000E+00  0.00000000E+00  0.00000000E+00
  0.00000000E+00  0.00000000E+00  0.00000000E+00
  0.00000000E+00  0.00000000E+00  0.00000000E+00
  0.00000000E+00  0.00000000E+00  0.00000000E+00
  0.00000000E+00  0.00000000E+00  0.00000000E+00
  0.00000000E+00  0.00000000E+00  0.00000000E+00
  0.00000000E+00  0.00000000E+00  0.00000000E+00
  0.00000000E+00  0.00000000E+00  0.00000000E+00
  0.00000000E+00  0.00000000E+00  0.00000000E+00
  0.00000000E+00  0.00000000E+00  0.00000000E+00
  0.00000000E+00  0.00000000E+00  0.00000000E+00
  0.00000000E+00  0.00000000E+00  0.00000000E+00
  0.00000000E+00  0.00000000E+00  0.00000000E+00
  0.00000000E+00  0.00000000E+00  0.00000000E+00
  0.00000000E+00  0.00000000E+00  0.00000000E+00
  0.00000000E+00  0.00000000E+00  0.00000000E+00
  0.00000000E+00  0.00000000E+00  0.00000000E+00
  0.00000000E+00  0.00000000E+00  0.00000000E+00
  0.00000000E+00  0.00000000E+00  0.00000000E+00
  0.00000000E+00  0.00000000E+00  0.00000000E+00
  0.00000000E+00  0.00000000E+00  0.00000000E+00
  0.00000000E+00  0.00000000E+00  0.00000000E+00
  0.00000000E+00  0.00000000E+00  0.00000000E+00
  0.00000000E+00  0.00000000E+00  0.00000000E+00
  0.00000000E+00  0.00000000E+00  0.00000000E+00
  0.00000000E+00  0.00000000E+00  0.00000000E+00
  0.00000000E+00  0.00000000E+00  0.00000000E+00
  0.00000000E+00  0.00000000E+00  0.00000000E+00
  0.00000000E+00  0.00000000E+00  0.00000000E+00
  0.00000000E+00  0.00000000E+00  0.00000000E+00
  0.00000000E+00  0.00000000E+00  0.00000000E+00
  0.00000000E+00  0.00000000E+00  0.00000000E+00
  0.00000000E+00  0.00000000E+00  0.00000000E+00
  0.00000000E+00  0.00000000E+00  0.00000000E+00
  0.00000000E+00  0.00000000E+00  0.00000000E+00
  0.00000000E+00  0.00000000E+00  0.00000000E+00
  0.00000000E+00  0.00000000E+00  0.00000000E+00
  0.00000000E+00  0.00000000E+00  0.00000000E+00
  0.00000000E+00  0.00000000E+00  0.00000000E+00
  0.00000000E+00  0.00000000E+00  0.00000000E+00
  0.00000000E+00  0.00000000E+00  0.00000000E+00
  0.00000000E+00  0.00000000E+00  0.00000000E+00
  0.00000000E+00  0.00000000E+00  0.00000000E+00
  0.00000000E+00  0.00000000E+00  0.00000000E+00
  0.00000000E+00  0.00000000E+00  0.00000000E+00
  0.00000000E+00  0.00000000E+00  0.00000000E+00
  0.00000000E+00  0.00000000E+00  0.00000000E+00
  0.00000000E+00  0.00000000E+00  0.00000000E+00
  0.00000000E+00  0.00000000E+00  0.00000000E+00
  0.00000000E+00  0.00000000E+00  0.00000000E+00
  0.00000000E+00  0.00000000E+00  0.00000000E+00
  0.00000000E+00  0.00000000E+00  0.00000000E+00
  0.00000000E+00  0.00000000E+00  0.00000000E+00
  0.00000000E+00  0.00000000E+00  0.00000000E+00
