Optimistic_Structure
1.0
6.391540 0.000000 0.000000
0.000000 9.587310 0.000000
0.000000 0.000000 23.271695
Ti Nb
82 1
Selective dynamics
direct
0.625000 0.083333 0.580570 F F F Ti
0.125000 0.083333 0.709482 F F F Ti
0.625000 0.083333 0.709482 F F F Ti
0.125000 0.083333 0.838394 F F F Ti
0.625000 0.083333 0.838394 F F F Ti
0.125000 0.416667 0.580570 F F F Ti
0.625000 0.416667 0.580570 F F F Ti
0.125000 0.416667 0.709482 F F F Ti
0.625000 0.416667 0.709482 F F F Ti
0.125000 0.416667 0.838394 F F F Ti
0.625000 0.416667 0.838394 F F F Ti
0.125000 0.750000 0.580570 F F F Ti
0.625000 0.750000 0.580570 F F F Ti
0.125000 0.750000 0.709482 F F F Ti
0.625000 0.750000 0.709482 F F F Ti
0.125000 0.750000 0.838394 F F F Ti
0.625000 0.750000 0.838394 F F F Ti
0.375000 0.250000 0.645026 F F F Ti
0.875000 0.250000 0.645026 F F F Ti
0.375000 0.250000 0.773938 F F F Ti
0.875000 0.250000 0.773938 F F F Ti
0.375000 0.250000 0.902850 F F F Ti
0.875000 0.250000 0.902850 F F F Ti
0.375000 0.583333 0.645026 F F F Ti
0.875000 0.583333 0.645026 F F F Ti
0.375000 0.583333 0.773938 F F F Ti
0.875000 0.583333 0.773938 F F F Ti
0.375000 0.583333 0.902850 F F F Ti
0.875000 0.583333 0.902850 F F F Ti
0.375000 0.916667 0.645026 F F F Ti
0.875000 0.916667 0.645026 F F F Ti
0.375000 0.916667 0.773938 F F F Ti
0.875000 0.916667 0.773938 F F F Ti
0.375000 0.916667 0.902850 F F F Ti
0.875000 0.916667 0.902850 F F F Ti
0.125000 0.166667 0.386736 F F F Ti
0.625000 0.166667 0.386736 F F F Ti
0.125000 0.666667 0.386736 F F F Ti
0.625000 0.666667 0.386736 F F F Ti
0.125000 0.166667 -0.000000 F F F Ti
0.625000 0.166667 -0.000000 F F F Ti
0.125000 0.666667 -0.000000 F F F Ti
0.625000 0.666667 -0.000000 F F F Ti
0.125000 0.833333 0.096684 F F F Ti
0.625000 0.833333 0.096684 F F F Ti
0.125000 0.833333 0.483420 F F F Ti
0.625000 0.833333 0.483420 F F F Ti
0.125000 0.333333 0.096684 F F F Ti
0.625000 0.333333 0.096684 F F F Ti
0.125000 0.333333 0.483420 F F F Ti
0.625000 0.333333 0.483420 F F F Ti
0.375000 0.583333 0.483420 F F F Ti
0.875000 0.583333 0.483420 F F F Ti
0.374999 0.583333 0.096684 F F F Ti
0.874999 0.583333 0.096684 F F F Ti
0.375000 0.083333 0.096684 F F F Ti
0.875000 0.083333 0.096684 F F F Ti
0.875000 0.083333 0.483420 F F F Ti
0.375000 0.416667 0.386736 F F F Ti
0.875000 0.416667 0.386736 F F F Ti
0.375000 0.916667 0.386736 F F F Ti
0.875000 0.916667 0.386736 F F F Ti
0.375000 0.416667 -0.000000 F F F Ti
0.875000 0.416667 -0.000000 F F F Ti
0.375000 0.916667 -0.000000 F F F Ti
0.875000 0.916667 -0.000000 F F F Ti
0.375000 0.083333 0.290052 F F F Ti
0.875000 0.083333 0.290052 F F F Ti
0.125000 0.166667 0.193368 F F F Ti
0.625000 0.166667 0.193368 F F F Ti
0.125000 0.333333 0.290052 F F F Ti
0.625000 0.333333 0.290052 F F F Ti
0.375000 0.416667 0.193368 F F F Ti
0.875000 0.416667 0.193368 F F F Ti
0.374999 0.583333 0.290052 F F F Ti
0.874999 0.583333 0.290052 F F F Ti
0.125000 0.666667 0.193368 F F F Ti
0.625000 0.666667 0.193368 F F F Ti
0.125000 0.833333 0.290052 F F F Ti
0.625000 0.833333 0.290052 F F F Ti
0.375000 0.916667 0.193368 F F F Ti
0.875000 0.916667 0.193368 F F F Ti
0.375000 0.083333 0.483420 T T T Nb
