Ti96 Al1
1.0
9.513020 0.000000 0.000000
0.000000 9.350860 0.000000
0.000000 0.000000 18.547230
Ti Al
96 1
Selective dynamics
direct
0.140194 0.383381 0.402594 T T T Ti
0.652563 0.363697 0.397023 T T T Ti
0.168374 0.882778 0.401690 T T T Ti
0.630087 0.930524 0.399958 T T T Ti
0.162974 0.375551 0.234477 T T T Ti
0.658852 0.379573 0.233721 T T T Ti
0.160450 0.876018 0.236180 T T T Ti
0.660811 0.875415 0.235896 T T T Ti
0.166630 0.374957 0.077574 F F F Ti
0.666696 0.374987 0.077569 F F F Ti
0.166710 0.875014 0.077584 F F F Ti
0.666674 0.875000 0.077641 F F F Ti
0.398094 0.372233 0.321537 T T T Ti
0.911273 0.363970 0.308842 T T T Ti
0.411503 0.870258 0.315367 T T T Ti
0.911504 0.878126 0.325915 T T T Ti
0.416614 0.375018 0.155185 F F F Ti
0.916715 0.374770 0.155206 F F F Ti
0.416769 0.875052 0.155255 F F F Ti
0.916752 0.874905 0.155225 F F F Ti
0.416678 0.375003 -0.000033 F F F Ti
0.916648 0.374983 -0.000024 F F F Ti
0.416705 0.875009 -0.000006 F F F Ti
0.916646 0.874990 -0.000007 F F F Ti
0.101906 0.127768 0.321536 T T T Ti
0.588727 0.136031 0.308841 T T T Ti
0.088497 0.629743 0.315366 T T T Ti
0.588496 0.621875 0.325914 T T T Ti
0.083389 0.124997 0.155184 F F F Ti
0.583282 0.125244 0.155203 F F F Ti
0.083232 0.624960 0.155257 F F F Ti
0.583245 0.625109 0.155224 F F F Ti
0.083325 0.125006 -0.000034 F F F Ti
0.583350 0.125024 -0.000025 F F F Ti
0.083299 0.624996 -0.000004 F F F Ti
0.583353 0.625017 -0.000005 F F F Ti
0.359805 0.116619 0.402594 T T T Ti
0.847436 0.136303 0.397023 T T T Ti
0.331625 0.617222 0.401690 T T T Ti
0.869912 0.569476 0.399959 T T T Ti
0.337026 0.124452 0.234477 T T T Ti
0.841147 0.120430 0.233721 T T T Ti
0.339549 0.623985 0.236180 T T T Ti
0.839188 0.624588 0.235896 T T T Ti
0.333368 0.125056 0.077573 F F F Ti
0.833303 0.125026 0.077569 F F F Ti
0.333289 0.624999 0.077584 F F F Ti
0.833327 0.625010 0.077641 F F F Ti
0.375001 0.374979 0.823910 F F F Ti
0.875010 0.374940 0.823800 F F F Ti
0.375050 0.875025 0.823892 F F F Ti
0.874947 0.874976 0.823853 F F F Ti
0.125004 0.125013 0.823909 F F F Ti
0.624998 0.125057 0.823799 F F F Ti
0.124953 0.624966 0.823894 F F F Ti
0.625058 0.625018 0.823855 F F F Ti
0.124937 0.375009 0.910132 F F F Ti
0.625056 0.375017 0.910105 F F F Ti
0.124941 0.874972 0.910135 F F F Ti
0.625037 0.874989 0.910093 F F F Ti
0.375068 0.124990 0.910131 F F F Ti
0.874948 0.124980 0.910104 F F F Ti
0.375065 0.625023 0.910136 F F F Ti
0.874969 0.625010 0.910094 F F F Ti
0.389907 0.365521 0.645600 T T T Ti
0.887951 0.363178 0.666611 T T T Ti
0.382853 0.860682 0.664440 T T T Ti
0.891301 0.863580 0.647504 T T T Ti
0.110091 0.134475 0.645600 T T T Ti
0.612046 0.136818 0.666611 T T T Ti
0.117144 0.639311 0.664440 T T T Ti
0.608697 0.636415 0.647504 T T T Ti
0.135985 0.396160 0.574889 T T T Ti
0.652373 0.379882 0.578779 T T T Ti
0.154855 0.881976 0.572167 T T T Ti
0.625345 0.905279 0.582656 T T T Ti
0.364014 0.103838 0.574889 T T T Ti
0.847627 0.120117 0.578779 T T T Ti
0.345144 0.618022 0.572167 T T T Ti
0.874654 0.594719 0.582656 T T T Ti
0.377645 0.360609 0.488303 T T T Ti
0.902768 0.348521 0.493953 T T T Ti
0.411910 0.850772 0.486996 T T T Ti
0.930983 0.920441 0.482384 T T T Ti
0.122354 0.139390 0.488303 T T T Ti
0.597232 0.151478 0.493953 T T T Ti
0.088089 0.649228 0.486996 T T T Ti
0.569016 0.579559 0.482384 T T T Ti
0.125150 0.874902 0.737769 F F F Ti
0.624885 0.875240 0.737616 F F F Ti
0.374837 0.625070 0.737770 F F F Ti
0.875109 0.624741 0.737619 F F F Ti
0.124992 0.374911 0.737667 F F F Ti
0.625142 0.374830 0.737660 F F F Ti
0.374999 0.125071 0.737666 F F F Ti
0.874850 0.125150 0.737658 F F F Ti
0.750000 0.750000 0.460191 T T T Al

0.000000 0.000000 0.000000
0.000000 0.000000 0.000000
0.000000 0.000000 0.000000
0.000000 0.000000 0.000000
0.000000 0.000000 0.000000
0.000000 0.000000 0.000000
0.000000 0.000000 0.000000
0.000000 0.000000 0.000000
0.000000 0.000000 0.000000
0.000000 0.000000 0.000000
0.000000 0.000000 0.000000
0.000000 0.000000 0.000000
0.000000 0.000000 0.000000
0.000000 0.000000 0.000000
0.000000 0.000000 0.000000
0.000000 0.000000 0.000000
0.000000 0.000000 0.000000
0.000000 0.000000 0.000000
0.000000 0.000000 0.000000
0.000000 0.000000 0.000000
0.000000 0.000000 0.000000
0.000000 0.000000 0.000000
0.000000 0.000000 0.000000
0.000000 0.000000 0.000000
0.000000 0.000000 0.000000
0.000000 0.000000 0.000000
0.000000 0.000000 0.000000
0.000000 0.000000 0.000000
0.000000 0.000000 0.000000
0.000000 0.000000 0.000000
0.000000 0.000000 0.000000
0.000000 0.000000 0.000000
0.000000 0.000000 0.000000
0.000000 0.000000 0.000000
0.000000 0.000000 0.000000
0.000000 0.000000 0.000000
0.000000 0.000000 0.000000
0.000000 0.000000 0.000000
0.000000 0.000000 0.000000
0.000000 0.000000 0.000000
0.000000 0.000000 0.000000
0.000000 0.000000 0.000000
0.000000 0.000000 0.000000
0.000000 0.000000 0.000000
0.000000 0.000000 0.000000
0.000000 0.000000 0.000000
0.000000 0.000000 0.000000
0.000000 0.000000 0.000000
0.000000 0.000000 0.000000
0.000000 0.000000 0.000000
0.000000 0.000000 0.000000
0.000000 0.000000 0.000000
0.000000 0.000000 0.000000
0.000000 0.000000 0.000000
0.000000 0.000000 0.000000
0.000000 0.000000 0.000000
0.000000 0.000000 0.000000
0.000000 0.000000 0.000000
0.000000 0.000000 0.000000
0.000000 0.000000 0.000000
0.000000 0.000000 0.000000
0.000000 0.000000 0.000000
0.000000 0.000000 0.000000
0.000000 0.000000 0.000000
0.000000 0.000000 0.000000
0.000000 0.000000 0.000000
0.000000 0.000000 0.000000
0.000000 0.000000 0.000000
0.000000 0.000000 0.000000
0.000000 0.000000 0.000000
0.000000 0.000000 0.000000
0.000000 0.000000 0.000000
0.000000 0.000000 0.000000
0.000000 0.000000 0.000000
0.000000 0.000000 0.000000
0.000000 0.000000 0.000000
0.000000 0.000000 0.000000
0.000000 0.000000 0.000000
0.000000 0.000000 0.000000
0.000000 0.000000 0.000000
0.000000 0.000000 0.000000
0.000000 0.000000 0.000000
0.000000 0.000000 0.000000
0.000000 0.000000 0.000000
0.000000 0.000000 0.000000
0.000000 0.000000 0.000000
0.000000 0.000000 0.000000
0.000000 0.000000 0.000000
0.000000 0.000000 0.000000
0.000000 0.000000 0.000000
0.000000 0.000000 0.000000
0.000000 0.000000 0.000000
0.000000 0.000000 0.000000
0.000000 0.000000 0.000000
0.000000 0.000000 0.000000
0.000000 0.000000 0.000000
0.000000 0.000000 0.000000
