alpha_Ti
1.0
5.745590 0.000000 0.000000
0.000000 9.072750 0.000000
0.000000 0.000000 34.667173
Ti
36
direct
0.041667 0.875000 0.269219 Ti
0.041667 0.375000 0.269219 Ti
0.541667 0.875000 0.269219 Ti
0.541667 0.375000 0.269219 Ti
0.291667 0.625000 0.293694 Ti
0.291667 0.125000 0.293694 Ti
0.791667 0.625000 0.293694 Ti
0.791667 0.125000 0.293694 Ti
0.291667 0.875000 0.195795 Ti
0.291667 0.375000 0.195795 Ti
0.791667 0.875000 0.195795 Ti
0.791667 0.375000 0.195795 Ti
0.041667 0.625000 0.220270 Ti
0.041667 0.125000 0.220270 Ti
0.541667 0.625000 0.220270 Ti
0.541667 0.125000 0.220270 Ti
0.041667 0.875000 0.122372 Ti
0.041667 0.375000 0.122372 Ti
0.541667 0.875000 0.122372 Ti
0.541667 0.375000 0.122372 Ti
0.291667 0.625000 0.146847 Ti
0.291667 0.125000 0.146847 Ti
0.791667 0.625000 0.146847 Ti
0.791667 0.125000 0.146847 Ti
0.291667 0.875000 0.048949 Ti
0.291667 0.375000 0.048949 Ti
0.791667 0.875000 0.048949 Ti
0.791667 0.375000 0.048949 Ti
0.041667 0.625000 0.073424 Ti
0.041667 0.125000 0.073424 Ti
0.541667 0.625000 0.073424 Ti
0.541667 0.125000 0.073424 Ti
0.791667 0.125000 0.000000 Ti
0.291667 0.125000 0.000000 Ti
0.791667 0.625000 -0.000000 Ti
0.291667 0.625000 -0.000000 Ti
