total_Ti
1.0
8.805261 0.000000 0.000000
-4.402630 7.625580 0.000000
0.000000 0.000000 18.888801
Ti
72
direct
0.083333 0.916670 0.486634 Ti
0.083333 0.416670 0.486634 Ti
0.583333 0.916670 0.486634 Ti
0.583333 0.416670 0.486634 Ti
0.250000 0.250004 0.829284 Ti
0.250000 0.750004 0.829284 Ti
0.750000 0.250004 0.829284 Ti
0.750000 0.750004 0.829284 Ti
0.416667 0.083337 0.878234 Ti
0.416667 0.583337 0.878234 Ti
0.916667 0.083337 0.878234 Ti
0.916667 0.583337 0.878234 Ti
0.250000 0.250004 0.535584 Ti
0.250000 0.750004 0.535584 Ti
0.750000 0.250004 0.535584 Ti
0.750000 0.750004 0.535584 Ti
0.416667 0.083337 0.584534 Ti
0.416667 0.583337 0.584534 Ti
0.916667 0.083337 0.584534 Ti
0.916667 0.583337 0.584534 Ti
0.083333 0.916670 0.633484 Ti
0.083333 0.416670 0.633484 Ti
0.583333 0.916670 0.633484 Ti
0.583333 0.416670 0.633484 Ti
0.250000 0.250004 0.682434 Ti
0.250000 0.750004 0.682434 Ti
0.750000 0.250004 0.682434 Ti
0.750000 0.750004 0.682434 Ti
0.416667 0.083337 0.731384 Ti
0.416667 0.583337 0.731384 Ti
0.916667 0.083337 0.731384 Ti
0.916667 0.583337 0.731384 Ti
0.083333 0.916670 0.780334 Ti
0.083333 0.416670 0.780334 Ti
0.583333 0.916670 0.780334 Ti
0.583333 0.416670 0.780334 Ti
0.138888 0.861107 -0.000000 Ti
0.138888 0.861107 0.243246 Ti
0.138888 0.527774 -0.000000 Ti
0.249999 0.749996 0.121623 Ti
0.138888 0.527774 0.243246 Ti
0.472221 0.861107 -0.000000 Ti
0.138888 0.194441 -0.000000 Ti
0.249999 0.749996 0.364869 Ti
0.250000 0.416663 0.121623 Ti
0.472221 0.861107 0.243246 Ti
0.138888 0.194441 0.243246 Ti
0.472221 0.527774 -0.000000 Ti
0.250000 0.416663 0.364869 Ti
0.583333 0.749996 0.121623 Ti
0.250000 0.083330 0.121623 Ti
0.472221 0.527774 0.243246 Ti
0.805555 0.861107 -0.000000 Ti
0.472222 0.194441 -0.000000 Ti
0.583333 0.749996 0.364869 Ti
0.250000 0.083330 0.364869 Ti
0.583333 0.416663 0.121623 Ti
0.805555 0.861107 0.243246 Ti
0.472222 0.194441 0.243246 Ti
0.805555 0.527774 -0.000000 Ti
0.583333 0.416663 0.364869 Ti
0.916666 0.749996 0.121623 Ti
0.583333 0.083330 0.121623 Ti
0.805555 0.527774 0.243246 Ti
0.805555 0.194441 -0.000000 Ti
0.916666 0.749996 0.364869 Ti
0.583333 0.083330 0.364869 Ti
0.916666 0.416663 0.121623 Ti
0.805555 0.194441 0.243246 Ti
0.916666 0.416663 0.364869 Ti
0.916666 0.083330 0.121623 Ti
0.916666 0.083330 0.364869 Ti
