beta_Ti
1.0
9.445957 0.000000 0.000000
0.000000 9.093951 0.000000
0.000000 0.000000 17.951864
Ti
48
direct
0.375000 0.375000 0.834475 Ti
0.875000 0.375000 0.834475 Ti
0.375000 0.875000 0.834475 Ti
0.875000 0.875000 0.834475 Ti
0.125000 0.125000 0.834475 Ti
0.625000 0.125000 0.834475 Ti
0.125000 0.625000 0.834475 Ti
0.625000 0.625000 0.834475 Ti
0.125000 0.375000 0.923684 Ti
0.625000 0.375000 0.923684 Ti
0.125000 0.875000 0.923684 Ti
0.625000 0.875000 0.923684 Ti
0.375000 0.125000 0.923684 Ti
0.875000 0.125000 0.923684 Ti
0.375000 0.625000 0.923684 Ti
0.875000 0.625000 0.923684 Ti
0.375000 0.375000 0.656059 Ti
0.875000 0.375000 0.656059 Ti
0.375000 0.875000 0.656059 Ti
0.875000 0.875000 0.656059 Ti
0.125000 0.125000 0.656059 Ti
0.625000 0.125000 0.656059 Ti
0.125000 0.625000 0.656059 Ti
0.625000 0.625000 0.656059 Ti
0.125000 0.375000 0.566852 Ti
0.625000 0.375000 0.566852 Ti
0.125000 0.875000 0.566852 Ti
0.625000 0.875000 0.566852 Ti
0.375000 0.125000 0.566852 Ti
0.875000 0.125000 0.566852 Ti
0.375000 0.625000 0.566852 Ti
0.875000 0.625000 0.566852 Ti
0.375000 0.375000 0.477643 Ti
0.875000 0.375000 0.477643 Ti
0.375000 0.875000 0.477643 Ti
0.875000 0.875000 0.477643 Ti
0.125000 0.125000 0.477643 Ti
0.625000 0.125000 0.477643 Ti
0.125000 0.625000 0.477643 Ti
0.625000 0.625000 0.477643 Ti
0.125000 0.875000 0.745268 Ti
0.625000 0.875000 0.745268 Ti
0.375000 0.625000 0.745268 Ti
0.875000 0.625000 0.745268 Ti
0.125000 0.375000 0.745268 Ti
0.625000 0.375000 0.745268 Ti
0.375000 0.125000 0.745268 Ti
0.875000 0.125000 0.745268 Ti
