Ti96 Cr1
1.0
9.513020 0.000000 0.000000
0.000000 9.350860 0.000000
0.000000 0.000000 18.547230
Ti Cr
96 1
Selective dynamics
direct
0.141934 0.381899 0.405039 T T T Ti
0.649880 0.362552 0.397915 T T T Ti
0.167730 0.884093 0.404327 T T T Ti
0.641829 0.926566 0.399077 T T T Ti
0.162828 0.379010 0.235680 T T T Ti
0.659284 0.380359 0.234475 T T T Ti
0.159067 0.875638 0.236538 T T T Ti
0.657917 0.876586 0.235668 T T T Ti
0.166655 0.375019 0.077562 F F F Ti
0.666675 0.375029 0.077541 F F F Ti
0.166679 0.875006 0.077559 F F F Ti
0.666675 0.874976 0.077597 F F F Ti
0.400033 0.371243 0.319922 T T T Ti
0.912348 0.363812 0.310028 T T T Ti
0.407699 0.866564 0.319816 T T T Ti
0.908296 0.872824 0.327809 T T T Ti
0.416561 0.375036 0.155190 F F F Ti
0.916760 0.375024 0.155138 F F F Ti
0.416669 0.874964 0.155215 F F F Ti
0.916734 0.874925 0.155247 F F F Ti
0.416674 0.375006 -0.000064 F F F Ti
0.916656 0.375019 -0.000066 F F F Ti
0.416684 0.874993 -0.000060 F F F Ti
0.916651 0.874990 -0.000043 F F F Ti
0.099967 0.128758 0.319921 T T T Ti
0.587652 0.136188 0.310027 T T T Ti
0.092301 0.633437 0.319814 T T T Ti
0.591704 0.627177 0.327808 T T T Ti
0.083441 0.124974 0.155189 F F F Ti
0.583238 0.124988 0.155138 F F F Ti
0.083334 0.625046 0.155215 F F F Ti
0.583265 0.625084 0.155245 F F F Ti
0.083329 0.124998 -0.000063 F F F Ti
0.583343 0.124986 -0.000065 F F F Ti
0.083318 0.625010 -0.000060 F F F Ti
0.583347 0.625013 -0.000043 F F F Ti
0.358065 0.118101 0.405039 T T T Ti
0.850119 0.137448 0.397915 T T T Ti
0.332269 0.615907 0.404327 T T T Ti
0.858170 0.573434 0.399077 T T T Ti
0.337171 0.120992 0.235680 T T T Ti
0.840715 0.119644 0.234475 T T T Ti
0.340932 0.624364 0.236538 T T T Ti
0.842082 0.623416 0.235668 T T T Ti
0.333344 0.124989 0.077563 F F F Ti
0.833325 0.124980 0.077542 F F F Ti
0.333320 0.625003 0.077559 F F F Ti
0.833324 0.625032 0.077596 F F F Ti
0.375004 0.374997 0.823841 F F F Ti
0.875011 0.374975 0.823738 F F F Ti
0.375040 0.875006 0.823812 F F F Ti
0.874956 0.874976 0.823786 F F F Ti
0.125000 0.124995 0.823841 F F F Ti
0.624995 0.125025 0.823738 F F F Ti
0.124963 0.624987 0.823813 F F F Ti
0.625048 0.625021 0.823786 F F F Ti
0.124935 0.375033 0.910066 F F F Ti
0.625047 0.375041 0.910037 F F F Ti
0.124932 0.874974 0.910057 F F F Ti
0.625031 0.874978 0.910009 F F F Ti
0.375068 0.124965 0.910066 F F F Ti
0.874956 0.124958 0.910037 F F F Ti
0.375071 0.625023 0.910056 F F F Ti
0.874972 0.625023 0.910008 F F F Ti
0.390879 0.366517 0.648170 T T T Ti
0.894338 0.368042 0.663538 T T T Ti
0.391222 0.861735 0.657263 T T T Ti
0.898384 0.861128 0.646259 T T T Ti
0.109120 0.133479 0.648170 T T T Ti
0.605660 0.131955 0.663538 T T T Ti
0.108777 0.638261 0.657263 T T T Ti
0.601615 0.638869 0.646259 T T T Ti
0.141338 0.392413 0.571179 T T T Ti
0.651740 0.376843 0.580258 T T T Ti
0.159656 0.881159 0.569351 T T T Ti
0.642494 0.897760 0.576787 T T T Ti
0.358662 0.107586 0.571179 T T T Ti
0.848260 0.123156 0.580258 T T T Ti
0.340344 0.618840 0.569351 T T T Ti
0.857505 0.602239 0.576787 T T T Ti
0.389353 0.361658 0.489312 T T T Ti
0.898684 0.352599 0.493506 T T T Ti
0.417644 0.853646 0.485203 T T T Ti
0.917933 0.907451 0.484698 T T T Ti
0.110647 0.138342 0.489312 T T T Ti
0.601316 0.147401 0.493506 T T T Ti
0.082356 0.646354 0.485203 T T T Ti
0.582067 0.592549 0.484698 T T T Ti
0.125074 0.874888 0.737614 F F F Ti
0.624980 0.875094 0.737468 F F F Ti
0.374916 0.625091 0.737612 F F F Ti
0.875017 0.624896 0.737469 F F F Ti
0.124975 0.374941 0.737573 F F F Ti
0.625146 0.374911 0.737526 F F F Ti
0.375018 0.125044 0.737572 F F F Ti
0.874850 0.125075 0.737527 F F F Ti
0.750000 0.750000 0.449848 T T T Cr

0.000000 0.000000 0.000000
0.000000 0.000000 0.000000
0.000000 0.000000 0.000000
0.000000 0.000000 0.000000
0.000000 0.000000 0.000000
0.000000 0.000000 0.000000
0.000000 0.000000 0.000000
0.000000 0.000000 0.000000
0.000000 0.000000 0.000000
0.000000 0.000000 0.000000
0.000000 0.000000 0.000000
0.000000 0.000000 0.000000
0.000000 0.000000 0.000000
0.000000 0.000000 0.000000
0.000000 0.000000 0.000000
0.000000 0.000000 0.000000
0.000000 0.000000 0.000000
0.000000 0.000000 0.000000
0.000000 0.000000 0.000000
0.000000 0.000000 0.000000
0.000000 0.000000 0.000000
0.000000 0.000000 0.000000
0.000000 0.000000 0.000000
0.000000 0.000000 0.000000
0.000000 0.000000 0.000000
0.000000 0.000000 0.000000
0.000000 0.000000 0.000000
0.000000 0.000000 0.000000
0.000000 0.000000 0.000000
0.000000 0.000000 0.000000
0.000000 0.000000 0.000000
0.000000 0.000000 0.000000
0.000000 0.000000 0.000000
0.000000 0.000000 0.000000
0.000000 0.000000 0.000000
0.000000 0.000000 0.000000
0.000000 0.000000 0.000000
0.000000 0.000000 0.000000
0.000000 0.000000 0.000000
0.000000 0.000000 0.000000
0.000000 0.000000 0.000000
0.000000 0.000000 0.000000
0.000000 0.000000 0.000000
0.000000 0.000000 0.000000
0.000000 0.000000 0.000000
0.000000 0.000000 0.000000
0.000000 0.000000 0.000000
0.000000 0.000000 0.000000
0.000000 0.000000 0.000000
0.000000 0.000000 0.000000
0.000000 0.000000 0.000000
0.000000 0.000000 0.000000
0.000000 0.000000 0.000000
0.000000 0.000000 0.000000
0.000000 0.000000 0.000000
0.000000 0.000000 0.000000
0.000000 0.000000 0.000000
0.000000 0.000000 0.000000
0.000000 0.000000 0.000000
0.000000 0.000000 0.000000
0.000000 0.000000 0.000000
0.000000 0.000000 0.000000
0.000000 0.000000 0.000000
0.000000 0.000000 0.000000
0.000000 0.000000 0.000000
0.000000 0.000000 0.000000
0.000000 0.000000 0.000000
0.000000 0.000000 0.000000
0.000000 0.000000 0.000000
0.000000 0.000000 0.000000
0.000000 0.000000 0.000000
0.000000 0.000000 0.000000
0.000000 0.000000 0.000000
0.000000 0.000000 0.000000
0.000000 0.000000 0.000000
0.000000 0.000000 0.000000
0.000000 0.000000 0.000000
0.000000 0.000000 0.000000
0.000000 0.000000 0.000000
0.000000 0.000000 0.000000
0.000000 0.000000 0.000000
0.000000 0.000000 0.000000
0.000000 0.000000 0.000000
0.000000 0.000000 0.000000
0.000000 0.000000 0.000000
0.000000 0.000000 0.000000
0.000000 0.000000 0.000000
0.000000 0.000000 0.000000
0.000000 0.000000 0.000000
0.000000 0.000000 0.000000
0.000000 0.000000 0.000000
0.000000 0.000000 0.000000
0.000000 0.000000 0.000000
0.000000 0.000000 0.000000
0.000000 0.000000 0.000000
0.000000 0.000000 0.000000
0.000000 0.000000 0.000000
