Ti66 Al1
1.0
6.309760 0.000000 0.000000
0.000000 9.464640 0.000000
0.000000 0.000000 18.918326
Ti Al
66 1
Selective dynamics
direct
0.110080 0.034779 0.500242 F F F Ti
0.637525 0.035155 0.500067 F F F Ti
0.124494 0.042086 0.658777 F F F Ti
0.623888 0.042206 0.659013 F F F Ti
0.125127 0.042115 0.817401 F F F Ti
0.624709 0.042184 0.817426 F F F Ti
0.086481 0.388987 0.502617 F F F Ti
0.671610 0.397303 0.502781 F F F Ti
0.124927 0.375498 0.658632 F F F Ti
0.624518 0.376165 0.659411 F F F Ti
0.125168 0.375081 0.817319 F F F Ti
0.624659 0.375071 0.817492 F F F Ti
0.124262 0.709519 0.500259 F F F Ti
0.622643 0.711229 0.500285 F F F Ti
0.126601 0.709691 0.659677 F F F Ti
0.622292 0.710011 0.659884 F F F Ti
0.125181 0.708661 0.817677 F F F Ti
0.624542 0.708713 0.817725 F F F Ti
0.870594 0.207675 0.580668 F F F Ti
0.374670 0.208802 0.737634 F F F Ti
0.874924 0.208660 0.738276 F F F Ti
0.374983 0.208448 0.896527 F F F Ti
0.875097 0.208477 0.896613 F F F Ti
0.374514 0.543122 0.579552 F F F Ti
0.874998 0.549629 0.583327 F F F Ti
0.374803 0.541854 0.738279 F F F Ti
0.875034 0.542291 0.738889 F F F Ti
0.374994 0.541641 0.896657 F F F Ti
0.874988 0.541661 0.896740 F F F Ti
0.374244 0.875770 0.579561 F F F Ti
0.873600 0.873494 0.580812 F F F Ti
0.374559 0.875953 0.738367 F F F Ti
0.874708 0.875614 0.738561 F F F Ti
0.375028 0.875322 0.896680 F F F Ti
0.874974 0.875280 0.896715 F F F Ti
0.125352 0.624168 0.356836 F F F Ti
0.623593 0.625215 0.356361 F F F Ti
0.125222 0.624854 0.118907 F F F Ti
0.624869 0.624876 0.118855 F F F Ti
0.119600 0.122545 0.355713 F F F Ti
0.632618 0.121579 0.354661 F F F Ti
0.125264 0.124898 0.118800 F F F Ti
0.624790 0.124866 0.118692 F F F Ti
0.125210 0.374942 0.039762 F F F Ti
0.624868 0.374960 0.039731 F F F Ti
0.125147 0.875005 0.039644 F F F Ti
0.624874 0.874979 0.039615 F F F Ti
0.125835 0.374428 0.277514 F F F Ti
0.624281 0.374809 0.276860 F F F Ti
0.124577 0.874062 0.277077 F F F Ti
0.624832 0.873666 0.276748 F F F Ti
0.374913 0.874708 0.158354 F F F Ti
0.875171 0.874579 0.158201 F F F Ti
0.374937 0.374780 0.158539 F F F Ti
0.875351 0.374969 0.158378 F F F Ti
0.871370 0.375068 0.393870 F F F Ti
0.374196 0.873818 0.396024 F F F Ti
0.873674 0.871945 0.395631 F F F Ti
0.374634 0.624493 0.237774 F F F Ti
0.875159 0.624534 0.237569 F F F Ti
0.374990 0.624827 0.000203 F F F Ti
0.875194 0.624900 0.000206 F F F Ti
0.374855 0.124477 0.237675 F F F Ti
0.874948 0.124558 0.236867 F F F Ti
0.375033 0.125149 0.000136 F F F Ti
0.875225 0.125089 0.000126 F F F Ti
0.389000 0.258053 0.477130 T T T Al

0.000000 0.000000 0.000000
0.000000 0.000000 0.000000
0.000000 0.000000 0.000000
0.000000 0.000000 0.000000
0.000000 0.000000 0.000000
0.000000 0.000000 0.000000
0.000000 0.000000 0.000000
0.000000 0.000000 0.000000
0.000000 0.000000 0.000000
0.000000 0.000000 0.000000
0.000000 0.000000 0.000000
0.000000 0.000000 0.000000
0.000000 0.000000 0.000000
0.000000 0.000000 0.000000
0.000000 0.000000 0.000000
0.000000 0.000000 0.000000
0.000000 0.000000 0.000000
0.000000 0.000000 0.000000
0.000000 0.000000 0.000000
0.000000 0.000000 0.000000
0.000000 0.000000 0.000000
0.000000 0.000000 0.000000
0.000000 0.000000 0.000000
0.000000 0.000000 0.000000
0.000000 0.000000 0.000000
0.000000 0.000000 0.000000
0.000000 0.000000 0.000000
0.000000 0.000000 0.000000
0.000000 0.000000 0.000000
0.000000 0.000000 0.000000
0.000000 0.000000 0.000000
0.000000 0.000000 0.000000
0.000000 0.000000 0.000000
0.000000 0.000000 0.000000
0.000000 0.000000 0.000000
0.000000 0.000000 0.000000
0.000000 0.000000 0.000000
0.000000 0.000000 0.000000
0.000000 0.000000 0.000000
0.000000 0.000000 0.000000
0.000000 0.000000 0.000000
0.000000 0.000000 0.000000
0.000000 0.000000 0.000000
0.000000 0.000000 0.000000
0.000000 0.000000 0.000000
0.000000 0.000000 0.000000
0.000000 0.000000 0.000000
0.000000 0.000000 0.000000
0.000000 0.000000 0.000000
0.000000 0.000000 0.000000
0.000000 0.000000 0.000000
0.000000 0.000000 0.000000
0.000000 0.000000 0.000000
0.000000 0.000000 0.000000
0.000000 0.000000 0.000000
0.000000 0.000000 0.000000
0.000000 0.000000 0.000000
0.000000 0.000000 0.000000
0.000000 0.000000 0.000000
0.000000 0.000000 0.000000
0.000000 0.000000 0.000000
0.000000 0.000000 0.000000
0.000000 0.000000 0.000000
0.000000 0.000000 0.000000
0.000000 0.000000 0.000000
0.000000 0.000000 0.000000
0.000000 0.000000 0.000000
