Ti66 Mo1
1.0
6.309760 0.000000 0.000000
0.000000 9.464640 0.000000
0.000000 0.000000 18.918326
Ti Mo
66 1
Selective dynamics
direct
0.131352 0.030577 0.463923 T T T Ti
0.630880 0.063000 0.485178 T T T Ti
0.125585 0.057354 0.653039 T T T Ti
0.625636 0.066718 0.643297 T T T Ti
0.125103 0.040814 0.817635 F F F Ti
0.625023 0.040769 0.817614 F F F Ti
0.627657 0.387636 0.487246 T T T Ti
0.125210 0.370585 0.655511 T T T Ti
0.625709 0.375220 0.642977 T T T Ti
0.125010 0.374368 0.817619 F F F Ti
0.625116 0.374474 0.817694 F F F Ti
0.125627 0.723859 0.487652 T T T Ti
0.621030 0.724558 0.500522 T T T Ti
0.125122 0.708620 0.643118 T T T Ti
0.623870 0.709884 0.648389 T T T Ti
0.124924 0.707752 0.817531 F F F Ti
0.624775 0.707844 0.817518 F F F Ti
0.345136 0.226731 0.553757 T T T Ti
0.907047 0.227042 0.554512 T T T Ti
0.375567 0.206980 0.738643 F F F Ti
0.874914 0.206898 0.738721 F F F Ti
0.375053 0.207832 0.896487 F F F Ti
0.875042 0.207814 0.896501 F F F Ti
0.350987 0.527857 0.558770 T T T Ti
0.898419 0.529328 0.559057 T T T Ti
0.374857 0.540702 0.738588 F F F Ti
0.875135 0.540879 0.738605 F F F Ti
0.374917 0.541403 0.896525 F F F Ti
0.874989 0.541440 0.896532 F F F Ti
0.364188 0.901157 0.568380 T T T Ti
0.887085 0.900204 0.568362 T T T Ti
0.374912 0.873897 0.738344 F F F Ti
0.875065 0.873804 0.738309 F F F Ti
0.374971 0.874789 0.896569 F F F Ti
0.874949 0.874782 0.896556 F F F Ti
0.126276 0.593249 0.372403 T T T Ti
0.621177 0.612149 0.374207 T T T Ti
0.125491 0.626472 0.118453 F F F Ti
0.624982 0.626643 0.117895 F F F Ti
0.636519 0.101207 0.358571 T T T Ti
0.126051 0.125969 0.118793 F F F Ti
0.625515 0.125843 0.118585 F F F Ti
0.125495 0.375559 0.039038 F F F Ti
0.625239 0.375486 0.038951 F F F Ti
0.125064 0.875822 0.039620 F F F Ti
0.624932 0.875840 0.039481 F F F Ti
0.126631 0.379889 0.276072 T T T Ti
0.625265 0.379657 0.279141 T T T Ti
0.125434 0.864334 0.282943 T T T Ti
0.625103 0.872142 0.273106 T T T Ti
0.375188 0.876932 0.158483 F F F Ti
0.875224 0.876587 0.158357 F F F Ti
0.374939 0.376302 0.157236 F F F Ti
0.876556 0.376724 0.157059 F F F Ti
0.392544 0.324553 0.391843 T T T Ti
0.845350 0.335679 0.389664 T T T Ti
0.400702 0.863061 0.395811 T T T Ti
0.851079 0.860429 0.396145 T T T Ti
0.378890 0.624243 0.247786 T T T Ti
0.871388 0.624476 0.247828 T T T Ti
0.374804 0.625718 -0.000227 F F F Ti
0.875277 0.625741 -0.000218 F F F Ti
0.382155 0.128115 0.247397 T T T Ti
0.871358 0.128170 0.246261 T T T Ti
0.375140 0.125119 0.000007 F F F Ti
0.875317 0.125110 0.000011 F F F Ti
0.099052 0.230764 0.420179 T T T Mo

0.000000 0.000000 0.000000
0.000000 0.000000 0.000000
0.000000 0.000000 0.000000
0.000000 0.000000 0.000000
0.000000 0.000000 0.000000
0.000000 0.000000 0.000000
0.000000 0.000000 0.000000
0.000000 0.000000 0.000000
0.000000 0.000000 0.000000
0.000000 0.000000 0.000000
0.000000 0.000000 0.000000
0.000000 0.000000 0.000000
0.000000 0.000000 0.000000
0.000000 0.000000 0.000000
0.000000 0.000000 0.000000
0.000000 0.000000 0.000000
0.000000 0.000000 0.000000
0.000000 0.000000 0.000000
0.000000 0.000000 0.000000
0.000000 0.000000 0.000000
0.000000 0.000000 0.000000
0.000000 0.000000 0.000000
0.000000 0.000000 0.000000
0.000000 0.000000 0.000000
0.000000 0.000000 0.000000
0.000000 0.000000 0.000000
0.000000 0.000000 0.000000
0.000000 0.000000 0.000000
0.000000 0.000000 0.000000
0.000000 0.000000 0.000000
0.000000 0.000000 0.000000
0.000000 0.000000 0.000000
0.000000 0.000000 0.000000
0.000000 0.000000 0.000000
0.000000 0.000000 0.000000
0.000000 0.000000 0.000000
0.000000 0.000000 0.000000
0.000000 0.000000 0.000000
0.000000 0.000000 0.000000
0.000000 0.000000 0.000000
0.000000 0.000000 0.000000
0.000000 0.000000 0.000000
0.000000 0.000000 0.000000
0.000000 0.000000 0.000000
0.000000 0.000000 0.000000
0.000000 0.000000 0.000000
0.000000 0.000000 0.000000
0.000000 0.000000 0.000000
0.000000 0.000000 0.000000
0.000000 0.000000 0.000000
0.000000 0.000000 0.000000
0.000000 0.000000 0.000000
0.000000 0.000000 0.000000
0.000000 0.000000 0.000000
0.000000 0.000000 0.000000
0.000000 0.000000 0.000000
0.000000 0.000000 0.000000
0.000000 0.000000 0.000000
0.000000 0.000000 0.000000
0.000000 0.000000 0.000000
0.000000 0.000000 0.000000
0.000000 0.000000 0.000000
0.000000 0.000000 0.000000
0.000000 0.000000 0.000000
0.000000 0.000000 0.000000
0.000000 0.000000 0.000000
0.000000 0.000000 0.000000
