Ti66 Al1
1.0
6.309760 0.000000 0.000000
0.000000 9.464640 0.000000
0.000000 0.000000 18.918326
Ti Al
66 1
Selective dynamics
direct
0.124709 0.040628 0.500144 F F F Ti
0.625678 0.041278 0.500094 F F F Ti
0.125101 0.041531 0.658717 F F F Ti
0.625326 0.041506 0.658757 F F F Ti
0.125025 0.041661 0.817212 F F F Ti
0.625036 0.041662 0.817220 F F F Ti
0.632612 0.375198 0.501205 F F F Ti
0.125247 0.374993 0.658572 F F F Ti
0.625516 0.375021 0.658831 F F F Ti
0.125010 0.375002 0.817179 F F F Ti
0.625055 0.375007 0.817218 F F F Ti
0.124771 0.709166 0.500129 F F F Ti
0.625515 0.708747 0.500084 F F F Ti
0.125088 0.708439 0.658683 F F F Ti
0.625261 0.708510 0.658742 F F F Ti
0.125009 0.708339 0.817199 F F F Ti
0.625026 0.708345 0.817216 F F F Ti
0.376250 0.207661 0.579809 F F F Ti
0.875747 0.207884 0.579512 F F F Ti
0.375055 0.208316 0.737964 F F F Ti
0.875131 0.208314 0.737942 F F F Ti
0.375005 0.208340 0.896461 F F F Ti
0.875012 0.208338 0.896456 F F F Ti
0.376187 0.542314 0.579781 F F F Ti
0.875793 0.542121 0.579509 F F F Ti
0.375048 0.541690 0.737962 F F F Ti
0.875131 0.541687 0.737941 F F F Ti
0.375001 0.541664 0.896462 F F F Ti
0.875011 0.541662 0.896457 F F F Ti
0.375250 0.875092 0.579398 F F F Ti
0.874926 0.874990 0.579449 F F F Ti
0.375040 0.875003 0.737954 F F F Ti
0.875053 0.874988 0.737967 F F F Ti
0.375011 0.875001 0.896469 F F F Ti
0.875001 0.874999 0.896468 F F F Ti
0.123474 0.626568 0.356276 F F F Ti
0.624866 0.625595 0.356674 F F F Ti
0.124988 0.625020 0.118882 F F F Ti
0.624894 0.625023 0.118867 F F F Ti
0.123419 0.123430 0.356246 F F F Ti
0.625017 0.124470 0.356663 F F F Ti
0.124993 0.124997 0.118875 F F F Ti
0.624898 0.124995 0.118860 F F F Ti
0.124995 0.375004 0.039613 F F F Ti
0.624949 0.375004 0.039605 F F F Ti
0.124993 0.875008 0.039614 F F F Ti
0.624964 0.875008 0.039609 F F F Ti
0.124150 0.375013 0.277212 F F F Ti
0.624022 0.375020 0.277221 F F F Ti
0.124898 0.875076 0.277321 F F F Ti
0.624781 0.875073 0.277408 F F F Ti
0.375018 0.875014 0.158508 F F F Ti
0.874896 0.875020 0.158475 F F F Ti
0.374886 0.375006 0.158518 F F F Ti
0.874792 0.375006 0.158447 F F F Ti
0.866853 0.375007 0.395234 F F F Ti
0.375083 0.875310 0.396429 F F F Ti
0.874608 0.875130 0.396409 F F F Ti
0.374928 0.625045 0.237798 F F F Ti
0.874546 0.625129 0.237652 F F F Ti
0.374990 0.625008 -0.000007 F F F Ti
0.874978 0.625011 -0.000014 F F F Ti
0.374936 0.124989 0.237790 F F F Ti
0.874540 0.124896 0.237643 F F F Ti
0.374988 0.124990 -0.000010 F F F Ti
0.874978 0.124991 -0.000015 F F F Ti
0.250013 0.374050 0.445403 T T T Al

0.000000 0.000000 0.000000
0.000000 0.000000 0.000000
0.000000 0.000000 0.000000
0.000000 0.000000 0.000000
0.000000 0.000000 0.000000
0.000000 0.000000 0.000000
0.000000 0.000000 0.000000
0.000000 0.000000 0.000000
0.000000 0.000000 0.000000
0.000000 0.000000 0.000000
0.000000 0.000000 0.000000
0.000000 0.000000 0.000000
0.000000 0.000000 0.000000
0.000000 0.000000 0.000000
0.000000 0.000000 0.000000
0.000000 0.000000 0.000000
0.000000 0.000000 0.000000
0.000000 0.000000 0.000000
0.000000 0.000000 0.000000
0.000000 0.000000 0.000000
0.000000 0.000000 0.000000
0.000000 0.000000 0.000000
0.000000 0.000000 0.000000
0.000000 0.000000 0.000000
0.000000 0.000000 0.000000
0.000000 0.000000 0.000000
0.000000 0.000000 0.000000
0.000000 0.000000 0.000000
0.000000 0.000000 0.000000
0.000000 0.000000 0.000000
0.000000 0.000000 0.000000
0.000000 0.000000 0.000000
0.000000 0.000000 0.000000
0.000000 0.000000 0.000000
0.000000 0.000000 0.000000
0.000000 0.000000 0.000000
0.000000 0.000000 0.000000
0.000000 0.000000 0.000000
0.000000 0.000000 0.000000
0.000000 0.000000 0.000000
0.000000 0.000000 0.000000
0.000000 0.000000 0.000000
0.000000 0.000000 0.000000
0.000000 0.000000 0.000000
0.000000 0.000000 0.000000
0.000000 0.000000 0.000000
0.000000 0.000000 0.000000
0.000000 0.000000 0.000000
0.000000 0.000000 0.000000
0.000000 0.000000 0.000000
0.000000 0.000000 0.000000
0.000000 0.000000 0.000000
0.000000 0.000000 0.000000
0.000000 0.000000 0.000000
0.000000 0.000000 0.000000
0.000000 0.000000 0.000000
0.000000 0.000000 0.000000
0.000000 0.000000 0.000000
0.000000 0.000000 0.000000
0.000000 0.000000 0.000000
0.000000 0.000000 0.000000
0.000000 0.000000 0.000000
0.000000 0.000000 0.000000
0.000000 0.000000 0.000000
0.000000 0.000000 0.000000
0.000000 0.000000 0.000000
0.000000 0.000000 0.000000
