Ti82 Sn1
1.0
6.391540 0.000000 0.000000
0.000000 9.587310 0.000000
0.000000 0.000000 23.271695
Ti Sn
82 1
Selective dynamics
direct
0.632175 0.082105 0.580377 F F F Ti
0.123754 0.082643 0.710483 F F F Ti
0.625001 0.083064 0.709735 F F F Ti
0.124917 0.083306 0.838595 F F F Ti
0.624826 0.083328 0.838541 F F F Ti
0.122867 0.420609 0.580325 F F F Ti
0.625179 0.417258 0.580436 F F F Ti
0.124805 0.416793 0.709591 F F F Ti
0.624023 0.417026 0.709692 F F F Ti
0.125003 0.416647 0.838502 F F F Ti
0.624817 0.416686 0.838521 F F F Ti
0.125192 0.750333 0.580627 F F F Ti
0.625671 0.749587 0.580487 F F F Ti
0.124935 0.749683 0.709716 F F F Ti
0.625520 0.749436 0.709810 F F F Ti
0.124956 0.749900 0.838552 F F F Ti
0.624949 0.749855 0.838581 F F F Ti
0.869520 0.252142 0.645885 F F F Ti
0.374795 0.249961 0.774050 F F F Ti
0.874509 0.250200 0.774202 F F F Ti
0.374957 0.250004 0.902938 F F F Ti
0.874925 0.250022 0.902955 F F F Ti
0.375087 0.583498 0.645112 F F F Ti
0.874549 0.583815 0.645225 F F F Ti
0.374804 0.583272 0.774100 F F F Ti
0.875022 0.583217 0.774132 F F F Ti
0.374938 0.583285 0.902950 F F F Ti
0.874997 0.583273 0.902956 F F F Ti
0.378482 0.913834 0.645778 F F F Ti
0.874782 0.915936 0.645438 F F F Ti
0.375202 0.916371 0.774207 F F F Ti
0.874597 0.916366 0.774209 F F F Ti
0.374978 0.916617 0.902960 F F F Ti
0.874913 0.916626 0.902957 F F F Ti
0.125159 0.166787 0.386607 F F F Ti
0.625642 0.166840 0.386524 F F F Ti
0.125084 0.666911 0.386717 F F F Ti
0.625023 0.666798 0.386654 F F F Ti
0.124989 0.166664 0.000050 F F F Ti
0.624968 0.166664 0.000051 F F F Ti
0.124984 0.666668 0.000048 F F F Ti
0.624969 0.666663 0.000051 F F F Ti
0.124997 0.833339 0.096713 F F F Ti
0.624983 0.833338 0.096711 F F F Ti
0.125408 0.833639 0.483426 F F F Ti
0.625667 0.833201 0.483326 F F F Ti
0.125000 0.333333 0.096711 F F F Ti
0.624980 0.333335 0.096707 F F F Ti
0.124997 0.334602 0.482985 F F F Ti
0.626042 0.333725 0.483245 F F F Ti
0.375385 0.583814 0.483280 F F F Ti
0.874822 0.583872 0.483254 F F F Ti
0.374998 0.583325 0.096707 F F F Ti
0.875021 0.583327 0.096707 F F F Ti
0.374989 0.083341 0.096713 F F F Ti
0.875014 0.083341 0.096710 F F F Ti
0.378229 0.083188 0.482529 F F F Ti
0.875865 0.083565 0.483179 F F F Ti
0.375271 0.416854 0.386607 F F F Ti
0.874967 0.416903 0.386587 F F F Ti
0.375189 0.916569 0.386581 F F F Ti
0.875138 0.916723 0.386683 F F F Ti
0.374967 0.416667 0.000049 F F F Ti
0.874978 0.416669 0.000054 F F F Ti
0.374977 0.916658 0.000066 F F F Ti
0.874971 0.916658 0.000065 F F F Ti
0.375049 0.083358 0.289986 F F F Ti
0.875050 0.083337 0.289993 F F F Ti
0.124992 0.166674 0.193356 F F F Ti
0.625007 0.166671 0.193347 F F F Ti
0.125014 0.333391 0.289997 F F F Ti
0.625040 0.333403 0.289969 F F F Ti
0.374983 0.416689 0.193350 F F F Ti
0.874993 0.416689 0.193349 F F F Ti
0.375012 0.583396 0.290002 F F F Ti
0.875057 0.583409 0.289996 F F F Ti
0.124995 0.666680 0.193361 F F F Ti
0.624989 0.666672 0.193354 F F F Ti
0.124983 0.833356 0.290013 F F F Ti
0.625077 0.833341 0.289994 F F F Ti
0.374987 0.916662 0.193356 F F F Ti
0.874989 0.916664 0.193356 F F F Ti
0.198939 0.135024 0.593530 T T T Sn

0.000000 0.000000 0.000000
0.000000 0.000000 0.000000
0.000000 0.000000 0.000000
0.000000 0.000000 0.000000
0.000000 0.000000 0.000000
0.000000 0.000000 0.000000
0.000000 0.000000 0.000000
0.000000 0.000000 0.000000
0.000000 0.000000 0.000000
0.000000 0.000000 0.000000
0.000000 0.000000 0.000000
0.000000 0.000000 0.000000
0.000000 0.000000 0.000000
0.000000 0.000000 0.000000
0.000000 0.000000 0.000000
0.000000 0.000000 0.000000
0.000000 0.000000 0.000000
0.000000 0.000000 0.000000
0.000000 0.000000 0.000000
0.000000 0.000000 0.000000
0.000000 0.000000 0.000000
0.000000 0.000000 0.000000
0.000000 0.000000 0.000000
0.000000 0.000000 0.000000
0.000000 0.000000 0.000000
0.000000 0.000000 0.000000
0.000000 0.000000 0.000000
0.000000 0.000000 0.000000
0.000000 0.000000 0.000000
0.000000 0.000000 0.000000
0.000000 0.000000 0.000000
0.000000 0.000000 0.000000
0.000000 0.000000 0.000000
0.000000 0.000000 0.000000
0.000000 0.000000 0.000000
0.000000 0.000000 0.000000
0.000000 0.000000 0.000000
0.000000 0.000000 0.000000
0.000000 0.000000 0.000000
0.000000 0.000000 0.000000
0.000000 0.000000 0.000000
0.000000 0.000000 0.000000
0.000000 0.000000 0.000000
0.000000 0.000000 0.000000
0.000000 0.000000 0.000000
0.000000 0.000000 0.000000
0.000000 0.000000 0.000000
0.000000 0.000000 0.000000
0.000000 0.000000 0.000000
0.000000 0.000000 0.000000
0.000000 0.000000 0.000000
0.000000 0.000000 0.000000
0.000000 0.000000 0.000000
0.000000 0.000000 0.000000
0.000000 0.000000 0.000000
0.000000 0.000000 0.000000
0.000000 0.000000 0.000000
0.000000 0.000000 0.000000
0.000000 0.000000 0.000000
0.000000 0.000000 0.000000
0.000000 0.000000 0.000000
0.000000 0.000000 0.000000
0.000000 0.000000 0.000000
0.000000 0.000000 0.000000
0.000000 0.000000 0.000000
0.000000 0.000000 0.000000
0.000000 0.000000 0.000000
0.000000 0.000000 0.000000
0.000000 0.000000 0.000000
0.000000 0.000000 0.000000
0.000000 0.000000 0.000000
0.000000 0.000000 0.000000
0.000000 0.000000 0.000000
0.000000 0.000000 0.000000
0.000000 0.000000 0.000000
0.000000 0.000000 0.000000
0.000000 0.000000 0.000000
0.000000 0.000000 0.000000
0.000000 0.000000 0.000000
0.000000 0.000000 0.000000
0.000000 0.000000 0.000000
0.000000 0.000000 0.000000
0.000000 0.000000 0.000000
