Ti66 Cr1
1.0
6.309760 0.000000 0.000000
0.000000 9.464640 0.000000
0.000000 0.000000 18.918326
Ti Cr
66 1
Selective dynamics
direct
0.627964 0.041663 0.499065 F F F Ti
0.630261 0.041495 0.658203 F F F Ti
0.125123 0.041480 0.816412 F F F Ti
0.625313 0.041511 0.816881 F F F Ti
0.125770 0.376124 0.499291 F F F Ti
0.625318 0.378622 0.498232 F F F Ti
0.125839 0.376173 0.658324 F F F Ti
0.625920 0.377202 0.659350 F F F Ti
0.125492 0.374615 0.817146 F F F Ti
0.625128 0.374878 0.817436 F F F Ti
0.125376 0.707193 0.499475 F F F Ti
0.624616 0.704489 0.498041 F F F Ti
0.125477 0.706148 0.658396 F F F Ti
0.625388 0.705480 0.659479 F F F Ti
0.125375 0.708242 0.817177 F F F Ti
0.625085 0.708044 0.817491 F F F Ti
0.389089 0.215248 0.577782 F F F Ti
0.859608 0.217932 0.577326 F F F Ti
0.376314 0.208415 0.737466 F F F Ti
0.874305 0.209314 0.737959 F F F Ti
0.374915 0.207915 0.896180 F F F Ti
0.875371 0.208001 0.896270 F F F Ti
0.375726 0.541199 0.579093 F F F Ti
0.875210 0.541036 0.579052 F F F Ti
0.374885 0.541299 0.738250 F F F Ti
0.875998 0.541114 0.738358 F F F Ti
0.374930 0.541511 0.896513 F F F Ti
0.875384 0.541477 0.896531 F F F Ti
0.389789 0.867522 0.577834 F F F Ti
0.857699 0.864316 0.577387 F F F Ti
0.376282 0.874422 0.737477 F F F Ti
0.874028 0.873440 0.737993 F F F Ti
0.374881 0.875146 0.896182 F F F Ti
0.875343 0.875087 0.896284 F F F Ti
0.124961 0.625102 0.356275 F F F Ti
0.625044 0.625012 0.355784 F F F Ti
0.124935 0.625133 0.118627 F F F Ti
0.624831 0.625104 0.118646 F F F Ti
0.125040 0.124878 0.356817 F F F Ti
0.625275 0.125012 0.356358 F F F Ti
0.125005 0.124907 0.118616 F F F Ti
0.624827 0.124922 0.118647 F F F Ti
0.124981 0.374841 0.039403 F F F Ti
0.624869 0.374853 0.039445 F F F Ti
0.124957 0.875098 0.039355 F F F Ti
0.624810 0.875084 0.039413 F F F Ti
0.124971 0.374888 0.277050 F F F Ti
0.625035 0.374870 0.276936 F F F Ti
0.125035 0.875136 0.277357 F F F Ti
0.624955 0.875103 0.277222 F F F Ti
0.374878 0.875090 0.158394 F F F Ti
0.875043 0.875092 0.158381 F F F Ti
0.374905 0.374909 0.158289 F F F Ti
0.875096 0.374908 0.158261 F F F Ti
0.374809 0.375006 0.395602 F F F Ti
0.875655 0.375189 0.395556 F F F Ti
0.374905 0.875125 0.396319 F F F Ti
0.875423 0.874781 0.396121 F F F Ti
0.374781 0.625091 0.237440 F F F Ti
0.875170 0.625075 0.237419 F F F Ti
0.374917 0.625100 -0.000080 F F F Ti
0.875008 0.625086 -0.000065 F F F Ti
0.374830 0.124925 0.237665 F F F Ti
0.875211 0.124920 0.237626 F F F Ti
0.374911 0.124883 -0.000258 F F F Ti
0.875034 0.124871 -0.000210 F F F Ti
0.111685 0.037075 0.619804 T T T Cr

0.000000 0.000000 0.000000
0.000000 0.000000 0.000000
0.000000 0.000000 0.000000
0.000000 0.000000 0.000000
0.000000 0.000000 0.000000
0.000000 0.000000 0.000000
0.000000 0.000000 0.000000
0.000000 0.000000 0.000000
0.000000 0.000000 0.000000
0.000000 0.000000 0.000000
0.000000 0.000000 0.000000
0.000000 0.000000 0.000000
0.000000 0.000000 0.000000
0.000000 0.000000 0.000000
0.000000 0.000000 0.000000
0.000000 0.000000 0.000000
0.000000 0.000000 0.000000
0.000000 0.000000 0.000000
0.000000 0.000000 0.000000
0.000000 0.000000 0.000000
0.000000 0.000000 0.000000
0.000000 0.000000 0.000000
0.000000 0.000000 0.000000
0.000000 0.000000 0.000000
0.000000 0.000000 0.000000
0.000000 0.000000 0.000000
0.000000 0.000000 0.000000
0.000000 0.000000 0.000000
0.000000 0.000000 0.000000
0.000000 0.000000 0.000000
0.000000 0.000000 0.000000
0.000000 0.000000 0.000000
0.000000 0.000000 0.000000
0.000000 0.000000 0.000000
0.000000 0.000000 0.000000
0.000000 0.000000 0.000000
0.000000 0.000000 0.000000
0.000000 0.000000 0.000000
0.000000 0.000000 0.000000
0.000000 0.000000 0.000000
0.000000 0.000000 0.000000
0.000000 0.000000 0.000000
0.000000 0.000000 0.000000
0.000000 0.000000 0.000000
0.000000 0.000000 0.000000
0.000000 0.000000 0.000000
0.000000 0.000000 0.000000
0.000000 0.000000 0.000000
0.000000 0.000000 0.000000
0.000000 0.000000 0.000000
0.000000 0.000000 0.000000
0.000000 0.000000 0.000000
0.000000 0.000000 0.000000
0.000000 0.000000 0.000000
0.000000 0.000000 0.000000
0.000000 0.000000 0.000000
0.000000 0.000000 0.000000
0.000000 0.000000 0.000000
0.000000 0.000000 0.000000
0.000000 0.000000 0.000000
0.000000 0.000000 0.000000
0.000000 0.000000 0.000000
0.000000 0.000000 0.000000
0.000000 0.000000 0.000000
0.000000 0.000000 0.000000
0.000000 0.000000 0.000000
0.000000 0.000000 0.000000
