Ti66 Nb1
1.0
6.309760 0.000000 0.000000
0.000000 9.464640 0.000000
0.000000 0.000000 18.918326
Ti Nb
66 1
Selective dynamics
direct
0.142263 0.017243 0.493887 T T T Ti
0.605271 0.013675 0.493285 T T T Ti
0.109432 0.053710 0.644735 T T T Ti
0.639866 0.052729 0.645397 T T T Ti
0.125414 0.040862 0.817358 F F F Ti
0.624991 0.040801 0.817422 F F F Ti
0.154300 0.387928 0.466148 T T T Ti
0.596415 0.397045 0.464071 T T T Ti
0.117857 0.357471 0.642678 T T T Ti
0.632316 0.358858 0.643816 T T T Ti
0.125519 0.373555 0.817263 F F F Ti
0.624913 0.373568 0.817376 F F F Ti
0.136798 0.703783 0.487945 T T T Ti
0.611226 0.704632 0.487907 T T T Ti
0.105700 0.688902 0.651751 T T T Ti
0.643923 0.689378 0.651978 T T T Ti
0.125773 0.707518 0.817640 F F F Ti
0.624697 0.707579 0.817653 F F F Ti
0.864660 0.214658 0.534803 T T T Ti
0.375026 0.205625 0.737776 F F F Ti
0.875240 0.206103 0.738273 F F F Ti
0.375233 0.207811 0.896371 F F F Ti
0.875137 0.207898 0.896466 F F F Ti
0.374932 0.526734 0.567570 T T T Ti
0.873133 0.518795 0.552464 T T T Ti
0.375153 0.539574 0.738506 F F F Ti
0.875539 0.539375 0.738797 F F F Ti
0.375218 0.540956 0.896500 F F F Ti
0.875096 0.541014 0.896550 F F F Ti
0.374457 0.857982 0.583232 T T T Ti
0.874239 0.860587 0.565339 T T T Ti
0.374844 0.874487 0.737934 F F F Ti
0.875410 0.874017 0.738935 F F F Ti
0.375148 0.874985 0.896567 F F F Ti
0.875115 0.874902 0.896722 F F F Ti
0.134047 0.635727 0.360132 T T T Ti
0.614895 0.636805 0.359725 T T T Ti
0.125567 0.627551 0.118043 F F F Ti
0.624227 0.627552 0.118046 F F F Ti
0.129237 0.144829 0.370436 T T T Ti
0.619817 0.144963 0.369944 T T T Ti
0.125247 0.127402 0.118643 F F F Ti
0.624341 0.127457 0.118615 F F F Ti
0.125134 0.376047 0.039189 F F F Ti
0.624736 0.376092 0.039220 F F F Ti
0.125157 0.876569 0.039385 F F F Ti
0.624548 0.876550 0.039384 F F F Ti
0.146753 0.386447 0.282349 T T T Ti
0.602761 0.386836 0.282064 T T T Ti
0.103222 0.892897 0.278647 T T T Ti
0.645627 0.892881 0.278492 T T T Ti
0.375012 0.878741 0.158115 F F F Ti
0.874922 0.878705 0.157868 F F F Ti
0.374903 0.377764 0.157781 F F F Ti
0.875279 0.377891 0.157569 F F F Ti
0.875379 0.407416 0.390639 T T T Ti
0.373714 0.879110 0.388695 T T T Ti
0.873561 0.883935 0.406654 T T T Ti
0.374585 0.641748 0.243320 T T T Ti
0.874832 0.625870 0.244721 T T T Ti
0.374984 0.625880 -0.000382 F F F Ti
0.874800 0.625921 -0.000305 F F F Ti
0.374244 0.125821 0.247185 T T T Ti
0.873940 0.146631 0.249143 T T T Ti
0.375000 0.125787 -0.000117 F F F Ti
0.874746 0.125762 -0.000036 F F F Ti
0.399527 0.224492 0.509293 T T T Nb

0.000000 0.000000 0.000000
0.000000 0.000000 0.000000
0.000000 0.000000 0.000000
0.000000 0.000000 0.000000
0.000000 0.000000 0.000000
0.000000 0.000000 0.000000
0.000000 0.000000 0.000000
0.000000 0.000000 0.000000
0.000000 0.000000 0.000000
0.000000 0.000000 0.000000
0.000000 0.000000 0.000000
0.000000 0.000000 0.000000
0.000000 0.000000 0.000000
0.000000 0.000000 0.000000
0.000000 0.000000 0.000000
0.000000 0.000000 0.000000
0.000000 0.000000 0.000000
0.000000 0.000000 0.000000
0.000000 0.000000 0.000000
0.000000 0.000000 0.000000
0.000000 0.000000 0.000000
0.000000 0.000000 0.000000
0.000000 0.000000 0.000000
0.000000 0.000000 0.000000
0.000000 0.000000 0.000000
0.000000 0.000000 0.000000
0.000000 0.000000 0.000000
0.000000 0.000000 0.000000
0.000000 0.000000 0.000000
0.000000 0.000000 0.000000
0.000000 0.000000 0.000000
0.000000 0.000000 0.000000
0.000000 0.000000 0.000000
0.000000 0.000000 0.000000
0.000000 0.000000 0.000000
0.000000 0.000000 0.000000
0.000000 0.000000 0.000000
0.000000 0.000000 0.000000
0.000000 0.000000 0.000000
0.000000 0.000000 0.000000
0.000000 0.000000 0.000000
0.000000 0.000000 0.000000
0.000000 0.000000 0.000000
0.000000 0.000000 0.000000
0.000000 0.000000 0.000000
0.000000 0.000000 0.000000
0.000000 0.000000 0.000000
0.000000 0.000000 0.000000
0.000000 0.000000 0.000000
0.000000 0.000000 0.000000
0.000000 0.000000 0.000000
0.000000 0.000000 0.000000
0.000000 0.000000 0.000000
0.000000 0.000000 0.000000
0.000000 0.000000 0.000000
0.000000 0.000000 0.000000
0.000000 0.000000 0.000000
0.000000 0.000000 0.000000
0.000000 0.000000 0.000000
0.000000 0.000000 0.000000
0.000000 0.000000 0.000000
0.000000 0.000000 0.000000
0.000000 0.000000 0.000000
0.000000 0.000000 0.000000
0.000000 0.000000 0.000000
0.000000 0.000000 0.000000
0.000000 0.000000 0.000000
