Ti66 Sn1
1.0
6.309760 0.000000 0.000000
0.000000 9.464640 0.000000
0.000000 0.000000 18.918326
Ti Sn
66 1
Selective dynamics
direct
0.125000 0.077700 0.444034 T T T Ti
0.625000 0.071728 0.479270 T T T Ti
0.125000 0.041293 0.662220 T T T Ti
0.625000 0.042969 0.644550 F F F Ti
0.125000 0.041667 0.817153 F F F Ti
0.625000 0.041667 0.817153 T T T Ti
0.625000 0.371654 0.475804 T T T Ti
0.125000 0.387590 0.652980 T T T Ti
0.625000 0.354675 0.649733 T T T Ti
0.125000 0.375000 0.817153 F F F Ti
0.625000 0.375000 0.817153 F F F Ti
0.125000 0.719782 0.489401 T T T Ti
0.625000 0.737746 0.500358 T T T Ti
0.125000 0.714561 0.643617 T T T Ti
0.625000 0.731767 0.650191 T T T Ti
0.125000 0.708333 0.817153 F F F Ti
0.625000 0.708333 0.817153 F F F Ti
0.357163 0.204434 0.563353 T T T Ti
0.892837 0.204434 0.563353 T T T Ti
0.375000 0.208333 0.737865 F F F Ti
0.875000 0.208333 0.737865 F F F Ti
0.375000 0.208333 0.896441 F F F Ti
0.875000 0.208333 0.896441 F F F Ti
0.407102 0.542892 0.573241 T T T Ti
0.842898 0.542892 0.573241 T T T Ti
0.375000 0.541667 0.737865 F F F Ti
0.875000 0.541667 0.737865 F F F Ti
0.375000 0.541667 0.896441 F F F Ti
0.875000 0.541667 0.896441 F F F Ti
0.340560 0.915362 0.556264 T T T Ti
0.909440 0.915362 0.556264 T T T Ti
0.375000 0.875000 0.737865 F F F Ti
0.875000 0.875000 0.737865 F F F Ti
0.375000 0.875000 0.896441 F F F Ti
0.875000 0.875000 0.896441 F F F Ti
0.125000 0.596410 0.368455 T T T Ti
0.625000 0.600607 0.373832 T T T Ti
0.125000 0.625000 0.118932 F F F Ti
0.625000 0.625000 0.118932 F F F Ti
0.625000 0.081106 0.349671 T T T Ti
0.125000 0.125000 0.118932 F F F Ti
0.625000 0.125000 0.118932 F F F Ti
0.125000 0.375000 0.039644 F F F Ti
0.625000 0.375000 0.039644 F F F Ti
0.125000 0.875000 0.039644 F F F Ti
0.625000 0.875000 0.039644 F F F Ti
0.125000 0.400980 0.265270 T T T Ti
0.625000 0.378155 0.277930 T T T Ti
0.125000 0.878958 0.286355 T T T Ti
0.625000 0.859973 0.271551 T T T Ti
0.375000 0.875000 0.158576 F F F Ti
0.875000 0.875000 0.158576 F F F Ti
0.374999 0.375000 0.158576 F F F Ti
0.874999 0.375000 0.158576 F F F Ti
0.345635 0.291630 0.371094 T T T Ti
0.904365 0.291630 0.371094 T T T Ti
0.398907 0.857558 0.396962 T T T Ti
0.851093 0.857558 0.396962 T T T Ti
0.379549 0.629288 0.247769 T T T Ti
0.870451 0.629288 0.247769 T T T Ti
0.375000 0.625000 0.000000 F F F Ti
0.875000 0.625000 0.000000 F F F Ti
0.358166 0.128344 0.246504 T T T Ti
0.891834 0.128344 0.246504 T T T Ti
0.375000 0.125000 0.000000 F F F Ti
0.875000 0.125000 0.000000 F F F Ti
0.125000 0.401449 0.484846 T T T Sn
