beta_Ti
1.0
4.756512 0.000000 0.000000
0.000000 4.675432 0.000000
0.000000 0.000000 19.811800
Ti
12
direct
0.666667 0.750000 0.883910 Ti
0.166667 0.250000 0.883910 Ti
0.166667 0.750000 0.803077 Ti
0.666667 0.250000 0.803077 Ti
0.666667 0.750000 0.722244 Ti
0.166667 0.250000 0.722244 Ti
0.166667 0.750000 0.641411 Ti
0.666667 0.250000 0.641411 Ti
0.666667 0.750000 0.560577 Ti
0.166667 0.250000 0.560577 Ti
0.166667 0.750000 0.479744 Ti
0.666667 0.250000 0.479744 Ti
