Ti66 Sn1
1.0
6.309760 0.000000 0.000000
0.000000 9.464640 0.000000
0.000000 0.000000 18.918326
Ti Sn
66 1
Selective dynamics
direct
0.638469 0.038609 0.499187 F F F Ti
0.122228 0.040235 0.660135 F F F Ti
0.625115 0.041012 0.658950 F F F Ti
0.124830 0.041599 0.817440 F F F Ti
0.624656 0.041633 0.817366 F F F Ti
0.119989 0.382542 0.499170 F F F Ti
0.626020 0.376381 0.499647 F F F Ti
0.124173 0.375221 0.658724 F F F Ti
0.623708 0.375278 0.658843 F F F Ti
0.124970 0.374896 0.817283 F F F Ti
0.624670 0.374935 0.817319 F F F Ti
0.125110 0.709117 0.500099 F F F Ti
0.625651 0.707791 0.499860 F F F Ti
0.124855 0.707874 0.658967 F F F Ti
0.625386 0.707699 0.659086 F F F Ti
0.124942 0.708146 0.817412 F F F Ti
0.624801 0.708096 0.817462 F F F Ti
0.867890 0.210452 0.580313 F F F Ti
0.374586 0.208143 0.737863 F F F Ti
0.874194 0.208490 0.738226 F F F Ti
0.374947 0.208317 0.896515 F F F Ti
0.874856 0.208346 0.896572 F F F Ti
0.375060 0.541870 0.579443 F F F Ti
0.873734 0.542601 0.579715 F F F Ti
0.374762 0.541459 0.738083 F F F Ti
0.874832 0.541474 0.738194 F F F Ti
0.374937 0.541518 0.896572 F F F Ti
0.874932 0.541520 0.896593 F F F Ti
0.378411 0.871443 0.580175 F F F Ti
0.875488 0.874036 0.579865 F F F Ti
0.375110 0.874629 0.738235 F F F Ti
0.874261 0.874457 0.738353 F F F Ti
0.374975 0.874937 0.896605 F F F Ti
0.874851 0.874931 0.896633 F F F Ti
0.125130 0.624855 0.356810 F F F Ti
0.624716 0.624964 0.356695 F F F Ti
0.125039 0.624983 0.118950 F F F Ti
0.624982 0.624987 0.118943 F F F Ti
0.125092 0.125296 0.356380 F F F Ti
0.626416 0.124958 0.356352 F F F Ti
0.125060 0.124968 0.118905 F F F Ti
0.625009 0.124962 0.118887 F F F Ti
0.125013 0.374953 0.039698 F F F Ti
0.624917 0.374963 0.039691 F F F Ti
0.125010 0.874993 0.039734 F F F Ti
0.624918 0.874982 0.039728 F F F Ti
0.124928 0.375099 0.277285 F F F Ti
0.625040 0.375079 0.277189 F F F Ti
0.125260 0.874972 0.277463 F F F Ti
0.625333 0.874859 0.277379 F F F Ti
0.375043 0.874949 0.158565 F F F Ti
0.875068 0.874930 0.158551 F F F Ti
0.375014 0.375001 0.158490 F F F Ti
0.875032 0.375021 0.158465 F F F Ti
0.375381 0.376165 0.395956 F F F Ti
0.873677 0.375521 0.395840 F F F Ti
0.375965 0.874706 0.396290 F F F Ti
0.876421 0.874498 0.396180 F F F Ti
0.374972 0.624941 0.237841 F F F Ti
0.875124 0.624943 0.237837 F F F Ti
0.374974 0.624944 0.000062 F F F Ti
0.874991 0.624951 0.000077 F F F Ti
0.375185 0.124979 0.237750 F F F Ti
0.875141 0.124961 0.237667 F F F Ti
0.375000 0.124971 0.000037 F F F Ti
0.874974 0.124958 0.000063 F F F Ti
0.256401 0.129875 0.531435 T T T Sn

0.000000 0.000000 0.000000
0.000000 0.000000 0.000000
0.000000 0.000000 0.000000
0.000000 0.000000 0.000000
0.000000 0.000000 0.000000
0.000000 0.000000 0.000000
0.000000 0.000000 0.000000
0.000000 0.000000 0.000000
0.000000 0.000000 0.000000
0.000000 0.000000 0.000000
0.000000 0.000000 0.000000
0.000000 0.000000 0.000000
0.000000 0.000000 0.000000
0.000000 0.000000 0.000000
0.000000 0.000000 0.000000
0.000000 0.000000 0.000000
0.000000 0.000000 0.000000
0.000000 0.000000 0.000000
0.000000 0.000000 0.000000
0.000000 0.000000 0.000000
0.000000 0.000000 0.000000
0.000000 0.000000 0.000000
0.000000 0.000000 0.000000
0.000000 0.000000 0.000000
0.000000 0.000000 0.000000
0.000000 0.000000 0.000000
0.000000 0.000000 0.000000
0.000000 0.000000 0.000000
0.000000 0.000000 0.000000
0.000000 0.000000 0.000000
0.000000 0.000000 0.000000
0.000000 0.000000 0.000000
0.000000 0.000000 0.000000
0.000000 0.000000 0.000000
0.000000 0.000000 0.000000
0.000000 0.000000 0.000000
0.000000 0.000000 0.000000
0.000000 0.000000 0.000000
0.000000 0.000000 0.000000
0.000000 0.000000 0.000000
0.000000 0.000000 0.000000
0.000000 0.000000 0.000000
0.000000 0.000000 0.000000
0.000000 0.000000 0.000000
0.000000 0.000000 0.000000
0.000000 0.000000 0.000000
0.000000 0.000000 0.000000
0.000000 0.000000 0.000000
0.000000 0.000000 0.000000
0.000000 0.000000 0.000000
0.000000 0.000000 0.000000
0.000000 0.000000 0.000000
0.000000 0.000000 0.000000
0.000000 0.000000 0.000000
0.000000 0.000000 0.000000
0.000000 0.000000 0.000000
0.000000 0.000000 0.000000
0.000000 0.000000 0.000000
0.000000 0.000000 0.000000
0.000000 0.000000 0.000000
0.000000 0.000000 0.000000
0.000000 0.000000 0.000000
0.000000 0.000000 0.000000
0.000000 0.000000 0.000000
0.000000 0.000000 0.000000
0.000000 0.000000 0.000000
0.000000 0.000000 0.000000
