Ti96 Mo1
1.0
9.513020 0.000000 0.000000
0.000000 9.350860 0.000000
0.000000 0.000000 18.547230
Ti Mo
96 1
Selective dynamics
direct
0.143222 0.379780 0.400432 T T T Ti
0.650370 0.367427 0.395521 T T T Ti
0.166661 0.885047 0.399340 T T T Ti
0.649851 0.913594 0.400241 T T T Ti
0.163869 0.377959 0.235966 T T T Ti
0.660207 0.381270 0.235114 T T T Ti
0.157238 0.875439 0.235800 T T T Ti
0.659944 0.873820 0.234388 T T T Ti
0.166658 0.374998 0.077675 F F F Ti
0.666668 0.375000 0.077690 F F F Ti
0.166676 0.875004 0.077681 F F F Ti
0.666675 0.875001 0.077700 F F F Ti
0.406880 0.375112 0.318119 T T T Ti
0.911794 0.368942 0.309854 T T T Ti
0.407920 0.870924 0.316779 T T T Ti
0.901059 0.861593 0.327477 T T T Ti
0.416658 0.375007 0.155312 F F F Ti
0.916661 0.375017 0.155329 F F F Ti
0.416695 0.874993 0.155331 F F F Ti
0.916707 0.875041 0.155348 F F F Ti
0.416678 0.375022 -0.000012 F F F Ti
0.916653 0.375020 -0.000007 F F F Ti
0.416688 0.874993 -0.000014 F F F Ti
0.916652 0.874996 -0.000011 F F F Ti
0.093120 0.124888 0.318118 T T T Ti
0.588206 0.131058 0.309853 T T T Ti
0.092080 0.629076 0.316778 T T T Ti
0.598941 0.638407 0.327476 T T T Ti
0.083343 0.124998 0.155312 F F F Ti
0.583339 0.124987 0.155330 F F F Ti
0.083305 0.625012 0.155331 F F F Ti
0.583294 0.624962 0.155348 F F F Ti
0.083323 0.124983 -0.000012 F F F Ti
0.583347 0.124985 -0.000007 F F F Ti
0.083312 0.625013 -0.000015 F F F Ti
0.583349 0.625010 -0.000011 F F F Ti
0.356777 0.120220 0.400432 T T T Ti
0.849629 0.132573 0.395521 T T T Ti
0.333338 0.614953 0.399340 T T T Ti
0.850148 0.586406 0.400241 T T T Ti
0.336130 0.122042 0.235966 T T T Ti
0.839792 0.118731 0.235114 T T T Ti
0.342761 0.624562 0.235800 T T T Ti
0.840055 0.626181 0.234388 T T T Ti
0.333341 0.125007 0.077675 F F F Ti
0.833331 0.125003 0.077690 F F F Ti
0.333322 0.625000 0.077681 F F F Ti
0.833324 0.625003 0.077699 F F F Ti
0.374951 0.375030 0.823819 F F F Ti
0.875024 0.374964 0.823817 F F F Ti
0.375009 0.874992 0.823818 F F F Ti
0.874960 0.874952 0.823792 F F F Ti
0.125051 0.124969 0.823819 F F F Ti
0.624979 0.125033 0.823817 F F F Ti
0.124993 0.625007 0.823817 F F F Ti
0.625044 0.625045 0.823792 F F F Ti
0.124997 0.374979 0.910128 F F F Ti
0.625019 0.375015 0.910129 F F F Ti
0.125010 0.874996 0.910125 F F F Ti
0.625016 0.874988 0.910121 F F F Ti
0.375007 0.125022 0.910127 F F F Ti
0.874984 0.124985 0.910128 F F F Ti
0.374993 0.625003 0.910125 F F F Ti
0.874986 0.625014 0.910119 F F F Ti
0.390063 0.369861 0.645972 T T T Ti
0.887750 0.359928 0.664781 T T T Ti
0.381150 0.861882 0.664201 T T T Ti
0.894429 0.863944 0.647427 T T T Ti
0.109936 0.130137 0.645973 T T T Ti
0.612249 0.140068 0.664781 T T T Ti
0.118849 0.638116 0.664201 T T T Ti
0.605570 0.636055 0.647427 T T T Ti
0.136575 0.392344 0.574063 T T T Ti
0.653045 0.380214 0.576987 T T T Ti
0.159627 0.878607 0.569890 T T T Ti
0.615688 0.912722 0.579723 T T T Ti
0.363425 0.107655 0.574063 T T T Ti
0.846955 0.119785 0.576987 T T T Ti
0.340373 0.621392 0.569890 T T T Ti
0.884312 0.587278 0.579723 T T T Ti
0.380009 0.360538 0.488692 T T T Ti
0.899269 0.348479 0.489767 T T T Ti
0.410008 0.852955 0.481171 T T T Ti
-0.069615 -0.083862 0.482753 T T T Ti
0.119991 0.139462 0.488692 T T T Ti
0.600731 0.151521 0.489767 T T T Ti
0.089992 0.647045 0.481171 T T T Ti
0.569614 0.583861 0.482753 T T T Ti
0.125137 0.875102 0.737569 F F F Ti
0.625027 0.875021 0.737577 F F F Ti
0.374859 0.624887 0.737572 F F F Ti
0.874967 0.624968 0.737577 F F F Ti
0.125147 0.374810 0.737554 F F F Ti
0.624980 0.375312 0.737613 F F F Ti
0.374850 0.125182 0.737553 F F F Ti
0.875014 0.124675 0.737617 F F F Ti
0.750000 0.750000 0.505170 T T T Mo

0.000000 0.000000 0.000000
0.000000 0.000000 0.000000
0.000000 0.000000 0.000000
0.000000 0.000000 0.000000
0.000000 0.000000 0.000000
0.000000 0.000000 0.000000
0.000000 0.000000 0.000000
0.000000 0.000000 0.000000
0.000000 0.000000 0.000000
0.000000 0.000000 0.000000
0.000000 0.000000 0.000000
0.000000 0.000000 0.000000
0.000000 0.000000 0.000000
0.000000 0.000000 0.000000
0.000000 0.000000 0.000000
0.000000 0.000000 0.000000
0.000000 0.000000 0.000000
0.000000 0.000000 0.000000
0.000000 0.000000 0.000000
0.000000 0.000000 0.000000
0.000000 0.000000 0.000000
0.000000 0.000000 0.000000
0.000000 0.000000 0.000000
0.000000 0.000000 0.000000
0.000000 0.000000 0.000000
0.000000 0.000000 0.000000
0.000000 0.000000 0.000000
0.000000 0.000000 0.000000
0.000000 0.000000 0.000000
0.000000 0.000000 0.000000
0.000000 0.000000 0.000000
0.000000 0.000000 0.000000
0.000000 0.000000 0.000000
0.000000 0.000000 0.000000
0.000000 0.000000 0.000000
0.000000 0.000000 0.000000
0.000000 0.000000 0.000000
0.000000 0.000000 0.000000
0.000000 0.000000 0.000000
0.000000 0.000000 0.000000
0.000000 0.000000 0.000000
0.000000 0.000000 0.000000
0.000000 0.000000 0.000000
0.000000 0.000000 0.000000
0.000000 0.000000 0.000000
0.000000 0.000000 0.000000
0.000000 0.000000 0.000000
0.000000 0.000000 0.000000
0.000000 0.000000 0.000000
0.000000 0.000000 0.000000
0.000000 0.000000 0.000000
0.000000 0.000000 0.000000
0.000000 0.000000 0.000000
0.000000 0.000000 0.000000
0.000000 0.000000 0.000000
0.000000 0.000000 0.000000
0.000000 0.000000 0.000000
0.000000 0.000000 0.000000
0.000000 0.000000 0.000000
0.000000 0.000000 0.000000
0.000000 0.000000 0.000000
0.000000 0.000000 0.000000
0.000000 0.000000 0.000000
0.000000 0.000000 0.000000
0.000000 0.000000 0.000000
0.000000 0.000000 0.000000
0.000000 0.000000 0.000000
0.000000 0.000000 0.000000
0.000000 0.000000 0.000000
0.000000 0.000000 0.000000
0.000000 0.000000 0.000000
0.000000 0.000000 0.000000
0.000000 0.000000 0.000000
0.000000 0.000000 0.000000
0.000000 0.000000 0.000000
0.000000 0.000000 0.000000
0.000000 0.000000 0.000000
0.000000 0.000000 0.000000
0.000000 0.000000 0.000000
0.000000 0.000000 0.000000
0.000000 0.000000 0.000000
0.000000 0.000000 0.000000
0.000000 0.000000 0.000000
0.000000 0.000000 0.000000
0.000000 0.000000 0.000000
0.000000 0.000000 0.000000
0.000000 0.000000 0.000000
0.000000 0.000000 0.000000
0.000000 0.000000 0.000000
0.000000 0.000000 0.000000
0.000000 0.000000 0.000000
0.000000 0.000000 0.000000
0.000000 0.000000 0.000000
0.000000 0.000000 0.000000
0.000000 0.000000 0.000000
0.000000 0.000000 0.000000
0.000000 0.000000 0.000000
