total_Ti
1.0
5.745590 0.000000 0.000000
0.000000 9.072750 0.000000
0.000000 0.000000 30.667173
Ti
64
direct
0.041667 0.875000 0.304334 Ti
0.041667 0.375000 0.304334 Ti
0.541667 0.875000 0.304334 Ti
0.541667 0.375000 0.304334 Ti
0.291667 0.625000 0.332001 Ti
0.291667 0.125000 0.332001 Ti
0.791667 0.625000 0.332001 Ti
0.791667 0.125000 0.332001 Ti
0.291667 0.875000 0.221333 Ti
0.291667 0.375000 0.221333 Ti
0.791667 0.875000 0.221333 Ti
0.791667 0.375000 0.221333 Ti
0.041667 0.625000 0.249001 Ti
0.041667 0.125000 0.249001 Ti
0.541667 0.625000 0.249001 Ti
0.541667 0.125000 0.249001 Ti
0.041667 0.875000 0.138334 Ti
0.041667 0.375000 0.138334 Ti
0.541667 0.875000 0.138334 Ti
0.541667 0.375000 0.138334 Ti
0.291667 0.625000 0.166000 Ti
0.291667 0.125000 0.166000 Ti
0.791667 0.625000 0.166000 Ti
0.791667 0.125000 0.166000 Ti
0.291667 0.875000 0.055333 Ti
0.291667 0.375000 0.055333 Ti
0.791667 0.875000 0.055333 Ti
0.791667 0.375000 0.055333 Ti
0.041667 0.625000 0.083001 Ti
0.041667 0.125000 0.083001 Ti
0.541667 0.625000 0.083001 Ti
0.541667 0.125000 0.083001 Ti
0.458333 0.625000 0.587240 Ti
0.458333 0.125000 0.587240 Ti
0.958333 0.625000 0.587240 Ti
0.958333 0.125000 0.587240 Ti
0.125000 0.625000 0.673809 Ti
0.125000 0.125000 0.673809 Ti
0.625000 0.625000 0.673809 Ti
0.625000 0.125000 0.673809 Ti
0.291667 0.625000 0.760378 Ti
0.291667 0.125000 0.760378 Ti
0.791667 0.625000 0.760378 Ti
0.791667 0.125000 0.760378 Ti
0.125000 0.875000 0.543954 Ti
0.125000 0.375000 0.543954 Ti
0.625000 0.875000 0.543954 Ti
0.625000 0.375000 0.543954 Ti
0.291667 0.875000 0.630524 Ti
0.291667 0.375000 0.630524 Ti
0.791667 0.875000 0.630524 Ti
0.791667 0.375000 0.630524 Ti
0.458333 0.875000 0.717094 Ti
0.458333 0.375000 0.717094 Ti
0.958333 0.875000 0.717094 Ti
0.958333 0.375000 0.717094 Ti
0.125000 0.875000 0.803663 Ti
0.125000 0.375000 0.803663 Ti
0.625000 0.875000 0.803663 Ti
0.625000 0.375000 0.803663 Ti
0.791667 0.125000 0.000000 Ti
0.291667 0.125000 0.000000 Ti
0.791667 0.625000 -0.000000 Ti
0.291667 0.625000 -0.000000 Ti
