Ti36
1.0
8.805261 0.000000 0.000000
-4.402630 7.625580 0.000000
0.000000 0.000000 31.288801
Ti
36
direct
0.967272 0.027818 0.491931 Ti
0.967272 0.527818 0.491931 Ti
0.467272 0.027818 0.491931 Ti
0.467272 0.527818 0.491931 Ti
0.133938 0.361151 0.698786 Ti
0.133938 0.861151 0.698786 Ti
0.633938 0.361151 0.698786 Ti
0.633938 0.861151 0.698786 Ti
0.300605 0.194485 0.728337 Ti
0.300605 0.694485 0.728337 Ti
0.800605 0.194485 0.728337 Ti
0.800605 0.694485 0.728337 Ti
0.133938 0.361151 0.521482 Ti
0.133938 0.861151 0.521482 Ti
0.633938 0.361151 0.521482 Ti
0.633938 0.861151 0.521482 Ti
0.300605 0.194485 0.551032 Ti
0.300605 0.694485 0.551032 Ti
0.800605 0.194485 0.551032 Ti
0.800605 0.694485 0.551032 Ti
0.967272 0.027818 0.580583 Ti
0.967272 0.527818 0.580583 Ti
0.467272 0.027818 0.580583 Ti
0.467272 0.527818 0.580583 Ti
0.133938 0.361151 0.610134 Ti
0.133938 0.861151 0.610134 Ti
0.633938 0.361151 0.610134 Ti
0.633938 0.861151 0.610134 Ti
0.300605 0.194485 0.639685 Ti
0.300605 0.694485 0.639685 Ti
0.800605 0.194485 0.639685 Ti
0.800605 0.694485 0.639685 Ti
0.967272 0.027818 0.669235 Ti
0.967272 0.527818 0.669235 Ti
0.467272 0.027818 0.669235 Ti
0.467272 0.527818 0.669235 Ti
