Ti66 Al1
1.0
6.309760 0.000000 0.000000
0.000000 9.464640 0.000000
0.000000 0.000000 18.918326
Ti Al
66 1
Selective dynamics
direct
0.125608 0.031612 0.501615 F F F Ti
0.627376 0.039481 0.499888 F F F Ti
0.125611 0.039055 0.659034 F F F Ti
0.625077 0.038796 0.659201 F F F Ti
0.125164 0.040772 0.817207 F F F Ti
0.625060 0.040766 0.817261 F F F Ti
0.631312 0.373388 0.500082 F F F Ti
0.125261 0.372842 0.658416 F F F Ti
0.625665 0.373754 0.658817 F F F Ti
0.125231 0.374248 0.817049 F F F Ti
0.625211 0.374329 0.817145 F F F Ti
0.125009 0.702495 0.499434 F F F Ti
0.623805 0.706520 0.499696 F F F Ti
0.125394 0.705693 0.658378 F F F Ti
0.624514 0.706123 0.658680 F F F Ti
0.125121 0.707384 0.817082 F F F Ti
0.624999 0.707409 0.817137 F F F Ti
0.379911 0.204477 0.580289 F F F Ti
0.870334 0.203329 0.581353 F F F Ti
0.375380 0.207131 0.737990 F F F Ti
0.875146 0.207032 0.738163 F F F Ti
0.375101 0.207897 0.896271 F F F Ti
0.875141 0.207885 0.896295 F F F Ti
0.375874 0.538747 0.578947 F F F Ti
0.874332 0.540025 0.579463 F F F Ti
0.374995 0.540258 0.737799 F F F Ti
0.875388 0.540408 0.737894 F F F Ti
0.375051 0.541135 0.896247 F F F Ti
0.875143 0.541154 0.896254 F F F Ti
0.376392 0.871490 0.579610 F F F Ti
0.874154 0.871000 0.579741 F F F Ti
0.375066 0.873311 0.738060 F F F Ti
0.875203 0.873233 0.738064 F F F Ti
0.375066 0.874531 0.896343 F F F Ti
0.875055 0.874526 0.896343 F F F Ti
0.125704 0.626310 0.355495 F F F Ti
0.624709 0.629954 0.355173 F F F Ti
0.125269 0.625614 0.118254 F F F Ti
0.625074 0.625628 0.118162 F F F Ti
0.627774 0.124319 0.356221 F F F Ti
0.125455 0.125190 0.118592 F F F Ti
0.625107 0.125175 0.118528 F F F Ti
0.125286 0.375015 0.039049 F F F Ti
0.625084 0.375003 0.039084 F F F Ti
0.125041 0.875251 0.039317 F F F Ti
0.624959 0.875285 0.039302 F F F Ti
0.125706 0.376146 0.276615 F F F Ti
0.624442 0.375903 0.274130 F F F Ti
0.125021 0.876198 0.277209 F F F Ti
0.625208 0.876727 0.276879 F F F Ti
0.375052 0.875754 0.158153 F F F Ti
0.875246 0.875734 0.158091 F F F Ti
0.374378 0.375369 0.157585 F F F Ti
0.876257 0.375414 0.157459 F F F Ti
0.395340 0.380722 0.392202 F F F Ti
0.849386 0.383467 0.390019 F F F Ti
0.374871 0.875382 0.396269 F F F Ti
0.875757 0.874438 0.396265 F F F Ti
0.375194 0.626398 0.236782 F F F Ti
0.875347 0.626474 0.236698 F F F Ti
0.375046 0.625120 -0.000376 F F F Ti
0.875066 0.625131 -0.000374 F F F Ti
0.374790 0.125625 0.237670 F F F Ti
0.876017 0.125595 0.237376 F F F Ti
0.375036 0.124840 -0.000225 F F F Ti
0.875122 0.124843 -0.000202 F F F Ti
0.109105 0.313439 0.470770 T T T Al

0.000000 0.000000 0.000000
0.000000 0.000000 0.000000
0.000000 0.000000 0.000000
0.000000 0.000000 0.000000
0.000000 0.000000 0.000000
0.000000 0.000000 0.000000
0.000000 0.000000 0.000000
0.000000 0.000000 0.000000
0.000000 0.000000 0.000000
0.000000 0.000000 0.000000
0.000000 0.000000 0.000000
0.000000 0.000000 0.000000
0.000000 0.000000 0.000000
0.000000 0.000000 0.000000
0.000000 0.000000 0.000000
0.000000 0.000000 0.000000
0.000000 0.000000 0.000000
0.000000 0.000000 0.000000
0.000000 0.000000 0.000000
0.000000 0.000000 0.000000
0.000000 0.000000 0.000000
0.000000 0.000000 0.000000
0.000000 0.000000 0.000000
0.000000 0.000000 0.000000
0.000000 0.000000 0.000000
0.000000 0.000000 0.000000
0.000000 0.000000 0.000000
0.000000 0.000000 0.000000
0.000000 0.000000 0.000000
0.000000 0.000000 0.000000
0.000000 0.000000 0.000000
0.000000 0.000000 0.000000
0.000000 0.000000 0.000000
0.000000 0.000000 0.000000
0.000000 0.000000 0.000000
0.000000 0.000000 0.000000
0.000000 0.000000 0.000000
0.000000 0.000000 0.000000
0.000000 0.000000 0.000000
0.000000 0.000000 0.000000
0.000000 0.000000 0.000000
0.000000 0.000000 0.000000
0.000000 0.000000 0.000000
0.000000 0.000000 0.000000
0.000000 0.000000 0.000000
0.000000 0.000000 0.000000
0.000000 0.000000 0.000000
0.000000 0.000000 0.000000
0.000000 0.000000 0.000000
0.000000 0.000000 0.000000
0.000000 0.000000 0.000000
0.000000 0.000000 0.000000
0.000000 0.000000 0.000000
0.000000 0.000000 0.000000
0.000000 0.000000 0.000000
0.000000 0.000000 0.000000
0.000000 0.000000 0.000000
0.000000 0.000000 0.000000
0.000000 0.000000 0.000000
0.000000 0.000000 0.000000
0.000000 0.000000 0.000000
0.000000 0.000000 0.000000
0.000000 0.000000 0.000000
0.000000 0.000000 0.000000
0.000000 0.000000 0.000000
0.000000 0.000000 0.000000
0.000000 0.000000 0.000000
