Ti96 Sn1
1.0
9.513020 0.000000 0.000000
0.000000 9.350860 0.000000
0.000000 0.000000 18.547230
Ti Sn
96 1
Selective dynamics
direct
0.148596 0.375455 0.402611 T T T Ti
0.643479 0.335471 0.406850 T T T Ti
0.116777 0.855498 0.393551 T T T Ti
0.688803 0.872587 0.388664 T T T Ti
0.161975 0.369306 0.234777 T T T Ti
0.658904 0.375922 0.234597 T T T Ti
0.168218 0.874900 0.234976 T T T Ti
0.652433 0.870380 0.236121 T T T Ti
0.166666 0.375000 0.077689 F F F Ti
0.666666 0.375000 0.077689 F F F Ti
0.166666 0.875000 0.077689 F F F Ti
0.666666 0.875000 0.077689 F F F Ti
0.405909 0.382299 0.314093 T T T Ti
0.896080 0.374887 0.321297 T T T Ti
0.398846 0.896511 0.334621 T T T Ti
0.914847 0.887380 0.303800 T T T Ti
0.416667 0.375000 0.155379 F F F Ti
0.916667 0.375000 0.155379 F F F Ti
0.416667 0.875000 0.155379 F F F Ti
0.916667 0.875000 0.155379 F F F Ti
0.416667 0.375000 -0.000000 F F F Ti
0.916667 0.375000 -0.000000 F F F Ti
0.416667 0.875000 -0.000000 F F F Ti
0.916667 0.875000 -0.000000 F F F Ti
0.103920 0.125113 0.321296 T T T Ti
0.594091 0.117701 0.314092 T T T Ti
0.085153 0.612620 0.303799 T T T Ti
0.601154 0.603489 0.334620 T T T Ti
0.083333 0.125000 0.155379 F F F Ti
0.583333 0.125000 0.155379 F F F Ti
0.083333 0.625000 0.155379 F F F Ti
0.583333 0.625000 0.155379 F F F Ti
0.083333 0.125000 -0.000000 F F F Ti
0.583333 0.125000 -0.000000 F F F Ti
0.083333 0.625000 -0.000000 F F F Ti
0.583333 0.625000 -0.000000 F F F Ti
0.356520 0.164529 0.406850 T T T Ti
0.851403 0.124545 0.402611 T T T Ti
0.311196 0.627413 0.388664 T T T Ti
0.883222 0.644502 0.393551 T T T Ti
0.341095 0.124078 0.234597 T T T Ti
0.838024 0.130694 0.234777 T T T Ti
0.347566 0.629620 0.236121 T T T Ti
0.831781 0.625100 0.234976 T T T Ti
0.333333 0.125000 0.077689 F F F Ti
0.833333 0.125000 0.077689 F F F Ti
0.333333 0.625000 0.077689 F F F Ti
0.833333 0.625000 0.077689 F F F Ti
0.375000 0.375000 0.823738 F F F Ti
0.875000 0.375000 0.823738 F F F Ti
0.375000 0.875000 0.823738 F F F Ti
0.875000 0.875000 0.823738 F F F Ti
0.125000 0.125000 0.823738 F F F Ti
0.625000 0.125000 0.823738 F F F Ti
0.125000 0.625000 0.823738 F F F Ti
0.625000 0.625000 0.823738 F F F Ti
0.125000 0.375000 0.910084 F F F Ti
0.625000 0.375000 0.910084 F F F Ti
0.125000 0.875000 0.910084 F F F Ti
0.625000 0.875000 0.910084 F F F Ti
0.375000 0.125000 0.910084 F F F Ti
0.875000 0.125000 0.910084 F F F Ti
0.375000 0.625000 0.910084 F F F Ti
0.875000 0.625000 0.910084 F F F Ti
0.394834 0.384733 0.661367 T T T Ti
0.888812 0.376035 0.644685 T T T Ti
0.387526 0.895275 0.642343 T T T Ti
0.881754 0.885161 0.673225 T T T Ti
0.111188 0.123965 0.644685 T T T Ti
0.605166 0.115267 0.661367 T T T Ti
0.118246 0.614839 0.673225 T T T Ti
0.612474 0.604725 0.642343 T T T Ti
0.155125 0.380133 0.573799 T T T Ti
0.634120 0.334049 0.567798 T T T Ti
0.114454 0.853317 0.586525 T T T Ti
0.663606 0.867511 0.582083 T T T Ti
0.365880 0.165951 0.567798 T T T Ti
0.844875 0.119867 0.573799 T T T Ti
0.336394 0.632489 0.582083 T T T Ti
0.885546 0.646683 0.586525 T T T Ti
0.412489 0.426943 0.483623 T T T Ti
0.903190 0.365531 0.488140 T T T Ti
0.296279 0.934968 0.490604 T T T Ti
0.904985 0.894833 0.490392 T T T Ti
0.096810 0.134469 0.488140 T T T Ti
0.587511 0.073057 0.483623 T T T Ti
0.095015 0.605167 0.490392 T T T Ti
0.703721 0.565032 0.490604 T T T Ti
0.125000 0.875000 0.737395 F F F Ti
0.625000 0.875000 0.737395 F F F Ti
0.375000 0.625000 0.737395 F F F Ti
0.875000 0.625000 0.737395 F F F Ti
0.125000 0.375000 0.737395 F F F Ti
0.625000 0.375000 0.737395 F F F Ti
0.375000 0.125000 0.737395 F F F Ti
0.875000 0.125000 0.737395 F F F Ti
0.500000 0.750000 0.475429 T T T Sn

0.000000 0.000000 0.000000
0.000000 0.000000 0.000000
0.000000 0.000000 0.000000
0.000000 0.000000 0.000000
0.000000 0.000000 0.000000
0.000000 0.000000 0.000000
0.000000 0.000000 0.000000
0.000000 0.000000 0.000000
0.000000 0.000000 0.000000
0.000000 0.000000 0.000000
0.000000 0.000000 0.000000
0.000000 0.000000 0.000000
0.000000 0.000000 0.000000
0.000000 0.000000 0.000000
0.000000 0.000000 0.000000
0.000000 0.000000 0.000000
0.000000 0.000000 0.000000
0.000000 0.000000 0.000000
0.000000 0.000000 0.000000
0.000000 0.000000 0.000000
0.000000 0.000000 0.000000
0.000000 0.000000 0.000000
0.000000 0.000000 0.000000
0.000000 0.000000 0.000000
0.000000 0.000000 0.000000
0.000000 0.000000 0.000000
0.000000 0.000000 0.000000
0.000000 0.000000 0.000000
0.000000 0.000000 0.000000
0.000000 0.000000 0.000000
0.000000 0.000000 0.000000
0.000000 0.000000 0.000000
0.000000 0.000000 0.000000
0.000000 0.000000 0.000000
0.000000 0.000000 0.000000
0.000000 0.000000 0.000000
0.000000 0.000000 0.000000
0.000000 0.000000 0.000000
0.000000 0.000000 0.000000
0.000000 0.000000 0.000000
0.000000 0.000000 0.000000
0.000000 0.000000 0.000000
0.000000 0.000000 0.000000
0.000000 0.000000 0.000000
0.000000 0.000000 0.000000
0.000000 0.000000 0.000000
0.000000 0.000000 0.000000
0.000000 0.000000 0.000000
0.000000 0.000000 0.000000
0.000000 0.000000 0.000000
0.000000 0.000000 0.000000
0.000000 0.000000 0.000000
0.000000 0.000000 0.000000
0.000000 0.000000 0.000000
0.000000 0.000000 0.000000
0.000000 0.000000 0.000000
0.000000 0.000000 0.000000
0.000000 0.000000 0.000000
0.000000 0.000000 0.000000
0.000000 0.000000 0.000000
0.000000 0.000000 0.000000
0.000000 0.000000 0.000000
0.000000 0.000000 0.000000
0.000000 0.000000 0.000000
0.000000 0.000000 0.000000
0.000000 0.000000 0.000000
0.000000 0.000000 0.000000
0.000000 0.000000 0.000000
0.000000 0.000000 0.000000
0.000000 0.000000 0.000000
0.000000 0.000000 0.000000
0.000000 0.000000 0.000000
0.000000 0.000000 0.000000
0.000000 0.000000 0.000000
0.000000 0.000000 0.000000
0.000000 0.000000 0.000000
0.000000 0.000000 0.000000
0.000000 0.000000 0.000000
0.000000 0.000000 0.000000
0.000000 0.000000 0.000000
0.000000 0.000000 0.000000
0.000000 0.000000 0.000000
0.000000 0.000000 0.000000
0.000000 0.000000 0.000000
0.000000 0.000000 0.000000
0.000000 0.000000 0.000000
0.000000 0.000000 0.000000
0.000000 0.000000 0.000000
0.000000 0.000000 0.000000
0.000000 0.000000 0.000000
0.000000 0.000000 0.000000
0.000000 0.000000 0.000000
0.000000 0.000000 0.000000
0.000000 0.000000 0.000000
0.000000 0.000000 0.000000
0.000000 0.000000 0.000000
0.000000 0.000000 0.000000
