Ti66 Cr1
1.0
6.309760 0.000000 0.000000
0.000000 9.464640 0.000000
0.000000 0.000000 18.918326
Ti Cr
66 1
Selective dynamics
direct
0.120078 0.038886 0.500759 F F F Ti
0.628304 0.039723 0.500632 F F F Ti
0.125619 0.041435 0.659410 F F F Ti
0.623791 0.041596 0.659419 F F F Ti
0.125163 0.041798 0.817813 F F F Ti
0.624766 0.041841 0.817786 F F F Ti
0.097120 0.378811 0.505255 F F F Ti
0.657078 0.383518 0.506934 F F F Ti
0.124406 0.375279 0.659716 F F F Ti
0.624520 0.375584 0.660357 F F F Ti
0.124961 0.375072 0.817804 F F F Ti
0.624651 0.375072 0.817939 F F F Ti
0.124515 0.708520 0.500795 F F F Ti
0.623986 0.710176 0.500853 F F F Ti
0.126184 0.709482 0.659814 F F F Ti
0.622990 0.709813 0.659925 F F F Ti
0.125064 0.708654 0.817944 F F F Ti
0.624614 0.708701 0.817967 F F F Ti
0.873322 0.205383 0.581815 F F F Ti
0.374743 0.208438 0.738410 F F F Ti
0.874869 0.208164 0.738868 F F F Ti
0.374982 0.208371 0.896837 F F F Ti
0.874897 0.208371 0.896903 F F F Ti
0.374219 0.542036 0.580313 F F F Ti
0.874934 0.547525 0.582907 F F F Ti
0.374753 0.541991 0.738743 F F F Ti
0.874849 0.542379 0.739180 F F F Ti
0.374967 0.541664 0.896934 F F F Ti
0.875007 0.541686 0.896991 F F F Ti
0.374689 0.875679 0.579756 F F F Ti
0.874674 0.874425 0.580479 F F F Ti
0.374778 0.875514 0.738673 F F F Ti
0.874834 0.875333 0.738751 F F F Ti
0.375044 0.875149 0.896945 F F F Ti
0.874893 0.875121 0.896958 F F F Ti
0.124414 0.623361 0.357492 F F F Ti
0.625212 0.625016 0.356937 F F F Ti
0.125266 0.624579 0.119214 F F F Ti
0.624744 0.624561 0.119192 F F F Ti
0.115802 0.119383 0.356144 F F F Ti
0.636619 0.117314 0.354889 F F F Ti
0.125291 0.124579 0.118969 F F F Ti
0.624596 0.124583 0.118857 F F F Ti
0.125252 0.374849 0.039972 F F F Ti
0.624742 0.374868 0.039972 F F F Ti
0.125069 0.874786 0.039845 F F F Ti
0.624752 0.874760 0.039818 F F F Ti
0.123921 0.373448 0.278007 F F F Ti
0.626573 0.373909 0.276850 F F F Ti
0.124529 0.873103 0.277435 F F F Ti
0.624753 0.872553 0.277066 F F F Ti
0.374780 0.874230 0.158611 F F F Ti
0.874965 0.874100 0.158406 F F F Ti
0.374699 0.374363 0.158928 F F F Ti
0.875633 0.374661 0.158521 F F F Ti
0.867262 0.374200 0.396211 F F F Ti
0.374370 0.873859 0.396647 F F F Ti
0.874568 0.871633 0.396709 F F F Ti
0.374444 0.623617 0.238308 F F F Ti
0.875289 0.623930 0.237974 F F F Ti
0.374924 0.624753 0.000456 F F F Ti
0.874891 0.624826 0.000443 F F F Ti
0.374636 0.123604 0.237952 F F F Ti
0.874835 0.123807 0.236856 F F F Ti
0.374987 0.125001 0.000335 F F F Ti
0.875089 0.124942 0.000329 F F F Ti
0.389824 0.325744 0.424304 T T T Cr

0.000000 0.000000 0.000000
0.000000 0.000000 0.000000
0.000000 0.000000 0.000000
0.000000 0.000000 0.000000
0.000000 0.000000 0.000000
0.000000 0.000000 0.000000
0.000000 0.000000 0.000000
0.000000 0.000000 0.000000
0.000000 0.000000 0.000000
0.000000 0.000000 0.000000
0.000000 0.000000 0.000000
0.000000 0.000000 0.000000
0.000000 0.000000 0.000000
0.000000 0.000000 0.000000
0.000000 0.000000 0.000000
0.000000 0.000000 0.000000
0.000000 0.000000 0.000000
0.000000 0.000000 0.000000
0.000000 0.000000 0.000000
0.000000 0.000000 0.000000
0.000000 0.000000 0.000000
0.000000 0.000000 0.000000
0.000000 0.000000 0.000000
0.000000 0.000000 0.000000
0.000000 0.000000 0.000000
0.000000 0.000000 0.000000
0.000000 0.000000 0.000000
0.000000 0.000000 0.000000
0.000000 0.000000 0.000000
0.000000 0.000000 0.000000
0.000000 0.000000 0.000000
0.000000 0.000000 0.000000
0.000000 0.000000 0.000000
0.000000 0.000000 0.000000
0.000000 0.000000 0.000000
0.000000 0.000000 0.000000
0.000000 0.000000 0.000000
0.000000 0.000000 0.000000
0.000000 0.000000 0.000000
0.000000 0.000000 0.000000
0.000000 0.000000 0.000000
0.000000 0.000000 0.000000
0.000000 0.000000 0.000000
0.000000 0.000000 0.000000
0.000000 0.000000 0.000000
0.000000 0.000000 0.000000
0.000000 0.000000 0.000000
0.000000 0.000000 0.000000
0.000000 0.000000 0.000000
0.000000 0.000000 0.000000
0.000000 0.000000 0.000000
0.000000 0.000000 0.000000
0.000000 0.000000 0.000000
0.000000 0.000000 0.000000
0.000000 0.000000 0.000000
0.000000 0.000000 0.000000
0.000000 0.000000 0.000000
0.000000 0.000000 0.000000
0.000000 0.000000 0.000000
0.000000 0.000000 0.000000
0.000000 0.000000 0.000000
0.000000 0.000000 0.000000
0.000000 0.000000 0.000000
0.000000 0.000000 0.000000
0.000000 0.000000 0.000000
0.000000 0.000000 0.000000
0.000000 0.000000 0.000000
