total_Ti
1.0
6.309760 0.000000 0.000000
0.000000 9.464640 0.000000
0.000000 0.000000 22.000004
Ti
68
direct
0.875000 0.041667 0.500000 Ti
0.375000 0.041667 0.500000 Ti
0.875000 0.041667 0.636364 Ti
0.375000 0.041667 0.636364 Ti
0.875000 0.041667 0.772727 Ti
0.375000 0.041667 0.772727 Ti
0.875000 0.375000 0.500000 Ti
0.375000 0.375000 0.500000 Ti
0.875000 0.375000 0.636364 Ti
0.375000 0.375000 0.636364 Ti
0.875000 0.375000 0.772727 Ti
0.375000 0.375000 0.772727 Ti
0.875000 0.708333 0.500000 Ti
0.375000 0.708333 0.500000 Ti
0.875000 0.708333 0.636364 Ti
0.375000 0.708333 0.636364 Ti
0.875000 0.708333 0.772727 Ti
0.375000 0.708333 0.772727 Ti
0.125000 0.208333 0.568182 Ti
0.625000 0.208333 0.568182 Ti
0.125000 0.208333 0.704545 Ti
0.625000 0.208333 0.704545 Ti
0.125000 0.208333 0.840909 Ti
0.625000 0.208333 0.840909 Ti
0.125000 0.541667 0.568182 Ti
0.625000 0.541667 0.568182 Ti
0.125000 0.541667 0.704545 Ti
0.625000 0.541667 0.704545 Ti
0.125000 0.541667 0.840909 Ti
0.625000 0.541667 0.840909 Ti
0.125000 0.875000 0.568182 Ti
0.625000 0.875000 0.568182 Ti
0.125000 0.875000 0.704545 Ti
0.625000 0.875000 0.704545 Ti
0.125000 0.875000 0.840909 Ti
0.625000 0.875000 0.840909 Ti
0.125000 0.625000 0.306818 Ti
0.625000 0.625000 0.306818 Ti
0.125000 0.625000 0.102273 Ti
0.625000 0.625000 0.102273 Ti
0.125000 0.125000 0.306818 Ti
0.625000 0.125000 0.306818 Ti
0.125000 0.125000 0.102273 Ti
0.625000 0.125000 0.102273 Ti
0.125000 0.375000 0.034091 Ti
0.625000 0.375000 0.034091 Ti
0.125000 0.875000 0.034091 Ti
0.625000 0.875000 0.034091 Ti
0.125000 0.375000 0.238636 Ti
0.625000 0.375000 0.238636 Ti
0.125000 0.875000 0.238636 Ti
0.625000 0.875000 0.238636 Ti
0.375000 0.875000 0.136364 Ti
0.875000 0.875000 0.136364 Ti
0.374999 0.375000 0.136364 Ti
0.874999 0.375000 0.136364 Ti
0.375000 0.375000 0.340909 Ti
0.875000 0.375000 0.340909 Ti
0.375000 0.875000 0.340909 Ti
0.875000 0.875000 0.340909 Ti
0.375000 0.625000 0.204545 Ti
0.875000 0.625000 0.204545 Ti
0.375000 0.625000 -0.000000 Ti
0.875000 0.625000 -0.000000 Ti
0.375000 0.125000 0.204545 Ti
0.875000 0.125000 0.204545 Ti
0.375000 0.125000 -0.000000 Ti
0.875000 0.125000 -0.000000 Ti
