alpha_Ti
1.0
6.309760 0.000000 0.000000
0.000000 9.464640 0.000000
0.000000 0.000000 19.200004
Ti
32
direct
0.125000 0.625000 0.351562 Ti
0.625000 0.625000 0.351562 Ti
0.125000 0.625000 0.117187 Ti
0.625000 0.625000 0.117187 Ti
0.125000 0.125000 0.351562 Ti
0.625000 0.125000 0.351562 Ti
0.125000 0.125000 0.117187 Ti
0.625000 0.125000 0.117187 Ti
0.125000 0.375000 0.039062 Ti
0.625000 0.375000 0.039062 Ti
0.125000 0.875000 0.039062 Ti
0.625000 0.875000 0.039062 Ti
0.125000 0.375000 0.273438 Ti
0.625000 0.375000 0.273438 Ti
0.125000 0.875000 0.273438 Ti
0.625000 0.875000 0.273438 Ti
0.375000 0.875000 0.156250 Ti
0.875000 0.875000 0.156250 Ti
0.374999 0.375000 0.156250 Ti
0.874999 0.375000 0.156250 Ti
0.375000 0.375000 0.390625 Ti
0.875000 0.375000 0.390625 Ti
0.375000 0.875000 0.390625 Ti
0.875000 0.875000 0.390625 Ti
0.375000 0.625000 0.234375 Ti
0.875000 0.625000 0.234375 Ti
0.375000 0.625000 -0.000000 Ti
0.875000 0.625000 -0.000000 Ti
0.375000 0.125000 0.234375 Ti
0.875000 0.125000 0.234375 Ti
0.375000 0.125000 -0.000000 Ti
0.875000 0.125000 -0.000000 Ti
