Ti66 Mo1
1.0
6.309760 0.000000 0.000000
0.000000 9.464640 0.000000
0.000000 0.000000 18.918326
Ti Mo
66 1
Selective dynamics
direct
0.118536 0.038351 0.497922 F F F Ti
0.626551 0.040181 0.499468 F F F Ti
0.631335 0.039263 0.659780 F F F Ti
0.125017 0.041665 0.817280 F F F Ti
0.625525 0.041444 0.817522 F F F Ti
0.122816 0.375988 0.499618 F F F Ti
0.623994 0.374922 0.500026 F F F Ti
0.121094 0.378346 0.659652 F F F Ti
0.625976 0.375888 0.659135 F F F Ti
0.124737 0.375324 0.817509 F F F Ti
0.625442 0.375377 0.817566 F F F Ti
0.124624 0.707705 0.499839 F F F Ti
0.625052 0.707664 0.499797 F F F Ti
0.124908 0.708486 0.658652 F F F Ti
0.625149 0.708027 0.658753 F F F Ti
0.125105 0.708470 0.817328 F F F Ti
0.624971 0.708493 0.817382 F F F Ti
0.870122 0.208841 0.579093 F F F Ti
0.376416 0.209129 0.739427 F F F Ti
0.875065 0.208597 0.738181 F F F Ti
0.375015 0.208391 0.896690 F F F Ti
0.875022 0.208349 0.896595 F F F Ti
0.374664 0.541659 0.579393 F F F Ti
0.874057 0.542069 0.579256 F F F Ti
0.375113 0.542140 0.738172 F F F Ti
0.874381 0.542360 0.738296 F F F Ti
0.375008 0.541810 0.896607 F F F Ti
0.874970 0.541821 0.896635 F F F Ti
0.376027 0.872317 0.578977 F F F Ti
0.874922 0.874244 0.579258 F F F Ti
0.375207 0.874901 0.738006 F F F Ti
0.876089 0.874641 0.738123 F F F Ti
0.374976 0.875004 0.896566 F F F Ti
0.875150 0.874971 0.896587 F F F Ti
0.124991 0.624690 0.356738 F F F Ti
0.624635 0.624647 0.356734 F F F Ti
0.125006 0.624962 0.118973 F F F Ti
0.624955 0.624961 0.118972 F F F Ti
0.124816 0.124976 0.356460 F F F Ti
0.624778 0.124913 0.356628 F F F Ti
0.124980 0.124988 0.118963 F F F Ti
0.624952 0.124990 0.118959 F F F Ti
0.124966 0.375009 0.039702 F F F Ti
0.624989 0.375017 0.039712 F F F Ti
0.124981 0.874983 0.039683 F F F Ti
0.624995 0.874972 0.039689 F F F Ti
0.124917 0.374977 0.277447 F F F Ti
0.624828 0.374954 0.277441 F F F Ti
0.124955 0.874846 0.277372 F F F Ti
0.624844 0.874865 0.277355 F F F Ti
0.374992 0.874947 0.158545 F F F Ti
0.874954 0.874945 0.158539 F F F Ti
0.374991 0.374983 0.158573 F F F Ti
0.874984 0.374993 0.158565 F F F Ti
0.374700 0.374774 0.396425 F F F Ti
0.874233 0.374962 0.396268 F F F Ti
0.375103 0.874528 0.396179 F F F Ti
0.874234 0.874181 0.395983 F F F Ti
0.374974 0.624891 0.237847 F F F Ti
0.874944 0.624892 0.237835 F F F Ti
0.374993 0.625026 0.000098 F F F Ti
0.874992 0.625028 0.000111 F F F Ti
0.375000 0.124965 0.237799 F F F Ti
0.874856 0.124971 0.237772 F F F Ti
0.374989 0.124946 0.000126 F F F Ti
0.874970 0.124976 0.000091 F F F Ti
0.316424 0.170432 0.595673 T T T Mo

0.000000 0.000000 0.000000
0.000000 0.000000 0.000000
0.000000 0.000000 0.000000
0.000000 0.000000 0.000000
0.000000 0.000000 0.000000
0.000000 0.000000 0.000000
0.000000 0.000000 0.000000
0.000000 0.000000 0.000000
0.000000 0.000000 0.000000
0.000000 0.000000 0.000000
0.000000 0.000000 0.000000
0.000000 0.000000 0.000000
0.000000 0.000000 0.000000
0.000000 0.000000 0.000000
0.000000 0.000000 0.000000
0.000000 0.000000 0.000000
0.000000 0.000000 0.000000
0.000000 0.000000 0.000000
0.000000 0.000000 0.000000
0.000000 0.000000 0.000000
0.000000 0.000000 0.000000
0.000000 0.000000 0.000000
0.000000 0.000000 0.000000
0.000000 0.000000 0.000000
0.000000 0.000000 0.000000
0.000000 0.000000 0.000000
0.000000 0.000000 0.000000
0.000000 0.000000 0.000000
0.000000 0.000000 0.000000
0.000000 0.000000 0.000000
0.000000 0.000000 0.000000
0.000000 0.000000 0.000000
0.000000 0.000000 0.000000
0.000000 0.000000 0.000000
0.000000 0.000000 0.000000
0.000000 0.000000 0.000000
0.000000 0.000000 0.000000
0.000000 0.000000 0.000000
0.000000 0.000000 0.000000
0.000000 0.000000 0.000000
0.000000 0.000000 0.000000
0.000000 0.000000 0.000000
0.000000 0.000000 0.000000
0.000000 0.000000 0.000000
0.000000 0.000000 0.000000
0.000000 0.000000 0.000000
0.000000 0.000000 0.000000
0.000000 0.000000 0.000000
0.000000 0.000000 0.000000
0.000000 0.000000 0.000000
0.000000 0.000000 0.000000
0.000000 0.000000 0.000000
0.000000 0.000000 0.000000
0.000000 0.000000 0.000000
0.000000 0.000000 0.000000
0.000000 0.000000 0.000000
0.000000 0.000000 0.000000
0.000000 0.000000 0.000000
0.000000 0.000000 0.000000
0.000000 0.000000 0.000000
0.000000 0.000000 0.000000
0.000000 0.000000 0.000000
0.000000 0.000000 0.000000
0.000000 0.000000 0.000000
0.000000 0.000000 0.000000
0.000000 0.000000 0.000000
0.000000 0.000000 0.000000
