Ti66 Nb1
1.0
6.309760 0.000000 0.000000
0.000000 9.464640 0.000000
0.000000 0.000000 18.918326
Ti Nb
66 1
Selective dynamics
direct
0.120467 0.039090 0.500659 F F F Ti
0.628082 0.040053 0.500534 F F F Ti
0.125720 0.041383 0.659339 F F F Ti
0.623842 0.041566 0.659339 F F F Ti
0.125220 0.041761 0.817729 F F F Ti
0.624809 0.041804 0.817705 F F F Ti
0.095548 0.378558 0.505299 F F F Ti
0.658567 0.383069 0.506781 F F F Ti
0.124552 0.375243 0.659604 F F F Ti
0.624495 0.375520 0.660223 F F F Ti
0.125012 0.375098 0.817719 F F F Ti
0.624673 0.375079 0.817851 F F F Ti
0.124944 0.708308 0.500622 F F F Ti
0.623967 0.709940 0.500678 F F F Ti
0.126328 0.709421 0.659610 F F F Ti
0.623019 0.709753 0.659724 F F F Ti
0.125109 0.708629 0.817817 F F F Ti
0.624639 0.708692 0.817837 F F F Ti
0.873416 0.205155 0.581836 F F F Ti
0.374799 0.208433 0.738336 F F F Ti
0.874925 0.208157 0.738804 F F F Ti
0.375013 0.208374 0.896792 F F F Ti
0.875035 0.208371 0.896844 F F F Ti
0.374372 0.541691 0.580059 F F F Ti
0.875037 0.547538 0.582787 F F F Ti
0.374810 0.541975 0.738595 F F F Ti
0.874907 0.542362 0.739048 F F F Ti
0.374970 0.541721 0.896876 F F F Ti
0.874928 0.541743 0.896927 F F F Ti
0.374831 0.875929 0.579564 F F F Ti
0.874732 0.874587 0.580246 F F F Ti
0.374837 0.875492 0.738528 F F F Ti
0.874935 0.875290 0.738609 F F F Ti
0.375071 0.875123 0.896876 F F F Ti
0.874998 0.875102 0.896882 F F F Ti
0.125004 0.623318 0.357494 F F F Ti
0.624713 0.624848 0.357005 F F F Ti
0.125224 0.624774 0.119173 F F F Ti
0.624819 0.624755 0.119153 F F F Ti
0.116931 0.120240 0.356078 F F F Ti
0.634912 0.118598 0.355044 F F F Ti
0.125211 0.124683 0.118901 F F F Ti
0.624740 0.124690 0.118802 F F F Ti
0.125210 0.374938 0.039873 F F F Ti
0.624812 0.374951 0.039873 F F F Ti
0.125074 0.874870 0.039834 F F F Ti
0.624804 0.874849 0.039808 F F F Ti
0.123591 0.373838 0.277660 F F F Ti
0.626578 0.374223 0.276678 F F F Ti
0.124818 0.873591 0.277513 F F F Ti
0.624743 0.873159 0.277219 F F F Ti
0.374872 0.874451 0.158641 F F F Ti
0.875013 0.874323 0.158478 F F F Ti
0.374741 0.374588 0.158759 F F F Ti
0.875568 0.374839 0.158416 F F F Ti
0.867638 0.374370 0.395982 F F F Ti
0.374569 0.874870 0.396664 F F F Ti
0.874914 0.872357 0.396661 F F F Ti
0.374565 0.623957 0.238261 F F F Ti
0.875240 0.624331 0.238000 F F F Ti
0.374928 0.624862 0.000394 F F F Ti
0.874887 0.624933 0.000381 F F F Ti
0.374700 0.123918 0.237791 F F F Ti
0.874759 0.124027 0.236917 F F F Ti
0.375009 0.125006 0.000274 F F F Ti
0.875080 0.124948 0.000261 F F F Ti
0.386724 0.331861 0.429350 T T T Nb

0.000000 0.000000 0.000000
0.000000 0.000000 0.000000
0.000000 0.000000 0.000000
0.000000 0.000000 0.000000
0.000000 0.000000 0.000000
0.000000 0.000000 0.000000
0.000000 0.000000 0.000000
0.000000 0.000000 0.000000
0.000000 0.000000 0.000000
0.000000 0.000000 0.000000
0.000000 0.000000 0.000000
0.000000 0.000000 0.000000
0.000000 0.000000 0.000000
0.000000 0.000000 0.000000
0.000000 0.000000 0.000000
0.000000 0.000000 0.000000
0.000000 0.000000 0.000000
0.000000 0.000000 0.000000
0.000000 0.000000 0.000000
0.000000 0.000000 0.000000
0.000000 0.000000 0.000000
0.000000 0.000000 0.000000
0.000000 0.000000 0.000000
0.000000 0.000000 0.000000
0.000000 0.000000 0.000000
0.000000 0.000000 0.000000
0.000000 0.000000 0.000000
0.000000 0.000000 0.000000
0.000000 0.000000 0.000000
0.000000 0.000000 0.000000
0.000000 0.000000 0.000000
0.000000 0.000000 0.000000
0.000000 0.000000 0.000000
0.000000 0.000000 0.000000
0.000000 0.000000 0.000000
0.000000 0.000000 0.000000
0.000000 0.000000 0.000000
0.000000 0.000000 0.000000
0.000000 0.000000 0.000000
0.000000 0.000000 0.000000
0.000000 0.000000 0.000000
0.000000 0.000000 0.000000
0.000000 0.000000 0.000000
0.000000 0.000000 0.000000
0.000000 0.000000 0.000000
0.000000 0.000000 0.000000
0.000000 0.000000 0.000000
0.000000 0.000000 0.000000
0.000000 0.000000 0.000000
0.000000 0.000000 0.000000
0.000000 0.000000 0.000000
0.000000 0.000000 0.000000
0.000000 0.000000 0.000000
0.000000 0.000000 0.000000
0.000000 0.000000 0.000000
0.000000 0.000000 0.000000
0.000000 0.000000 0.000000
0.000000 0.000000 0.000000
0.000000 0.000000 0.000000
0.000000 0.000000 0.000000
0.000000 0.000000 0.000000
0.000000 0.000000 0.000000
0.000000 0.000000 0.000000
0.000000 0.000000 0.000000
0.000000 0.000000 0.000000
0.000000 0.000000 0.000000
0.000000 0.000000 0.000000
