substance_bottem
1.0
   3.5062000000000002    0.0000000000000000    0.0000000000000002
   0.0000000000000019   12.0001999999999995    0.0000000000000007
   0.0000000000000000    0.0000000000000000   28.9449410620000016
Cr Mo N
20 4 24
Selective dynamics
direct
   0.6482100000000000    0.3787300000000000    0.3286230437514235 T T T Cr
   0.6482100000000000    0.1287300000000000    0.3286230437514235 T T T Cr
   0.1482100000000000    0.0037300000000000    0.2505954739884624 T T T Cr
   0.6482100000000000    0.3787300000000000    0.1725578904203470 F F F Cr
   0.6482100000000000    0.1287300000000000    0.1725578904203471 F F F Cr
   0.1482100000000000    0.2537300000000000    0.2505954739884624 T T T Cr
   0.6482100000000000    0.8787300000000000    0.3286230437514235 T T T Cr
   0.6482100000000000    0.6287300000000000    0.3286230437514235 T T T Cr
   0.1482100000000000    0.5037300000000000    0.2505954739884624 T T T Cr
   0.6482100000000000    0.8787300000000000    0.1725578904203471 F F F Cr
   0.6482100000000000    0.6287300000000000    0.1725578904203471 F F F Cr
   0.1482100000000000    0.7537299999999999    0.2505954739884624 T T T Cr
   0.1317400000000000    0.0053800000000000    0.0946404725140843 F F F Cr
   0.6317400000000001    0.3803800000000000    0.0166028889459689 F F F Cr
   0.6317400000000000    0.1303800000000000    0.0166028889459689 F F F Cr
   0.1317400000000000    0.2553800000000000    0.0946404725140842 F F F Cr
   0.1317400000000000    0.5053800000000001    0.0946404725140843 F F F Cr
   0.6317400000000001    0.8803800000000001    0.0166028889459689 F F F Cr
   0.6317400000000001    0.6303800000000001    0.0166028889459689 F F F Cr
   0.1317400000000000    0.7553800000000001    0.0946404725140843 F F F Cr
   0.1482100000000000    0.0037300000000000    0.4066606273195388 T T T Mo
   0.1482100000000000    0.2537300000000000    0.4066606273195388 T T T Mo
   0.1482100000000000    0.5037300000000000    0.4066606273195388 T T T Mo
   0.1482100000000000    0.7537299999999999    0.4066606273195388 T T T Mo
   0.6482100000000000    0.3787300000000000    0.4066606273195388 T T T N
   0.1482100000000000    0.0037300000000000    0.3286230437514235 T T T N
   0.1482100000000000    0.2537300000000000    0.3286230437514235 T T T N
   0.6482100000000000    0.1287300000000000    0.4066606273195388 T T T N
   0.6482100000000000    0.3787300000000000    0.2505954739884624 T T T N
   0.1482100000000000    0.0037300000000000    0.1725578904203471 F F F N
   0.1482100000000000    0.2537300000000000    0.1725578904203471 F F F N
   0.6482100000000000    0.1287300000000000    0.2505954739884624 T T T N
   0.6482100000000000    0.8787300000000000    0.4066606273195388 T T T N
   0.1482100000000000    0.5037300000000000    0.3286230437514235 T T T N
   0.1482100000000000    0.7537299999999999    0.3286230437514235 T T T N
   0.6482100000000000    0.6287300000000000    0.4066606273195388 T T T N
   0.6482100000000000    0.8787300000000000    0.2505954739884624 T T T N
   0.1482100000000000    0.5037300000000000    0.1725578904203470 F F F N
   0.1482100000000000    0.7537299999999999    0.1725578904203471 F F F N
   0.6482100000000000    0.6287300000000000    0.2505954739884624 T T T N
   0.6317400000000001    0.3803800000000000    0.0946404725140843 F F F N
   0.1317400000000000    0.0053800000000000    0.0166028889459689 F F F N
   0.1317400000000000    0.2553800000000000    0.0166028889459689 F F F N
   0.6317400000000000    0.1303800000000000    0.0946404725140842 F F F N
   0.6317400000000001    0.8803800000000001    0.0946404725140843 F F F N
   0.1317400000000000    0.5053800000000001    0.0166028889459689 F F F N
   0.1317400000000000    0.7553800000000001    0.0166028889459689 F F F N
   0.6317400000000001    0.6303800000000001    0.0946404725140843 F F F N
