substance_top
1.0
   3.5062000000000002    0.0000000000000000    0.0000000000000002
   0.0000000000000019   12.0001999999999995    0.0000000000000007
   0.0000000000000000    0.0000000000000000   28.9449410620000016
Fe
36
Selective dynamics
direct
   0.1415300000000000    0.7221700000000000    0.8001544905339562 F F F Fe
   0.6415299999999999    0.5580400000000000    0.7872266680796463 F F F Fe
   0.6415299999999999    0.7428899999999999    0.7476521101095203 F F F Fe
   0.1415300000000000    0.5787500000000000    0.7347242876552104 F F F Fe
   0.1415300000000000    0.3939000000000000    0.7742888318201819 F F F Fe
   0.6415300000000000    0.2297700000000000    0.7613610093658721 F F F Fe
   0.6415300000000000    0.4146200000000000    0.7217864513957460 F F F Fe
   0.1415300000000000    0.2504800000000000    0.7088586289414363 F F F Fe
   0.1415300000000000    0.0656300000000000    0.7484231731064078 F F F Fe
   0.6415300000000000    0.9015000000000000    0.7354953506520979 F F F Fe
   0.6415300000000000    0.0863500000000000    0.6959207926819719 F F F Fe
   0.1415300000000000    0.9222099999999999    0.6829929702276620 F F F Fe
   0.1415300000000000    0.7635999999999999    0.6951597434902388 F F F Fe
   0.6415300000000000    0.5994699999999999    0.6822219072307745 F F F Fe
   0.6415299999999999    0.7843100000000000    0.6426573630658029 F F F Fe
   0.1415300000000000    0.6201800000000000    0.6297195268063385 F F F Fe
   0.1415300000000000    0.4353300000000000    0.6692940847764646 F F F Fe
   0.6415300000000000    0.2712000000000000    0.6563562485170004 F F F Fe
   0.6415300000000000    0.4560500000000000    0.6167917043520287 F F F Fe
   0.1415300000000000    0.2919100000000000    0.6038538680925644 F F F Fe
   0.1415300000000000    0.1070600000000000    0.6434284260626905 F F F Fe
   0.6415299999999999    0.9429300000000000    0.6304905898032261 F F F Fe
   0.6415300000000000    0.1277800000000000    0.5909260456382543 T T T Fe
   0.1415300000000000    0.9636399999999999    0.5779882093787901 T T T Fe
   0.1415300000000000    0.8050300000000000    0.5901549826413669 T T T Fe
   0.6415300000000000    0.6408900000000000    0.5772271601870569 T T T Fe
   0.6415300000000000    0.8257400000000000    0.5376526022169310 T T T Fe
   0.1415300000000000    0.6616100000000000    0.5247247797626210 T T T Fe
   0.1415300000000000    0.4767600000000000    0.5642893239275927 T T T Fe
   0.6415299999999999    0.3126200000000000    0.5513615014732829 T T T Fe
   0.6415300000000000    0.4974700000000000    0.5117869435031569 T T T Fe
   0.1415300000000000    0.3333333333333333    0.4988591210488469 T T T Fe
   0.1415300000000000    0.1484900000000000    0.5384236652138186 T T T Fe
   0.6415299999999999    0.9843499999999999    0.5254958427595087 T T T Fe
   0.6415300000000000    0.1692000000000000    0.4859212847893827 T T T Fe
   0.1415300000000000    0.0050700000000000    0.4729934623350728 T T T Fe
