alpha_Ti
1.0
6.309760 0.000000 0.000000
0.000000 9.464640 0.000000
0.000000 0.000000 19.100004
Ti
32
direct
0.125000 0.625000 0.353403 Ti
0.625000 0.625000 0.353403 Ti
0.125000 0.625000 0.117801 Ti
0.625000 0.625000 0.117801 Ti
0.125000 0.125000 0.353403 Ti
0.625000 0.125000 0.353403 Ti
0.125000 0.125000 0.117801 Ti
0.625000 0.125000 0.117801 Ti
0.125000 0.375000 0.039267 Ti
0.625000 0.375000 0.039267 Ti
0.125000 0.875000 0.039267 Ti
0.625000 0.875000 0.039267 Ti
0.125000 0.375000 0.274869 Ti
0.625000 0.375000 0.274869 Ti
0.125000 0.875000 0.274869 Ti
0.625000 0.875000 0.274869 Ti
0.375000 0.875000 0.157068 Ti
0.875000 0.875000 0.157068 Ti
0.374999 0.375000 0.157068 Ti
0.874999 0.375000 0.157068 Ti
0.375000 0.375000 0.392670 Ti
0.875000 0.375000 0.392670 Ti
0.375000 0.875000 0.392670 Ti
0.875000 0.875000 0.392670 Ti
0.375000 0.625000 0.235602 Ti
0.875000 0.625000 0.235602 Ti
0.375000 0.625000 -0.000000 Ti
0.875000 0.625000 -0.000000 Ti
0.375000 0.125000 0.235602 Ti
0.875000 0.125000 0.235602 Ti
0.375000 0.125000 -0.000000 Ti
0.875000 0.125000 -0.000000 Ti
