Ti96 Sn1
1.0
9.513020 0.000000 0.000000
0.000000 9.350860 0.000000
0.000000 0.000000 18.547230
Ti Sn
96 1
Selective dynamics
direct
0.148509 0.380689 0.404065 T T T Ti
0.645516 0.329744 0.410473 T T T Ti
0.117753 0.851462 0.408523 T T T Ti
0.690068 0.879628 0.401625 T T T Ti
0.152619 0.365268 0.238113 T T T Ti
0.659035 0.370980 0.234625 T T T Ti
0.163472 0.869788 0.233263 T T T Ti
0.671029 0.890797 0.232756 T T T Ti
0.166653 0.375059 0.077416 F F F Ti
0.666709 0.374988 0.077372 F F F Ti
0.166628 0.875029 0.077460 F F F Ti
0.666576 0.874958 0.077530 F F F Ti
0.410351 0.383091 0.318263 T T T Ti
0.897512 0.371053 0.324046 T T T Ti
0.352916 0.929618 0.336067 T T T Ti
0.918055 0.883804 0.309990 T T T Ti
0.416744 0.375109 0.154916 F F F Ti
0.916755 0.374744 0.154839 F F F Ti
0.416619 0.874966 0.155345 F F F Ti
0.916717 0.875205 0.154777 F F F Ti
0.416664 0.375047 -0.000120 F F F Ti
0.916637 0.374974 -0.000184 F F F Ti
0.416659 0.874964 0.000007 F F F Ti
0.916629 0.875005 -0.000164 F F F Ti
0.102488 0.128950 0.324044 T T T Ti
0.589649 0.116912 0.318262 T T T Ti
0.081944 0.616199 0.309989 T T T Ti
0.647084 0.570384 0.336066 T T T Ti
0.083243 0.125295 0.154835 F F F Ti
0.583256 0.124928 0.154917 F F F Ti
0.083283 0.624836 0.154779 F F F Ti
0.583383 0.625050 0.155345 F F F Ti
0.083365 0.125036 -0.000186 F F F Ti
0.583337 0.124970 -0.000119 F F F Ti
0.083372 0.625007 -0.000163 F F F Ti
0.583344 0.625036 0.000006 F F F Ti
0.354483 0.170257 0.410473 T T T Ti
0.851490 0.119312 0.404065 T T T Ti
0.309931 0.620373 0.401625 T T T Ti
0.882246 0.648538 0.408523 T T T Ti
0.340964 0.129027 0.234624 T T T Ti
0.847380 0.134740 0.238112 T T T Ti
0.328970 0.609211 0.232757 T T T Ti
0.836527 0.630222 0.233263 T T T Ti
0.333291 0.125041 0.077372 F F F Ti
0.833347 0.124970 0.077417 F F F Ti
0.333422 0.625066 0.077529 F F F Ti
0.833372 0.624997 0.077460 F F F Ti
0.375066 0.375119 0.823835 F F F Ti
0.874925 0.374979 0.823890 F F F Ti
0.375094 0.874917 0.823760 F F F Ti
0.874930 0.874984 0.823834 F F F Ti
0.125075 0.124991 0.823889 F F F Ti
0.624939 0.124868 0.823836 F F F Ti
0.125073 0.624996 0.823835 F F F Ti
0.624911 0.625065 0.823760 F F F Ti
0.125086 0.375109 0.910145 F F F Ti
0.624978 0.375125 0.910184 F F F Ti
0.125135 0.874930 0.910194 F F F Ti
0.624944 0.874895 0.910258 F F F Ti
0.375029 0.124854 0.910186 F F F Ti
0.874921 0.124876 0.910146 F F F Ti
0.375060 0.625075 0.910258 F F F Ti
0.874870 0.625046 0.910195 F F F Ti
0.394523 0.386556 0.658147 T T T Ti
0.893557 0.380110 0.650670 T T T Ti
0.392822 0.890330 0.647529 T T T Ti
0.885866 0.886891 0.665268 T T T Ti
0.106441 0.119883 0.650670 T T T Ti
0.605475 0.113437 0.658147 T T T Ti
0.114131 0.613100 0.665268 T T T Ti
0.607178 0.609664 0.647530 T T T Ti
0.150387 0.368379 0.574485 T T T Ti
0.642607 0.346422 0.574028 T T T Ti
0.130545 0.859467 0.584697 T T T Ti
0.655739 0.863667 0.576324 T T T Ti
0.357392 0.153576 0.574028 T T T Ti
0.849612 0.131619 0.574484 T T T Ti
0.344260 0.636331 0.576324 T T T Ti
0.869454 0.640530 0.584697 T T T Ti
0.405953 0.407731 0.491131 T T T Ti
0.899551 0.371150 0.486336 T T T Ti
0.340720 0.916203 0.492287 T T T Ti
0.905762 0.895069 0.498919 T T T Ti
0.100449 0.128850 0.486336 T T T Ti
0.594046 0.092269 0.491131 T T T Ti
0.094237 0.604930 0.498919 T T T Ti
0.659280 0.583797 0.492287 T T T Ti
0.125059 0.875082 0.737762 F F F Ti
0.624826 0.874947 0.737542 F F F Ti
0.375170 0.625033 0.737538 F F F Ti
0.874930 0.624883 0.737764 F F F Ti
0.124923 0.374958 0.737740 F F F Ti
0.624947 0.374925 0.737713 F F F Ti
0.375043 0.125045 0.737712 F F F Ti
0.875068 0.125012 0.737740 F F F Ti
0.500000 0.750000 0.382839 T T T Sn

0.000000 0.000000 0.000000
0.000000 0.000000 0.000000
0.000000 0.000000 0.000000
0.000000 0.000000 0.000000
0.000000 0.000000 0.000000
0.000000 0.000000 0.000000
0.000000 0.000000 0.000000
0.000000 0.000000 0.000000
0.000000 0.000000 0.000000
0.000000 0.000000 0.000000
0.000000 0.000000 0.000000
0.000000 0.000000 0.000000
0.000000 0.000000 0.000000
0.000000 0.000000 0.000000
0.000000 0.000000 0.000000
0.000000 0.000000 0.000000
0.000000 0.000000 0.000000
0.000000 0.000000 0.000000
0.000000 0.000000 0.000000
0.000000 0.000000 0.000000
0.000000 0.000000 0.000000
0.000000 0.000000 0.000000
0.000000 0.000000 0.000000
0.000000 0.000000 0.000000
0.000000 0.000000 0.000000
0.000000 0.000000 0.000000
0.000000 0.000000 0.000000
0.000000 0.000000 0.000000
0.000000 0.000000 0.000000
0.000000 0.000000 0.000000
0.000000 0.000000 0.000000
0.000000 0.000000 0.000000
0.000000 0.000000 0.000000
0.000000 0.000000 0.000000
0.000000 0.000000 0.000000
0.000000 0.000000 0.000000
0.000000 0.000000 0.000000
0.000000 0.000000 0.000000
0.000000 0.000000 0.000000
0.000000 0.000000 0.000000
0.000000 0.000000 0.000000
0.000000 0.000000 0.000000
0.000000 0.000000 0.000000
0.000000 0.000000 0.000000
0.000000 0.000000 0.000000
0.000000 0.000000 0.000000
0.000000 0.000000 0.000000
0.000000 0.000000 0.000000
0.000000 0.000000 0.000000
0.000000 0.000000 0.000000
0.000000 0.000000 0.000000
0.000000 0.000000 0.000000
0.000000 0.000000 0.000000
0.000000 0.000000 0.000000
0.000000 0.000000 0.000000
0.000000 0.000000 0.000000
0.000000 0.000000 0.000000
0.000000 0.000000 0.000000
0.000000 0.000000 0.000000
0.000000 0.000000 0.000000
0.000000 0.000000 0.000000
0.000000 0.000000 0.000000
0.000000 0.000000 0.000000
0.000000 0.000000 0.000000
0.000000 0.000000 0.000000
0.000000 0.000000 0.000000
0.000000 0.000000 0.000000
0.000000 0.000000 0.000000
0.000000 0.000000 0.000000
0.000000 0.000000 0.000000
0.000000 0.000000 0.000000
0.000000 0.000000 0.000000
0.000000 0.000000 0.000000
0.000000 0.000000 0.000000
0.000000 0.000000 0.000000
0.000000 0.000000 0.000000
0.000000 0.000000 0.000000
0.000000 0.000000 0.000000
0.000000 0.000000 0.000000
0.000000 0.000000 0.000000
0.000000 0.000000 0.000000
0.000000 0.000000 0.000000
0.000000 0.000000 0.000000
0.000000 0.000000 0.000000
0.000000 0.000000 0.000000
0.000000 0.000000 0.000000
0.000000 0.000000 0.000000
0.000000 0.000000 0.000000
0.000000 0.000000 0.000000
0.000000 0.000000 0.000000
0.000000 0.000000 0.000000
0.000000 0.000000 0.000000
0.000000 0.000000 0.000000
0.000000 0.000000 0.000000
0.000000 0.000000 0.000000
0.000000 0.000000 0.000000
0.000000 0.000000 0.000000
