total_Ti
1.0
6.309760 0.000000 0.000000
0.000000 9.464640 0.000000
0.000000 0.000000 17.000004
Ti
68
direct
0.875000 0.041667 0.500000 Ti
0.375000 0.041667 0.500000 Ti
0.875000 0.041667 0.676471 Ti
0.375000 0.041667 0.676471 Ti
0.875000 0.041667 0.852941 Ti
0.375000 0.041667 0.852941 Ti
0.875000 0.375000 0.500000 Ti
0.375000 0.375000 0.500000 Ti
0.875000 0.375000 0.676471 Ti
0.375000 0.375000 0.676471 Ti
0.875000 0.375000 0.852941 Ti
0.375000 0.375000 0.852941 Ti
0.875000 0.708333 0.500000 Ti
0.375000 0.708333 0.500000 Ti
0.875000 0.708333 0.676471 Ti
0.375000 0.708333 0.676471 Ti
0.875000 0.708333 0.852941 Ti
0.375000 0.708333 0.852941 Ti
0.125000 0.208333 0.588235 Ti
0.625000 0.208333 0.588235 Ti
0.125000 0.208333 0.764706 Ti
0.625000 0.208333 0.764706 Ti
0.125000 0.208333 0.941176 Ti
0.625000 0.208333 0.941176 Ti
0.125000 0.541667 0.588235 Ti
0.625000 0.541667 0.588235 Ti
0.125000 0.541667 0.764706 Ti
0.625000 0.541667 0.764706 Ti
0.125000 0.541667 0.941176 Ti
0.625000 0.541667 0.941176 Ti
0.125000 0.875000 0.588235 Ti
0.625000 0.875000 0.588235 Ti
0.125000 0.875000 0.764706 Ti
0.625000 0.875000 0.764706 Ti
0.125000 0.875000 0.941176 Ti
0.625000 0.875000 0.941176 Ti
0.125000 0.625000 0.397059 Ti
0.625000 0.625000 0.397059 Ti
0.125000 0.625000 0.132353 Ti
0.625000 0.625000 0.132353 Ti
0.125000 0.125000 0.397059 Ti
0.625000 0.125000 0.397059 Ti
0.125000 0.125000 0.132353 Ti
0.625000 0.125000 0.132353 Ti
0.125000 0.375000 0.044118 Ti
0.625000 0.375000 0.044118 Ti
0.125000 0.875000 0.044118 Ti
0.625000 0.875000 0.044118 Ti
0.125000 0.375000 0.308824 Ti
0.625000 0.375000 0.308824 Ti
0.125000 0.875000 0.308824 Ti
0.625000 0.875000 0.308824 Ti
0.375000 0.875000 0.176471 Ti
0.875000 0.875000 0.176471 Ti
0.374999 0.375000 0.176471 Ti
0.874999 0.375000 0.176471 Ti
0.375000 0.375000 0.441176 Ti
0.875000 0.375000 0.441176 Ti
0.375000 0.875000 0.441176 Ti
0.875000 0.875000 0.441176 Ti
0.375000 0.625000 0.264706 Ti
0.875000 0.625000 0.264706 Ti
0.375000 0.625000 -0.000000 Ti
0.875000 0.625000 -0.000000 Ti
0.375000 0.125000 0.264706 Ti
0.875000 0.125000 0.264706 Ti
0.375000 0.125000 -0.000000 Ti
0.875000 0.125000 -0.000000 Ti
