Ti66 Nb1
1.0
6.309760 0.000000 0.000000
0.000000 9.464640 0.000000
0.000000 0.000000 18.918326
Ti Nb
66 1
Selective dynamics
direct
0.634747 0.039627 0.499562 F F F Ti
0.123506 0.040817 0.659604 F F F Ti
0.625076 0.041277 0.658843 F F F Ti
0.124927 0.041637 0.817343 F F F Ti
0.624830 0.041656 0.817297 F F F Ti
0.121948 0.380153 0.499546 F F F Ti
0.625428 0.375719 0.499809 F F F Ti
0.124641 0.375089 0.658670 F F F Ti
0.624176 0.375199 0.658773 F F F Ti
0.125009 0.374951 0.817244 F F F Ti
0.624834 0.374979 0.817268 F F F Ti
0.125091 0.708768 0.500094 F F F Ti
0.625551 0.707885 0.499919 F F F Ti
0.124896 0.707964 0.658865 F F F Ti
0.625384 0.707822 0.658958 F F F Ti
0.124972 0.708220 0.817323 F F F Ti
0.624918 0.708190 0.817356 F F F Ti
0.870237 0.209915 0.580117 F F F Ti
0.374829 0.208238 0.737894 F F F Ti
0.874555 0.208443 0.738117 F F F Ti
0.374992 0.208343 0.896492 F F F Ti
0.874928 0.208359 0.896524 F F F Ti
0.375130 0.541722 0.579410 F F F Ti
0.874201 0.542226 0.579573 F F F Ti
0.374883 0.541528 0.738020 F F F Ti
0.874957 0.541525 0.738085 F F F Ti
0.374979 0.541591 0.896527 F F F Ti
0.874970 0.541592 0.896539 F F F Ti
0.377767 0.872164 0.580075 F F F Ti
0.875182 0.874201 0.579751 F F F Ti
0.375126 0.874748 0.738136 F F F Ti
0.874581 0.874677 0.738184 F F F Ti
0.375004 0.874972 0.896544 F F F Ti
0.874921 0.874970 0.896558 F F F Ti
0.125072 0.625780 0.356844 F F F Ti
0.624797 0.625488 0.356752 F F F Ti
0.125027 0.625075 0.118951 F F F Ti
0.624989 0.625063 0.118945 F F F Ti
0.125048 0.125331 0.356407 F F F Ti
0.626123 0.125092 0.356488 F F F Ti
0.125040 0.125036 0.118911 F F F Ti
0.625012 0.125032 0.118896 F F F Ti
0.125012 0.375016 0.039677 F F F Ti
0.624960 0.375021 0.039672 F F F Ti
0.125006 0.875029 0.039686 F F F Ti
0.624961 0.875020 0.039681 F F F Ti
0.124970 0.375292 0.277389 F F F Ti
0.625087 0.375219 0.277322 F F F Ti
0.125141 0.875167 0.277453 F F F Ti
0.625253 0.875056 0.277398 F F F Ti
0.375036 0.875044 0.158549 F F F Ti
0.875035 0.875027 0.158542 F F F Ti
0.375009 0.375089 0.158536 F F F Ti
0.875025 0.375101 0.158518 F F F Ti
0.375321 0.376073 0.396090 F F F Ti
0.874196 0.375582 0.396076 F F F Ti
0.375872 0.874787 0.396293 F F F Ti
0.875943 0.874876 0.396308 F F F Ti
0.374978 0.625211 0.237870 F F F Ti
0.875104 0.625186 0.237871 F F F Ti
0.374986 0.625032 0.000032 F F F Ti
0.875005 0.625030 0.000041 F F F Ti
0.375160 0.125090 0.237780 F F F Ti
0.875080 0.125082 0.237724 F F F Ti
0.375005 0.125008 0.000017 F F F Ti
0.875000 0.125001 0.000032 F F F Ti
0.244485 0.120617 0.522156 T T T Nb

0.000000 0.000000 0.000000
0.000000 0.000000 0.000000
0.000000 0.000000 0.000000
0.000000 0.000000 0.000000
0.000000 0.000000 0.000000
0.000000 0.000000 0.000000
0.000000 0.000000 0.000000
0.000000 0.000000 0.000000
0.000000 0.000000 0.000000
0.000000 0.000000 0.000000
0.000000 0.000000 0.000000
0.000000 0.000000 0.000000
0.000000 0.000000 0.000000
0.000000 0.000000 0.000000
0.000000 0.000000 0.000000
0.000000 0.000000 0.000000
0.000000 0.000000 0.000000
0.000000 0.000000 0.000000
0.000000 0.000000 0.000000
0.000000 0.000000 0.000000
0.000000 0.000000 0.000000
0.000000 0.000000 0.000000
0.000000 0.000000 0.000000
0.000000 0.000000 0.000000
0.000000 0.000000 0.000000
0.000000 0.000000 0.000000
0.000000 0.000000 0.000000
0.000000 0.000000 0.000000
0.000000 0.000000 0.000000
0.000000 0.000000 0.000000
0.000000 0.000000 0.000000
0.000000 0.000000 0.000000
0.000000 0.000000 0.000000
0.000000 0.000000 0.000000
0.000000 0.000000 0.000000
0.000000 0.000000 0.000000
0.000000 0.000000 0.000000
0.000000 0.000000 0.000000
0.000000 0.000000 0.000000
0.000000 0.000000 0.000000
0.000000 0.000000 0.000000
0.000000 0.000000 0.000000
0.000000 0.000000 0.000000
0.000000 0.000000 0.000000
0.000000 0.000000 0.000000
0.000000 0.000000 0.000000
0.000000 0.000000 0.000000
0.000000 0.000000 0.000000
0.000000 0.000000 0.000000
0.000000 0.000000 0.000000
0.000000 0.000000 0.000000
0.000000 0.000000 0.000000
0.000000 0.000000 0.000000
0.000000 0.000000 0.000000
0.000000 0.000000 0.000000
0.000000 0.000000 0.000000
0.000000 0.000000 0.000000
0.000000 0.000000 0.000000
0.000000 0.000000 0.000000
0.000000 0.000000 0.000000
0.000000 0.000000 0.000000
0.000000 0.000000 0.000000
0.000000 0.000000 0.000000
0.000000 0.000000 0.000000
0.000000 0.000000 0.000000
0.000000 0.000000 0.000000
0.000000 0.000000 0.000000
