total_Ti
1.0
8.805261 0.000000 0.000000
-4.402631 7.625580 0.000000
0.000000 0.000000 30.883422
Ti
90
direct
0.967272 0.027818 0.566212 Ti
0.967272 0.527818 0.566212 Ti
0.467272 0.027818 0.566212 Ti
0.467272 0.527818 0.566212 Ti
0.133938 0.361151 0.775782 Ti
0.133938 0.861151 0.775782 Ti
0.633938 0.361151 0.775782 Ti
0.633938 0.861151 0.775782 Ti
0.300605 0.194485 0.805720 Ti
0.300605 0.694485 0.805720 Ti
0.800605 0.194485 0.805720 Ti
0.800605 0.694485 0.805720 Ti
0.133938 0.361151 0.596150 Ti
0.133938 0.861151 0.596150 Ti
0.633938 0.361151 0.596150 Ti
0.633938 0.861151 0.596150 Ti
0.300605 0.194485 0.626089 Ti
0.300605 0.694485 0.626089 Ti
0.800605 0.194485 0.626089 Ti
0.800605 0.694485 0.626089 Ti
0.967272 0.027818 0.656027 Ti
0.967272 0.527818 0.656027 Ti
0.467272 0.027818 0.656027 Ti
0.467272 0.527818 0.656027 Ti
0.133938 0.361151 0.685966 Ti
0.133938 0.861151 0.685966 Ti
0.633938 0.361151 0.685966 Ti
0.633938 0.861151 0.685966 Ti
0.300605 0.194485 0.715905 Ti
0.300605 0.694485 0.715905 Ti
0.800605 0.194485 0.715905 Ti
0.800605 0.694485 0.715905 Ti
0.967272 0.027818 0.745843 Ti
0.967272 0.527818 0.745843 Ti
0.467272 0.027818 0.745843 Ti
0.467272 0.527818 0.745843 Ti
0.111111 0.888889 -0.000000 Ti
0.111111 0.888889 0.297546 Ti
0.111111 0.555556 -0.000000 Ti
0.222222 0.777778 0.074387 Ti
0.111111 0.555556 0.297546 Ti
0.444444 0.888889 -0.000000 Ti
0.111111 0.222222 -0.000000 Ti
0.222222 0.777778 0.371933 Ti
0.222222 0.444444 0.074387 Ti
0.444444 0.888889 0.297546 Ti
0.111111 0.222222 0.297546 Ti
0.444444 0.555556 -0.000000 Ti
0.222222 0.444444 0.371933 Ti
0.555556 0.777778 0.074387 Ti
0.222222 0.111111 0.074387 Ti
0.444444 0.555556 0.297546 Ti
0.777778 0.888889 -0.000000 Ti
0.444444 0.222222 -0.000000 Ti
0.555556 0.777778 0.371933 Ti
0.222222 0.111111 0.371933 Ti
0.555556 0.444444 0.074387 Ti
0.777778 0.888889 0.297546 Ti
0.444444 0.222222 0.297546 Ti
0.777778 0.555556 -0.000000 Ti
0.555556 0.444444 0.371933 Ti
0.888889 0.777778 0.074387 Ti
0.555556 0.111111 0.074387 Ti
0.777778 0.555556 0.297546 Ti
0.777778 0.222222 -0.000000 Ti
0.888889 0.777778 0.371933 Ti
0.555556 0.111111 0.371933 Ti
0.888889 0.444444 0.074387 Ti
0.777778 0.222222 0.297546 Ti
0.888889 0.444444 0.371933 Ti
0.888889 0.111111 0.074387 Ti
0.888889 0.111111 0.371933 Ti
0.111111 0.888889 0.148773 Ti
0.111111 0.555556 0.148773 Ti
0.222222 0.777778 0.223160 Ti
0.444444 0.888889 0.148773 Ti
0.111111 0.222222 0.148773 Ti
0.222222 0.444444 0.223160 Ti
0.444444 0.555556 0.148773 Ti
0.555556 0.777778 0.223160 Ti
0.222222 0.111111 0.223160 Ti
0.777778 0.888889 0.148773 Ti
0.444444 0.222222 0.148773 Ti
0.555556 0.444444 0.223160 Ti
0.777778 0.555556 0.148773 Ti
0.888889 0.777778 0.223160 Ti
0.555556 0.111111 0.223160 Ti
0.777778 0.222222 0.148773 Ti
0.888889 0.444444 0.223160 Ti
0.888889 0.111111 0.223160 Ti
