Ti96 Al1
1.0
9.513020 0.000000 0.000000
0.000000 9.350860 0.000000
0.000000 0.000000 18.547230
Ti Al
96 1
Selective dynamics
direct
0.133732 0.361669 0.404712 T T T Ti
0.655136 0.362791 0.394751 T T T Ti
0.166326 0.864961 0.399028 T T T Ti
0.677685 0.907460 0.399150 T T T Ti
0.161294 0.377132 0.237606 T T T Ti
0.662072 0.374096 0.233001 T T T Ti
0.162922 0.875740 0.235090 T T T Ti
0.663077 0.872679 0.235980 T T T Ti
0.166664 0.375028 0.077669 F F F Ti
0.666670 0.375000 0.077696 F F F Ti
0.166691 0.875010 0.077720 F F F Ti
0.666648 0.875003 0.077742 F F F Ti
0.406885 0.374552 0.312557 T T T Ti
0.907886 0.375863 0.315009 T T T Ti
0.411172 0.881016 0.316562 T T T Ti
0.913672 0.876676 0.317926 T T T Ti
0.416687 0.375007 0.155306 F F F Ti
0.916640 0.374984 0.155258 F F F Ti
0.416662 0.875087 0.155390 F F F Ti
0.916684 0.874972 0.155279 F F F Ti
0.416690 0.375040 0.000093 F F F Ti
0.916615 0.375034 0.000057 F F F Ti
0.416685 0.874970 0.000160 F F F Ti
0.916644 0.874975 0.000093 F F F Ti
0.092114 0.124138 0.315008 T T T Ti
0.593115 0.125449 0.312556 T T T Ti
0.086328 0.623325 0.317925 T T T Ti
0.588828 0.618985 0.316561 T T T Ti
0.083360 0.125033 0.155258 F F F Ti
0.583313 0.125009 0.155306 F F F Ti
0.083316 0.625043 0.155278 F F F Ti
0.583339 0.624923 0.155390 F F F Ti
0.083386 0.124973 0.000059 F F F Ti
0.583311 0.124966 0.000095 F F F Ti
0.083358 0.625031 0.000092 F F F Ti
0.583316 0.625028 0.000158 F F F Ti
0.344863 0.137209 0.394751 T T T Ti
0.866267 0.138331 0.404712 T T T Ti
0.322314 0.592540 0.399150 T T T Ti
0.833673 0.635039 0.399028 T T T Ti
0.337927 0.125907 0.233001 T T T Ti
0.838705 0.122871 0.237606 T T T Ti
0.336922 0.627324 0.235980 T T T Ti
0.837078 0.624264 0.235090 T T T Ti
0.333330 0.125012 0.077697 F F F Ti
0.833336 0.124986 0.077670 F F F Ti
0.333351 0.625007 0.077742 F F F Ti
0.833308 0.625000 0.077720 F F F Ti
0.374980 0.375081 0.823958 F F F Ti
0.874924 0.375073 0.823943 F F F Ti
0.375004 0.874901 0.823957 F F F Ti
0.875122 0.874995 0.823929 F F F Ti
0.125078 0.124922 0.823947 F F F Ti
0.625024 0.124922 0.823960 F F F Ti
0.124889 0.625006 0.823930 F F F Ti
0.625001 0.625081 0.823954 F F F Ti
0.124961 0.375029 0.910205 F F F Ti
0.624995 0.375033 0.910203 F F F Ti
0.125021 0.874955 0.910219 F F F Ti
0.624999 0.874980 0.910234 F F F Ti
0.375011 0.124968 0.910207 F F F Ti
0.875044 0.124971 0.910206 F F F Ti
0.375005 0.625015 0.910232 F F F Ti
0.874984 0.625044 0.910216 F F F Ti
0.388448 0.397270 0.656497 T T T Ti
0.893643 0.381371 0.649231 T T T Ti
0.382523 0.884100 0.658639 T T T Ti
0.888284 0.882846 0.661360 T T T Ti
0.106357 0.118624 0.649232 T T T Ti
0.611549 0.102724 0.656498 T T T Ti
0.111713 0.617149 0.661360 T T T Ti
0.617474 0.615896 0.658638 T T T Ti
0.143647 0.380112 0.567750 T T T Ti
0.643379 0.346106 0.584692 T T T Ti
0.138602 0.855736 0.576553 T T T Ti
0.656746 0.875331 0.564916 T T T Ti
0.356620 0.153891 0.584693 T T T Ti
0.856352 0.119886 0.567750 T T T Ti
0.343253 0.624668 0.564915 T T T Ti
0.861398 0.644263 0.576552 T T T Ti
0.402140 0.368274 0.487583 T T T Ti
0.886719 0.378306 0.492433 T T T Ti
0.361686 0.941549 0.497225 T T T Ti
0.915818 0.878977 0.480599 T T T Ti
0.113281 0.121694 0.492434 T T T Ti
0.597859 0.131725 0.487583 T T T Ti
0.084181 0.621022 0.480599 T T T Ti
0.638314 0.558451 0.497224 T T T Ti
0.125290 0.874721 0.737729 F F F Ti
0.625202 0.874690 0.737820 F F F Ti
0.374785 0.625284 0.737815 F F F Ti
0.874702 0.625261 0.737727 F F F Ti
0.124534 0.374951 0.737780 F F F Ti
0.625145 0.375203 0.737758 F F F Ti
0.374847 0.124777 0.737765 F F F Ti
0.875456 0.125027 0.737775 F F F Ti
0.500000 0.750000 0.466696 T T T Al

0.000000 0.000000 0.000000
0.000000 0.000000 0.000000
0.000000 0.000000 0.000000
0.000000 0.000000 0.000000
0.000000 0.000000 0.000000
0.000000 0.000000 0.000000
0.000000 0.000000 0.000000
0.000000 0.000000 0.000000
0.000000 0.000000 0.000000
0.000000 0.000000 0.000000
0.000000 0.000000 0.000000
0.000000 0.000000 0.000000
0.000000 0.000000 0.000000
0.000000 0.000000 0.000000
0.000000 0.000000 0.000000
0.000000 0.000000 0.000000
0.000000 0.000000 0.000000
0.000000 0.000000 0.000000
0.000000 0.000000 0.000000
0.000000 0.000000 0.000000
0.000000 0.000000 0.000000
0.000000 0.000000 0.000000
0.000000 0.000000 0.000000
0.000000 0.000000 0.000000
0.000000 0.000000 0.000000
0.000000 0.000000 0.000000
0.000000 0.000000 0.000000
0.000000 0.000000 0.000000
0.000000 0.000000 0.000000
0.000000 0.000000 0.000000
0.000000 0.000000 0.000000
0.000000 0.000000 0.000000
0.000000 0.000000 0.000000
0.000000 0.000000 0.000000
0.000000 0.000000 0.000000
0.000000 0.000000 0.000000
0.000000 0.000000 0.000000
0.000000 0.000000 0.000000
0.000000 0.000000 0.000000
0.000000 0.000000 0.000000
0.000000 0.000000 0.000000
0.000000 0.000000 0.000000
0.000000 0.000000 0.000000
0.000000 0.000000 0.000000
0.000000 0.000000 0.000000
0.000000 0.000000 0.000000
0.000000 0.000000 0.000000
0.000000 0.000000 0.000000
0.000000 0.000000 0.000000
0.000000 0.000000 0.000000
0.000000 0.000000 0.000000
0.000000 0.000000 0.000000
0.000000 0.000000 0.000000
0.000000 0.000000 0.000000
0.000000 0.000000 0.000000
0.000000 0.000000 0.000000
0.000000 0.000000 0.000000
0.000000 0.000000 0.000000
0.000000 0.000000 0.000000
0.000000 0.000000 0.000000
0.000000 0.000000 0.000000
0.000000 0.000000 0.000000
0.000000 0.000000 0.000000
0.000000 0.000000 0.000000
0.000000 0.000000 0.000000
0.000000 0.000000 0.000000
0.000000 0.000000 0.000000
0.000000 0.000000 0.000000
0.000000 0.000000 0.000000
0.000000 0.000000 0.000000
0.000000 0.000000 0.000000
0.000000 0.000000 0.000000
0.000000 0.000000 0.000000
0.000000 0.000000 0.000000
0.000000 0.000000 0.000000
0.000000 0.000000 0.000000
0.000000 0.000000 0.000000
0.000000 0.000000 0.000000
0.000000 0.000000 0.000000
0.000000 0.000000 0.000000
0.000000 0.000000 0.000000
0.000000 0.000000 0.000000
0.000000 0.000000 0.000000
0.000000 0.000000 0.000000
0.000000 0.000000 0.000000
0.000000 0.000000 0.000000
0.000000 0.000000 0.000000
0.000000 0.000000 0.000000
0.000000 0.000000 0.000000
0.000000 0.000000 0.000000
0.000000 0.000000 0.000000
0.000000 0.000000 0.000000
0.000000 0.000000 0.000000
0.000000 0.000000 0.000000
0.000000 0.000000 0.000000
0.000000 0.000000 0.000000
0.000000 0.000000 0.000000
