beta_Ti
1.0
8.805261 0.000000 0.000000
-4.402631 7.625580 0.000000
0.000000 0.000000 22.183422
Ti
36
direct
0.083333 0.916670 0.592179 Ti
0.083333 0.416670 0.592179 Ti
0.583333 0.916670 0.592179 Ti
0.583333 0.416670 0.592179 Ti
0.250000 0.250004 0.883939 Ti
0.250000 0.750004 0.883939 Ti
0.750000 0.250004 0.883939 Ti
0.750000 0.750004 0.883939 Ti
0.416667 0.083337 0.925619 Ti
0.416667 0.583337 0.925619 Ti
0.916667 0.083337 0.925619 Ti
0.916667 0.583337 0.925619 Ti
0.250000 0.250004 0.633859 Ti
0.250000 0.750004 0.633859 Ti
0.750000 0.250004 0.633859 Ti
0.750000 0.750004 0.633859 Ti
0.416667 0.083337 0.675539 Ti
0.416667 0.583337 0.675539 Ti
0.916667 0.083337 0.675539 Ti
0.916667 0.583337 0.675539 Ti
0.083333 0.916670 0.717219 Ti
0.083333 0.416670 0.717219 Ti
0.583333 0.916670 0.717219 Ti
0.583333 0.416670 0.717219 Ti
0.250000 0.250004 0.758899 Ti
0.250000 0.750004 0.758899 Ti
0.750000 0.250004 0.758899 Ti
0.750000 0.750004 0.758899 Ti
0.416667 0.083337 0.800579 Ti
0.416667 0.583337 0.800579 Ti
0.916667 0.083337 0.800579 Ti
0.916667 0.583337 0.800579 Ti
0.083333 0.916670 0.842259 Ti
0.083333 0.416670 0.842259 Ti
0.583333 0.916670 0.842259 Ti
0.583333 0.416670 0.842259 Ti
