Ti66 Al1
1.0
6.309760 0.000000 0.000000
0.000000 9.464640 0.000000
0.000000 0.000000 18.918326
Ti Al
66 1
Selective dynamics
direct
0.124727 0.041456 0.500238 F F F Ti
0.624909 0.041650 0.500065 F F F Ti
0.124961 0.041659 0.658637 F F F Ti
0.624904 0.041665 0.658619 F F F Ti
0.125014 0.041687 0.817128 F F F Ti
0.624965 0.041686 0.817130 F F F Ti
0.123129 0.374958 0.500425 F F F Ti
0.623759 0.374987 0.500142 F F F Ti
0.124883 0.375007 0.658633 F F F Ti
0.624816 0.375009 0.658606 F F F Ti
0.125012 0.375008 0.817113 F F F Ti
0.624942 0.375007 0.817116 F F F Ti
0.124742 0.708569 0.500203 F F F Ti
0.624849 0.708400 0.500041 F F F Ti
0.124952 0.708352 0.658631 F F F Ti
0.624879 0.708351 0.658615 F F F Ti
0.125008 0.708320 0.817128 F F F Ti
0.624955 0.708321 0.817130 F F F Ti
0.374768 0.208307 0.579303 F F F Ti
0.874547 0.208241 0.579414 F F F Ti
0.374983 0.208334 0.737863 F F F Ti
0.874935 0.208332 0.737887 F F F Ti
0.375003 0.208346 0.896404 F F F Ti
0.875004 0.208347 0.896397 F F F Ti
0.374758 0.541700 0.579286 F F F Ti
0.874559 0.541770 0.579398 F F F Ti
0.374979 0.541669 0.737860 F F F Ti
0.874935 0.541673 0.737885 F F F Ti
0.375001 0.541660 0.896406 F F F Ti
0.875000 0.541658 0.896399 F F F Ti
0.375034 0.875011 0.579350 F F F Ti
0.874781 0.875010 0.579405 F F F Ti
0.374995 0.875002 0.737881 F F F Ti
0.874953 0.875001 0.737895 F F F Ti
0.375003 0.875004 0.896404 F F F Ti
0.874996 0.875005 0.896399 F F F Ti
0.121274 0.628867 0.356922 F F F Ti
0.626076 0.625956 0.356582 F F F Ti
0.125191 0.625086 0.118819 F F F Ti
0.625185 0.625074 0.118749 F F F Ti
0.121094 0.120965 0.356982 F F F Ti
0.626410 0.124009 0.356595 F F F Ti
0.125183 0.124945 0.118805 F F F Ti
0.625239 0.124951 0.118732 F F F Ti
0.125236 0.375007 0.039537 F F F Ti
0.625111 0.375008 0.039525 F F F Ti
0.124998 0.875022 0.039542 F F F Ti
0.625019 0.875019 0.039518 F F F Ti
0.632610 0.374975 0.276139 F F F Ti
0.124875 0.875162 0.277245 F F F Ti
0.624849 0.875118 0.277341 F F F Ti
0.375095 0.875053 0.158382 F F F Ti
0.874899 0.874993 0.158388 F F F Ti
0.375375 0.375005 0.158469 F F F Ti
0.876112 0.375008 0.158211 F F F Ti
0.869898 0.375033 0.396932 F F F Ti
0.375311 0.875283 0.396502 F F F Ti
0.873983 0.875076 0.396615 F F F Ti
0.375533 0.625771 0.237594 F F F Ti
0.875161 0.625456 0.237582 F F F Ti
0.375016 0.625015 -0.000063 F F F Ti
0.875068 0.625022 -0.000078 F F F Ti
0.375529 0.124254 0.237584 F F F Ti
0.875168 0.124572 0.237578 F F F Ti
0.375023 0.124998 -0.000066 F F F Ti
0.875072 0.124988 -0.000079 F F F Ti
0.297303 0.374150 0.353328 T T T Al

0.000000 0.000000 0.000000
0.000000 0.000000 0.000000
0.000000 0.000000 0.000000
0.000000 0.000000 0.000000
0.000000 0.000000 0.000000
0.000000 0.000000 0.000000
0.000000 0.000000 0.000000
0.000000 0.000000 0.000000
0.000000 0.000000 0.000000
0.000000 0.000000 0.000000
0.000000 0.000000 0.000000
0.000000 0.000000 0.000000
0.000000 0.000000 0.000000
0.000000 0.000000 0.000000
0.000000 0.000000 0.000000
0.000000 0.000000 0.000000
0.000000 0.000000 0.000000
0.000000 0.000000 0.000000
0.000000 0.000000 0.000000
0.000000 0.000000 0.000000
0.000000 0.000000 0.000000
0.000000 0.000000 0.000000
0.000000 0.000000 0.000000
0.000000 0.000000 0.000000
0.000000 0.000000 0.000000
0.000000 0.000000 0.000000
0.000000 0.000000 0.000000
0.000000 0.000000 0.000000
0.000000 0.000000 0.000000
0.000000 0.000000 0.000000
0.000000 0.000000 0.000000
0.000000 0.000000 0.000000
0.000000 0.000000 0.000000
0.000000 0.000000 0.000000
0.000000 0.000000 0.000000
0.000000 0.000000 0.000000
0.000000 0.000000 0.000000
0.000000 0.000000 0.000000
0.000000 0.000000 0.000000
0.000000 0.000000 0.000000
0.000000 0.000000 0.000000
0.000000 0.000000 0.000000
0.000000 0.000000 0.000000
0.000000 0.000000 0.000000
0.000000 0.000000 0.000000
0.000000 0.000000 0.000000
0.000000 0.000000 0.000000
0.000000 0.000000 0.000000
0.000000 0.000000 0.000000
0.000000 0.000000 0.000000
0.000000 0.000000 0.000000
0.000000 0.000000 0.000000
0.000000 0.000000 0.000000
0.000000 0.000000 0.000000
0.000000 0.000000 0.000000
0.000000 0.000000 0.000000
0.000000 0.000000 0.000000
0.000000 0.000000 0.000000
0.000000 0.000000 0.000000
0.000000 0.000000 0.000000
0.000000 0.000000 0.000000
0.000000 0.000000 0.000000
0.000000 0.000000 0.000000
0.000000 0.000000 0.000000
0.000000 0.000000 0.000000
0.000000 0.000000 0.000000
0.000000 0.000000 0.000000
