total_Ti
1.0
9.588310 0.000000 0.000000
0.000000 9.588310 0.000000
0.000000 0.000000 20.000006
Ti
102
direct
0.083333 0.083333 0.500000 Ti
0.083333 0.083333 0.650000 Ti
0.083333 0.083333 0.799999 Ti
0.083333 0.416667 0.500000 Ti
0.083333 0.416667 0.650000 Ti
0.083333 0.416667 0.799999 Ti
0.083333 0.750000 0.500000 Ti
0.083333 0.750000 0.650000 Ti
0.083333 0.750000 0.799999 Ti
0.416667 0.083333 0.500000 Ti
0.416667 0.083333 0.650000 Ti
0.416667 0.083333 0.799999 Ti
0.416667 0.416667 0.500000 Ti
0.416667 0.416667 0.650000 Ti
0.416667 0.416667 0.799999 Ti
0.416667 0.750000 0.500000 Ti
0.416667 0.750000 0.650000 Ti
0.416667 0.750000 0.799999 Ti
0.750000 0.083333 0.500000 Ti
0.750000 0.083333 0.650000 Ti
0.750000 0.083333 0.799999 Ti
0.750000 0.416667 0.500000 Ti
0.750000 0.416667 0.650000 Ti
0.750000 0.416667 0.799999 Ti
0.750000 0.750000 0.500000 Ti
0.750000 0.750000 0.650000 Ti
0.750000 0.750000 0.799999 Ti
0.250000 0.250000 0.575000 Ti
0.250000 0.250000 0.725000 Ti
0.250000 0.250000 0.875000 Ti
0.250000 0.583333 0.575000 Ti
0.250000 0.583333 0.725000 Ti
0.250000 0.583333 0.875000 Ti
0.250000 0.916667 0.575000 Ti
0.250000 0.916667 0.725000 Ti
0.250000 0.916667 0.875000 Ti
0.583333 0.250000 0.575000 Ti
0.583333 0.250000 0.725000 Ti
0.583333 0.250000 0.875000 Ti
0.583333 0.583333 0.575000 Ti
0.583333 0.583333 0.725000 Ti
0.583333 0.583333 0.875000 Ti
0.583333 0.916667 0.575000 Ti
0.583333 0.916667 0.725000 Ti
0.583333 0.916667 0.875000 Ti
0.916667 0.250000 0.575000 Ti
0.916667 0.250000 0.725000 Ti
0.916667 0.250000 0.875000 Ti
0.916667 0.583333 0.575000 Ti
0.916667 0.583333 0.725000 Ti
0.916667 0.583333 0.875000 Ti
0.916667 0.916667 0.575000 Ti
0.916667 0.916667 0.725000 Ti
0.916667 0.916667 0.875000 Ti
0.125000 0.833333 -0.000000 Ti
0.125000 0.333333 -0.000000 Ti
0.625000 0.833333 -0.000000 Ti
0.625000 0.333333 -0.000000 Ti
0.375000 0.666667 -0.000000 Ti
0.375000 0.166667 -0.000000 Ti
0.875000 0.666667 -0.000000 Ti
0.875000 0.166667 -0.000000 Ti
0.875000 0.416667 0.075000 Ti
0.375000 0.416667 0.075000 Ti
0.875000 0.916667 0.075000 Ti
0.375000 0.916667 0.075000 Ti
0.625000 0.083333 0.075000 Ti
0.125000 0.083333 0.075000 Ti
0.625000 0.583333 0.075000 Ti
0.125000 0.583333 0.075000 Ti
0.125000 0.333333 0.150000 Ti
0.625000 0.333333 0.150000 Ti
0.625000 0.833333 0.150000 Ti
0.125000 0.833333 0.150000 Ti
0.875000 0.666667 0.150000 Ti
0.375000 0.166667 0.150000 Ti
0.875000 0.166667 0.150000 Ti
0.375000 0.666667 0.150000 Ti
0.875000 0.416667 0.225000 Ti
0.375000 0.416667 0.225000 Ti
0.875000 0.916667 0.225000 Ti
0.375000 0.916667 0.225000 Ti
0.125000 0.583333 0.225000 Ti
0.625000 0.083333 0.225000 Ti
0.125000 0.083333 0.225000 Ti
0.625000 0.583333 0.225000 Ti
0.625000 0.833333 0.299999 Ti
0.625000 0.333333 0.299999 Ti
0.125000 0.833333 0.299999 Ti
0.125000 0.333333 0.299999 Ti
0.375000 0.166667 0.299999 Ti
0.875000 0.166667 0.299999 Ti
0.375000 0.666667 0.299999 Ti
0.875000 0.666667 0.299999 Ti
0.875000 0.416667 0.375000 Ti
0.375000 0.416667 0.375000 Ti
0.375000 0.916667 0.375000 Ti
0.875000 0.916667 0.375000 Ti
0.625000 0.583333 0.375000 Ti
0.625000 0.083333 0.375000 Ti
0.125000 0.583333 0.375000 Ti
0.125000 0.083333 0.375000 Ti
