alpha_Ti
1.0
9.588310 0.000000 0.000000
0.000000 9.588310 0.000000
0.000000 0.000000 19.300006
Ti
48
direct
0.125000 0.833333 -0.000000 Ti
0.125000 0.333333 -0.000000 Ti
0.625000 0.833333 -0.000000 Ti
0.625000 0.333333 -0.000000 Ti
0.375000 0.666667 -0.000000 Ti
0.375000 0.166667 -0.000000 Ti
0.875000 0.666667 -0.000000 Ti
0.875000 0.166667 -0.000000 Ti
0.875000 0.416667 0.077720 Ti
0.375000 0.416667 0.077720 Ti
0.875000 0.916667 0.077720 Ti
0.375000 0.916667 0.077720 Ti
0.625000 0.083333 0.077720 Ti
0.125000 0.083333 0.077720 Ti
0.625000 0.583333 0.077720 Ti
0.125000 0.583333 0.077720 Ti
0.125000 0.333333 0.155441 Ti
0.625000 0.333333 0.155441 Ti
0.625000 0.833333 0.155441 Ti
0.125000 0.833333 0.155441 Ti
0.875000 0.666667 0.155441 Ti
0.375000 0.166667 0.155441 Ti
0.875000 0.166667 0.155441 Ti
0.375000 0.666667 0.155441 Ti
0.875000 0.416667 0.233160 Ti
0.375000 0.416667 0.233160 Ti
0.875000 0.916667 0.233160 Ti
0.375000 0.916667 0.233160 Ti
0.125000 0.583333 0.233160 Ti
0.625000 0.083333 0.233160 Ti
0.125000 0.083333 0.233160 Ti
0.625000 0.583333 0.233160 Ti
0.625000 0.833333 0.310880 Ti
0.625000 0.333333 0.310880 Ti
0.125000 0.833333 0.310880 Ti
0.125000 0.333333 0.310880 Ti
0.375000 0.166667 0.310880 Ti
0.875000 0.166667 0.310880 Ti
0.375000 0.666667 0.310880 Ti
0.875000 0.666667 0.310880 Ti
0.875000 0.416667 0.388601 Ti
0.375000 0.416667 0.388601 Ti
0.375000 0.916667 0.388601 Ti
0.875000 0.916667 0.388601 Ti
0.625000 0.583333 0.388601 Ti
0.625000 0.083333 0.388601 Ti
0.125000 0.583333 0.388601 Ti
0.125000 0.083333 0.388601 Ti
