Ti82 Sn1
1.0
6.391540 0.000000 0.000000
0.000000 9.587310 0.000000
0.000000 0.000000 23.271695
Ti Sn
82 1
Selective dynamics
direct
0.122751 0.083426 0.580935 F F F Ti
0.623590 0.083530 0.580679 F F F Ti
0.124840 0.083364 0.709552 F F F Ti
0.624742 0.083370 0.709526 F F F Ti
0.124984 0.083343 0.838414 F F F Ti
0.624960 0.083343 0.838411 F F F Ti
0.124616 0.417450 0.581065 F F F Ti
0.624943 0.417012 0.580677 F F F Ti
0.124926 0.416744 0.709597 F F F Ti
0.624833 0.416731 0.709558 F F F Ti
0.124986 0.416675 0.838426 F F F Ti
0.624963 0.416674 0.838422 F F F Ti
0.124696 0.750022 0.580761 F F F Ti
0.624735 0.750089 0.580645 F F F Ti
0.124936 0.750076 0.709567 F F F Ti
0.624815 0.750079 0.709558 F F F Ti
0.124986 0.750021 0.838424 F F F Ti
0.624960 0.750022 0.838423 F F F Ti
0.374692 0.250125 0.645053 F F F Ti
0.874369 0.250154 0.645181 F F F Ti
0.374952 0.250009 0.773967 F F F Ti
0.874905 0.250011 0.773990 F F F Ti
0.374993 0.249993 0.902845 F F F Ti
0.874997 0.249994 0.902850 F F F Ti
0.375085 0.583553 0.645147 F F F Ti
0.874641 0.583560 0.645212 F F F Ti
0.374974 0.583376 0.773994 F F F Ti
0.874926 0.583374 0.774005 F F F Ti
0.374989 0.583331 0.902851 F F F Ti
0.874990 0.583332 0.902853 F F F Ti
0.374680 0.916757 0.645021 F F F Ti
0.874420 0.916634 0.645140 F F F Ti
0.374939 0.916698 0.773962 F F F Ti
0.874911 0.916688 0.773982 F F F Ti
0.374985 0.916676 0.902842 F F F Ti
0.874993 0.916675 0.902844 F F F Ti
0.632323 0.167709 0.385432 F F F Ti
0.124429 0.666092 0.386537 F F F Ti
0.626030 0.665838 0.386523 F F F Ti
0.125010 0.166667 -0.000027 F F F Ti
0.624998 0.166665 -0.000030 F F F Ti
0.125011 0.666662 -0.000036 F F F Ti
0.625003 0.666658 -0.000038 F F F Ti
0.125024 0.833324 0.096603 F F F Ti
0.625026 0.833320 0.096594 F F F Ti
0.122270 0.831120 0.483444 F F F Ti
0.624926 0.832531 0.483359 F F F Ti
0.125035 0.333317 0.096630 F F F Ti
0.625013 0.333339 0.096617 F F F Ti
0.118121 0.339145 0.484025 F F F Ti
0.627055 0.335387 0.483338 F F F Ti
0.375248 0.583979 0.483438 F F F Ti
0.873715 0.584357 0.483485 F F F Ti
0.375005 0.583305 0.096604 F F F Ti
0.875069 0.583301 0.096596 F F F Ti
0.375008 0.083341 0.096622 F F F Ti
0.875072 0.083348 0.096613 F F F Ti
0.866961 0.083035 0.483928 F F F Ti
0.375577 0.417608 0.386539 F F F Ti
0.875034 0.417300 0.386489 F F F Ti
0.378353 0.911379 0.384966 F F F Ti
0.874250 0.916010 0.386590 F F F Ti
0.374987 0.416658 -0.000029 F F F Ti
0.875005 0.416656 -0.000030 F F F Ti
0.374994 0.916667 -0.000031 F F F Ti
0.875002 0.916667 -0.000031 F F F Ti
0.375582 0.083224 0.289811 F F F Ti
0.875958 0.083066 0.289799 F F F Ti
0.125112 0.166672 0.193300 F F F Ti
0.625146 0.166648 0.193224 F F F Ti
0.125242 0.333158 0.290056 F F F Ti
0.625300 0.333636 0.289704 F F F Ti
0.374921 0.416625 0.193264 F F F Ti
0.875200 0.416610 0.193248 F F F Ti
0.375041 0.583231 0.289829 F F F Ti
0.875388 0.583213 0.289810 F F F Ti
0.125029 0.666558 0.193211 F F F Ti
0.625094 0.666502 0.193173 F F F Ti
0.124565 0.833041 0.289771 F F F Ti
0.626177 0.832832 0.289572 F F F Ti
0.375014 0.916599 0.193221 F F F Ti
0.875079 0.916641 0.193196 F F F Ti
0.307945 0.106955 0.457428 T T T Sn

0.000000 0.000000 0.000000
0.000000 0.000000 0.000000
0.000000 0.000000 0.000000
0.000000 0.000000 0.000000
0.000000 0.000000 0.000000
0.000000 0.000000 0.000000
0.000000 0.000000 0.000000
0.000000 0.000000 0.000000
0.000000 0.000000 0.000000
0.000000 0.000000 0.000000
0.000000 0.000000 0.000000
0.000000 0.000000 0.000000
0.000000 0.000000 0.000000
0.000000 0.000000 0.000000
0.000000 0.000000 0.000000
0.000000 0.000000 0.000000
0.000000 0.000000 0.000000
0.000000 0.000000 0.000000
0.000000 0.000000 0.000000
0.000000 0.000000 0.000000
0.000000 0.000000 0.000000
0.000000 0.000000 0.000000
0.000000 0.000000 0.000000
0.000000 0.000000 0.000000
0.000000 0.000000 0.000000
0.000000 0.000000 0.000000
0.000000 0.000000 0.000000
0.000000 0.000000 0.000000
0.000000 0.000000 0.000000
0.000000 0.000000 0.000000
0.000000 0.000000 0.000000
0.000000 0.000000 0.000000
0.000000 0.000000 0.000000
0.000000 0.000000 0.000000
0.000000 0.000000 0.000000
0.000000 0.000000 0.000000
0.000000 0.000000 0.000000
0.000000 0.000000 0.000000
0.000000 0.000000 0.000000
0.000000 0.000000 0.000000
0.000000 0.000000 0.000000
0.000000 0.000000 0.000000
0.000000 0.000000 0.000000
0.000000 0.000000 0.000000
0.000000 0.000000 0.000000
0.000000 0.000000 0.000000
0.000000 0.000000 0.000000
0.000000 0.000000 0.000000
0.000000 0.000000 0.000000
0.000000 0.000000 0.000000
0.000000 0.000000 0.000000
0.000000 0.000000 0.000000
0.000000 0.000000 0.000000
0.000000 0.000000 0.000000
0.000000 0.000000 0.000000
0.000000 0.000000 0.000000
0.000000 0.000000 0.000000
0.000000 0.000000 0.000000
0.000000 0.000000 0.000000
0.000000 0.000000 0.000000
0.000000 0.000000 0.000000
0.000000 0.000000 0.000000
0.000000 0.000000 0.000000
0.000000 0.000000 0.000000
0.000000 0.000000 0.000000
0.000000 0.000000 0.000000
0.000000 0.000000 0.000000
0.000000 0.000000 0.000000
0.000000 0.000000 0.000000
0.000000 0.000000 0.000000
0.000000 0.000000 0.000000
0.000000 0.000000 0.000000
0.000000 0.000000 0.000000
0.000000 0.000000 0.000000
0.000000 0.000000 0.000000
0.000000 0.000000 0.000000
0.000000 0.000000 0.000000
0.000000 0.000000 0.000000
0.000000 0.000000 0.000000
0.000000 0.000000 0.000000
0.000000 0.000000 0.000000
0.000000 0.000000 0.000000
0.000000 0.000000 0.000000
