total_Ti
1.0
9.445957 0.000000 0.000000
0.000000 9.093951 0.000000
0.000000 0.000000 18.911864
Ti
96
direct
0.166666 0.375000 0.380956 Ti
0.666666 0.375000 0.380956 Ti
0.166666 0.875000 0.380956 Ti
0.666666 0.875000 0.380956 Ti
0.166666 0.375000 0.228574 Ti
0.666666 0.375000 0.228574 Ti
0.166666 0.875000 0.228574 Ti
0.666666 0.875000 0.228574 Ti
0.166666 0.375000 0.076191 Ti
0.666666 0.375000 0.076191 Ti
0.166666 0.875000 0.076191 Ti
0.666666 0.875000 0.076191 Ti
0.416667 0.375000 0.304766 Ti
0.916667 0.375000 0.304766 Ti
0.416667 0.875000 0.304766 Ti
0.916667 0.875000 0.304766 Ti
0.416667 0.375000 0.152383 Ti
0.916667 0.375000 0.152383 Ti
0.416667 0.875000 0.152383 Ti
0.916667 0.875000 0.152383 Ti
0.416667 0.375000 -0.000000 Ti
0.916667 0.375000 -0.000000 Ti
0.416667 0.875000 -0.000000 Ti
0.916667 0.875000 -0.000000 Ti
0.083333 0.125000 0.304765 Ti
0.583333 0.125000 0.304765 Ti
0.083333 0.625000 0.304765 Ti
0.583333 0.625000 0.304765 Ti
0.083333 0.125000 0.152383 Ti
0.583333 0.125000 0.152383 Ti
0.083333 0.625000 0.152383 Ti
0.583333 0.625000 0.152383 Ti
0.083333 0.125000 -0.000000 Ti
0.583333 0.125000 -0.000000 Ti
0.083333 0.625000 -0.000000 Ti
0.583333 0.625000 -0.000000 Ti
0.333333 0.125000 0.380956 Ti
0.833333 0.125000 0.380956 Ti
0.333333 0.625000 0.380956 Ti
0.833333 0.625000 0.380956 Ti
0.333333 0.125000 0.228574 Ti
0.833333 0.125000 0.228574 Ti
0.333333 0.625000 0.228574 Ti
0.833333 0.625000 0.228574 Ti
0.333333 0.125000 0.076191 Ti
0.833333 0.125000 0.076191 Ti
0.333333 0.625000 0.076191 Ti
0.833333 0.625000 0.076191 Ti
0.375000 0.375000 0.817497 Ti
0.875000 0.375000 0.817497 Ti
0.375000 0.875000 0.817497 Ti
0.875000 0.875000 0.817497 Ti
0.125000 0.125000 0.817497 Ti
0.625000 0.125000 0.817497 Ti
0.125000 0.625000 0.817497 Ti
0.625000 0.625000 0.817497 Ti
0.125000 0.375000 0.902177 Ti
0.625000 0.375000 0.902177 Ti
0.125000 0.875000 0.902177 Ti
0.625000 0.875000 0.902177 Ti
0.375000 0.125000 0.902177 Ti
0.875000 0.125000 0.902177 Ti
0.375000 0.625000 0.902177 Ti
0.875000 0.625000 0.902177 Ti
0.375000 0.375000 0.648137 Ti
0.875000 0.375000 0.648137 Ti
0.375000 0.875000 0.648137 Ti
0.875000 0.875000 0.648137 Ti
0.125000 0.125000 0.648137 Ti
0.625000 0.125000 0.648137 Ti
0.125000 0.625000 0.648137 Ti
0.625000 0.625000 0.648137 Ti
0.125000 0.375000 0.563458 Ti
0.625000 0.375000 0.563458 Ti
0.125000 0.875000 0.563458 Ti
0.625000 0.875000 0.563458 Ti
0.375000 0.125000 0.563458 Ti
0.875000 0.125000 0.563458 Ti
0.375000 0.625000 0.563458 Ti
0.875000 0.625000 0.563458 Ti
0.375000 0.375000 0.478778 Ti
0.875000 0.375000 0.478778 Ti
0.375000 0.875000 0.478778 Ti
0.875000 0.875000 0.478778 Ti
0.125000 0.125000 0.478778 Ti
0.625000 0.125000 0.478778 Ti
0.125000 0.625000 0.478778 Ti
0.625000 0.625000 0.478778 Ti
0.125000 0.875000 0.732818 Ti
0.625000 0.875000 0.732818 Ti
0.375000 0.625000 0.732818 Ti
0.875000 0.625000 0.732818 Ti
0.125000 0.375000 0.732818 Ti
0.625000 0.375000 0.732818 Ti
0.375000 0.125000 0.732818 Ti
0.875000 0.125000 0.732818 Ti
