Ti96 Sn1
1.0
9.513020 0.000000 0.000000
0.000000 9.350860 0.000000
0.000000 0.000000 18.547230
Ti Sn
96 1
Selective dynamics
direct
0.147938 0.377895 0.403621 T T T Ti
0.644824 0.332003 0.408871 T T T Ti
0.116701 0.852940 0.402197 T T T Ti
0.692122 0.878968 0.392560 T T T Ti
0.156207 0.366800 0.236703 T T T Ti
0.659343 0.372731 0.234575 T T T Ti
0.165821 0.871736 0.233974 T T T Ti
0.662321 0.882614 0.234016 T T T Ti
0.166621 0.374997 0.077524 F F F Ti
0.666715 0.374963 0.077471 F F F Ti
0.166807 0.874983 0.077519 F F F Ti
0.666650 0.875071 0.077501 F F F Ti
0.408700 0.382492 0.316363 T T T Ti
0.896580 0.372908 0.322948 T T T Ti
0.374030 0.913153 0.334389 T T T Ti
0.917691 0.885683 0.307169 T T T Ti
0.416715 0.374832 0.155072 F F F Ti
0.916600 0.374864 0.155053 F F F Ti
0.416613 0.874933 0.155322 F F F Ti
0.916860 0.875262 0.154996 F F F Ti
0.416668 0.375013 -0.000099 F F F Ti
0.916635 0.374986 -0.000118 F F F Ti
0.416697 0.874978 -0.000036 F F F Ti
0.916683 0.875012 -0.000128 F F F Ti
0.103420 0.127094 0.322947 T T T Ti
0.591300 0.117510 0.316362 T T T Ti
0.082309 0.614319 0.307168 T T T Ti
0.625970 0.586849 0.334388 T T T Ti
0.083400 0.125157 0.155051 F F F Ti
0.583288 0.125191 0.155070 F F F Ti
0.083138 0.624764 0.154998 F F F Ti
0.583388 0.625079 0.155321 F F F Ti
0.083368 0.125019 -0.000119 F F F Ti
0.583332 0.124996 -0.000098 F F F Ti
0.083316 0.625000 -0.000128 F F F Ti
0.583305 0.625029 -0.000037 F F F Ti
0.355175 0.167998 0.408871 T T T Ti
0.852061 0.122105 0.403621 T T T Ti
0.307877 0.621033 0.392560 T T T Ti
0.883298 0.647061 0.402197 T T T Ti
0.340657 0.127274 0.234574 T T T Ti
0.843792 0.133205 0.236703 T T T Ti
0.337678 0.617391 0.234017 T T T Ti
0.834178 0.628270 0.233973 T T T Ti
0.333285 0.125053 0.077471 F F F Ti
0.833379 0.125019 0.077524 F F F Ti
0.333348 0.624948 0.077501 F F F Ti
0.833193 0.625036 0.077518 F F F Ti
0.374977 0.375096 0.823829 F F F Ti
0.874960 0.375018 0.823931 F F F Ti
0.375043 0.874913 0.823774 F F F Ti
0.875011 0.874996 0.823740 F F F Ti
0.125048 0.124971 0.823932 F F F Ti
0.625025 0.124891 0.823830 F F F Ti
0.124994 0.624992 0.823742 F F F Ti
0.624969 0.625083 0.823773 F F F Ti
0.125064 0.375113 0.910082 F F F Ti
0.624965 0.375106 0.910055 F F F Ti
0.125093 0.874921 0.910044 F F F Ti
0.624981 0.874944 0.909996 F F F Ti
0.375044 0.124888 0.910056 F F F Ti
0.874943 0.124881 0.910084 F F F Ti
0.375025 0.625055 0.909997 F F F Ti
0.874911 0.625075 0.910043 F F F Ti
0.394511 0.385811 0.659705 T T T Ti
0.891604 0.378327 0.648454 T T T Ti
0.390840 0.892198 0.645655 T T T Ti
0.884113 0.886192 0.668697 T T T Ti
0.108393 0.121666 0.648454 T T T Ti
0.605486 0.114183 0.659704 T T T Ti
0.115885 0.613799 0.668698 T T T Ti
0.609158 0.607795 0.645656 T T T Ti
0.152137 0.372863 0.574390 T T T Ti
0.638978 0.340928 0.571824 T T T Ti
0.123618 0.856774 0.585824 T T T Ti
0.659250 0.865647 0.578911 T T T Ti
0.361021 0.159070 0.571824 T T T Ti
0.847862 0.127134 0.574390 T T T Ti
0.340749 0.634350 0.578911 T T T Ti
0.876382 0.643223 0.585824 T T T Ti
0.408025 0.414896 0.487868 T T T Ti
0.901297 0.368699 0.487371 T T T Ti
0.319046 0.926894 0.492331 T T T Ti
0.905516 0.895366 0.495519 T T T Ti
0.098702 0.131300 0.487371 T T T Ti
0.591975 0.085103 0.487867 T T T Ti
0.094483 0.604633 0.495519 T T T Ti
0.680953 0.573105 0.492332 T T T Ti
0.124977 0.874851 0.737686 F F F Ti
0.625337 0.875064 0.737524 F F F Ti
0.374657 0.624918 0.737529 F F F Ti
0.875009 0.625121 0.737683 F F F Ti
0.125073 0.375086 0.737749 F F F Ti
0.624864 0.374930 0.737766 F F F Ti
0.375122 0.125031 0.737763 F F F Ti
0.874913 0.124879 0.737752 F F F Ti
0.500000 0.750000 0.431233 T T T Sn

0.000000 0.000000 0.000000
0.000000 0.000000 0.000000
0.000000 0.000000 0.000000
0.000000 0.000000 0.000000
0.000000 0.000000 0.000000
0.000000 0.000000 0.000000
0.000000 0.000000 0.000000
0.000000 0.000000 0.000000
0.000000 0.000000 0.000000
0.000000 0.000000 0.000000
0.000000 0.000000 0.000000
0.000000 0.000000 0.000000
0.000000 0.000000 0.000000
0.000000 0.000000 0.000000
0.000000 0.000000 0.000000
0.000000 0.000000 0.000000
0.000000 0.000000 0.000000
0.000000 0.000000 0.000000
0.000000 0.000000 0.000000
0.000000 0.000000 0.000000
0.000000 0.000000 0.000000
0.000000 0.000000 0.000000
0.000000 0.000000 0.000000
0.000000 0.000000 0.000000
0.000000 0.000000 0.000000
0.000000 0.000000 0.000000
0.000000 0.000000 0.000000
0.000000 0.000000 0.000000
0.000000 0.000000 0.000000
0.000000 0.000000 0.000000
0.000000 0.000000 0.000000
0.000000 0.000000 0.000000
0.000000 0.000000 0.000000
0.000000 0.000000 0.000000
0.000000 0.000000 0.000000
0.000000 0.000000 0.000000
0.000000 0.000000 0.000000
0.000000 0.000000 0.000000
0.000000 0.000000 0.000000
0.000000 0.000000 0.000000
0.000000 0.000000 0.000000
0.000000 0.000000 0.000000
0.000000 0.000000 0.000000
0.000000 0.000000 0.000000
0.000000 0.000000 0.000000
0.000000 0.000000 0.000000
0.000000 0.000000 0.000000
0.000000 0.000000 0.000000
0.000000 0.000000 0.000000
0.000000 0.000000 0.000000
0.000000 0.000000 0.000000
0.000000 0.000000 0.000000
0.000000 0.000000 0.000000
0.000000 0.000000 0.000000
0.000000 0.000000 0.000000
0.000000 0.000000 0.000000
0.000000 0.000000 0.000000
0.000000 0.000000 0.000000
0.000000 0.000000 0.000000
0.000000 0.000000 0.000000
0.000000 0.000000 0.000000
0.000000 0.000000 0.000000
0.000000 0.000000 0.000000
0.000000 0.000000 0.000000
0.000000 0.000000 0.000000
0.000000 0.000000 0.000000
0.000000 0.000000 0.000000
0.000000 0.000000 0.000000
0.000000 0.000000 0.000000
0.000000 0.000000 0.000000
0.000000 0.000000 0.000000
0.000000 0.000000 0.000000
0.000000 0.000000 0.000000
0.000000 0.000000 0.000000
0.000000 0.000000 0.000000
0.000000 0.000000 0.000000
0.000000 0.000000 0.000000
0.000000 0.000000 0.000000
0.000000 0.000000 0.000000
0.000000 0.000000 0.000000
0.000000 0.000000 0.000000
0.000000 0.000000 0.000000
0.000000 0.000000 0.000000
0.000000 0.000000 0.000000
0.000000 0.000000 0.000000
0.000000 0.000000 0.000000
0.000000 0.000000 0.000000
0.000000 0.000000 0.000000
0.000000 0.000000 0.000000
0.000000 0.000000 0.000000
0.000000 0.000000 0.000000
0.000000 0.000000 0.000000
0.000000 0.000000 0.000000
0.000000 0.000000 0.000000
0.000000 0.000000 0.000000
0.000000 0.000000 0.000000
0.000000 0.000000 0.000000
