Ti67
1.0
6.309760 0.000000 0.000000
0.000000 9.464640 0.000000
0.000000 0.000000 18.918326
Ti
67
Selective dynamics
direct
0.124922 0.041349 0.500036 F F F Ti
0.625150 0.041571 0.500013 F F F Ti
0.124988 0.041635 0.658605 F F F Ti
0.625082 0.041622 0.658614 F F F Ti
0.124999 0.041665 0.817163 F F F Ti
0.625008 0.041665 0.817165 F F F Ti
0.626615 0.375026 0.500205 F F F Ti
0.125030 0.374999 0.658587 F F F Ti
0.625117 0.375004 0.658630 F F F Ti
0.124998 0.375000 0.817158 F F F Ti
0.625010 0.375001 0.817165 F F F Ti
0.124930 0.708619 0.500036 F F F Ti
0.625125 0.708431 0.500012 F F F Ti
0.124989 0.708362 0.658599 F F F Ti
0.625070 0.708383 0.658611 F F F Ti
0.124998 0.708335 0.817160 F F F Ti
0.625006 0.708337 0.817164 F F F Ti
0.375395 0.208052 0.579488 F F F Ti
0.875087 0.208259 0.579322 F F F Ti
0.375010 0.208327 0.737889 F F F Ti
0.875012 0.208329 0.737876 F F F Ti
0.375001 0.208333 0.896445 F F F Ti
0.875000 0.208333 0.896443 F F F Ti
0.375385 0.541941 0.579482 F F F Ti
0.875094 0.541740 0.579321 F F F Ti
0.375009 0.541675 0.737889 F F F Ti
0.875012 0.541671 0.737876 F F F Ti
0.375001 0.541668 0.896445 F F F Ti
0.875000 0.541667 0.896443 F F F Ti
0.375052 0.875028 0.579311 F F F Ti
0.874967 0.875006 0.579316 F F F Ti
0.375004 0.875003 0.737881 F F F Ti
0.875003 0.874999 0.737881 F F F Ti
0.375001 0.875001 0.896445 F F F Ti
0.874999 0.875000 0.896445 F F F Ti
0.124778 0.625367 0.356653 F F F Ti
0.624986 0.625101 0.356774 F F F Ti
0.125001 0.625005 0.118923 F F F Ti
0.624991 0.625005 0.118922 F F F Ti
0.124775 0.124636 0.356649 F F F Ti
0.625001 0.124908 0.356772 F F F Ti
0.125001 0.124997 0.118922 F F F Ti
0.624992 0.124997 0.118921 F F F Ti
0.125001 0.375000 0.039639 F F F Ti
0.624996 0.375000 0.039638 F F F Ti
0.125000 0.875002 0.039640 F F F Ti
0.624997 0.875002 0.039640 F F F Ti
0.124897 0.375001 0.277422 F F F Ti
0.624841 0.375002 0.277450 F F F Ti
0.124993 0.875018 0.277476 F F F Ti
0.624977 0.875013 0.277495 F F F Ti
0.375007 0.875003 0.158566 F F F Ti
0.874987 0.875004 0.158562 F F F Ti
0.374998 0.375001 0.158563 F F F Ti
0.874970 0.375000 0.158552 F F F Ti
0.872917 0.374998 0.396056 F F F Ti
0.375036 0.875061 0.396436 F F F Ti
0.874937 0.875034 0.396431 F F F Ti
0.375013 0.625012 0.237847 F F F Ti
0.874935 0.625029 0.237825 F F F Ti
0.375001 0.625002 -0.000001 F F F Ti
0.874997 0.625002 -0.000003 F F F Ti
0.375014 0.124992 0.237847 F F F Ti
0.874934 0.124974 0.237825 F F F Ti
0.375000 0.124998 -0.000002 F F F Ti
0.874997 0.124998 -0.000003 F F F Ti
0.219342 0.374801 0.459181 T T T Ti

0.000000 0.000000 0.000000
0.000000 0.000000 0.000000
0.000000 0.000000 0.000000
0.000000 0.000000 0.000000
0.000000 0.000000 0.000000
0.000000 0.000000 0.000000
0.000000 0.000000 0.000000
0.000000 0.000000 0.000000
0.000000 0.000000 0.000000
0.000000 0.000000 0.000000
0.000000 0.000000 0.000000
0.000000 0.000000 0.000000
0.000000 0.000000 0.000000
0.000000 0.000000 0.000000
0.000000 0.000000 0.000000
0.000000 0.000000 0.000000
0.000000 0.000000 0.000000
0.000000 0.000000 0.000000
0.000000 0.000000 0.000000
0.000000 0.000000 0.000000
0.000000 0.000000 0.000000
0.000000 0.000000 0.000000
0.000000 0.000000 0.000000
0.000000 0.000000 0.000000
0.000000 0.000000 0.000000
0.000000 0.000000 0.000000
0.000000 0.000000 0.000000
0.000000 0.000000 0.000000
0.000000 0.000000 0.000000
0.000000 0.000000 0.000000
0.000000 0.000000 0.000000
0.000000 0.000000 0.000000
0.000000 0.000000 0.000000
0.000000 0.000000 0.000000
0.000000 0.000000 0.000000
0.000000 0.000000 0.000000
0.000000 0.000000 0.000000
0.000000 0.000000 0.000000
0.000000 0.000000 0.000000
0.000000 0.000000 0.000000
0.000000 0.000000 0.000000
0.000000 0.000000 0.000000
0.000000 0.000000 0.000000
0.000000 0.000000 0.000000
0.000000 0.000000 0.000000
0.000000 0.000000 0.000000
0.000000 0.000000 0.000000
0.000000 0.000000 0.000000
0.000000 0.000000 0.000000
0.000000 0.000000 0.000000
0.000000 0.000000 0.000000
0.000000 0.000000 0.000000
0.000000 0.000000 0.000000
0.000000 0.000000 0.000000
0.000000 0.000000 0.000000
0.000000 0.000000 0.000000
0.000000 0.000000 0.000000
0.000000 0.000000 0.000000
0.000000 0.000000 0.000000
0.000000 0.000000 0.000000
0.000000 0.000000 0.000000
0.000000 0.000000 0.000000
0.000000 0.000000 0.000000
0.000000 0.000000 0.000000
0.000000 0.000000 0.000000
0.000000 0.000000 0.000000
0.000000 0.000000 0.000000
