Ti66 Mo1
1.0
6.309760 0.000000 0.000000
0.000000 9.464640 0.000000
0.000000 0.000000 18.918326
Ti Mo
66 1
Selective dynamics
direct
0.124841 0.040313 0.500126 F F F Ti
0.625900 0.041272 0.500052 F F F Ti
0.125183 0.041499 0.658739 F F F Ti
0.625556 0.041449 0.658807 F F F Ti
0.125050 0.041663 0.817224 F F F Ti
0.625076 0.041665 0.817239 F F F Ti
0.632782 0.375221 0.500930 F F F Ti
0.125484 0.374987 0.658537 F F F Ti
0.625798 0.375031 0.658833 F F F Ti
0.125043 0.375001 0.817169 F F F Ti
0.625107 0.375009 0.817221 F F F Ti
0.124913 0.709411 0.500114 F F F Ti
0.625688 0.708762 0.500044 F F F Ti
0.125182 0.708459 0.658697 F F F Ti
0.625461 0.708567 0.658784 F F F Ti
0.125034 0.708333 0.817205 F F F Ti
0.625062 0.708340 0.817229 F F F Ti
0.377086 0.207346 0.579938 F F F Ti
0.875880 0.207823 0.579512 F F F Ti
0.375139 0.208316 0.737979 F F F Ti
0.875226 0.208323 0.737941 F F F Ti
0.375011 0.208349 0.896447 F F F Ti
0.875045 0.208347 0.896442 F F F Ti
0.376969 0.542591 0.579892 F F F Ti
0.875951 0.542169 0.579503 F F F Ti
0.375126 0.541690 0.737975 F F F Ti
0.875228 0.541677 0.737938 F F F Ti
0.375006 0.541652 0.896448 F F F Ti
0.875045 0.541651 0.896443 F F F Ti
0.375447 0.875105 0.579421 F F F Ti
0.874950 0.874987 0.579469 F F F Ti
0.375088 0.875004 0.737980 F F F Ti
0.875120 0.874985 0.737995 F F F Ti
0.375019 0.874990 0.896468 F F F Ti
0.875021 0.874989 0.896468 F F F Ti
0.123776 0.626346 0.356258 F F F Ti
0.624669 0.625627 0.356647 F F F Ti
0.124986 0.625026 0.118863 F F F Ti
0.624876 0.625033 0.118842 F F F Ti
0.123756 0.123684 0.356226 F F F Ti
0.624818 0.124474 0.356638 F F F Ti
0.124994 0.124996 0.118856 F F F Ti
0.624878 0.124992 0.118833 F F F Ti
0.124990 0.375004 0.039594 F F F Ti
0.624941 0.375005 0.039584 F F F Ti
0.124990 0.875010 0.039602 F F F Ti
0.624958 0.875011 0.039595 F F F Ti
0.124356 0.375020 0.277224 F F F Ti
0.623700 0.375030 0.277096 F F F Ti
0.124892 0.875081 0.277304 F F F Ti
0.624771 0.875085 0.277382 F F F Ti
0.375016 0.875015 0.158488 F F F Ti
0.874889 0.875026 0.158454 F F F Ti
0.374830 0.375009 0.158475 F F F Ti
0.874810 0.375009 0.158419 F F F Ti
0.866123 0.375006 0.394731 F F F Ti
0.375117 0.875320 0.396401 F F F Ti
0.874648 0.875149 0.396362 F F F Ti
0.374913 0.625062 0.237767 F F F Ti
0.874539 0.625145 0.237624 F F F Ti
0.374986 0.625007 -0.000020 F F F Ti
0.874977 0.625010 -0.000026 F F F Ti
0.374926 0.124984 0.237759 F F F Ti
0.874534 0.124894 0.237613 F F F Ti
0.374981 0.124990 -0.000024 F F F Ti
0.874977 0.124992 -0.000027 F F F Ti
0.215735 0.373981 0.463129 T T T Mo

0.000000 0.000000 0.000000
0.000000 0.000000 0.000000
0.000000 0.000000 0.000000
0.000000 0.000000 0.000000
0.000000 0.000000 0.000000
0.000000 0.000000 0.000000
0.000000 0.000000 0.000000
0.000000 0.000000 0.000000
0.000000 0.000000 0.000000
0.000000 0.000000 0.000000
0.000000 0.000000 0.000000
0.000000 0.000000 0.000000
0.000000 0.000000 0.000000
0.000000 0.000000 0.000000
0.000000 0.000000 0.000000
0.000000 0.000000 0.000000
0.000000 0.000000 0.000000
0.000000 0.000000 0.000000
0.000000 0.000000 0.000000
0.000000 0.000000 0.000000
0.000000 0.000000 0.000000
0.000000 0.000000 0.000000
0.000000 0.000000 0.000000
0.000000 0.000000 0.000000
0.000000 0.000000 0.000000
0.000000 0.000000 0.000000
0.000000 0.000000 0.000000
0.000000 0.000000 0.000000
0.000000 0.000000 0.000000
0.000000 0.000000 0.000000
0.000000 0.000000 0.000000
0.000000 0.000000 0.000000
0.000000 0.000000 0.000000
0.000000 0.000000 0.000000
0.000000 0.000000 0.000000
0.000000 0.000000 0.000000
0.000000 0.000000 0.000000
0.000000 0.000000 0.000000
0.000000 0.000000 0.000000
0.000000 0.000000 0.000000
0.000000 0.000000 0.000000
0.000000 0.000000 0.000000
0.000000 0.000000 0.000000
0.000000 0.000000 0.000000
0.000000 0.000000 0.000000
0.000000 0.000000 0.000000
0.000000 0.000000 0.000000
0.000000 0.000000 0.000000
0.000000 0.000000 0.000000
0.000000 0.000000 0.000000
0.000000 0.000000 0.000000
0.000000 0.000000 0.000000
0.000000 0.000000 0.000000
0.000000 0.000000 0.000000
0.000000 0.000000 0.000000
0.000000 0.000000 0.000000
0.000000 0.000000 0.000000
0.000000 0.000000 0.000000
0.000000 0.000000 0.000000
0.000000 0.000000 0.000000
0.000000 0.000000 0.000000
0.000000 0.000000 0.000000
0.000000 0.000000 0.000000
0.000000 0.000000 0.000000
0.000000 0.000000 0.000000
0.000000 0.000000 0.000000
0.000000 0.000000 0.000000
