Ti96 Al1
1.0
9.513020 0.000000 0.000000
0.000000 9.350860 0.000000
0.000000 0.000000 18.547230
Ti Al
96 1
Selective dynamics
direct
0.140978 0.372997 0.405241 T T T Ti
0.660092 0.351453 0.390129 T T T Ti
0.140866 0.861497 0.399529 T T T Ti
0.660565 0.862623 0.411773 T T T Ti
0.163413 0.371268 0.236768 T T T Ti
0.656177 0.373158 0.234601 T T T Ti
0.162503 0.874183 0.234945 T T T Ti
0.659251 0.871340 0.234706 T T T Ti
0.166663 0.375018 0.077673 F F F Ti
0.666666 0.374999 0.077659 F F F Ti
0.166672 0.875008 0.077687 F F F Ti
0.666653 0.875004 0.077683 F F F Ti
0.404942 0.392755 0.319143 T T T Ti
0.909352 0.379266 0.316474 T T T Ti
0.399342 0.879369 0.322435 T T T Ti
0.903992 0.878906 0.314397 T T T Ti
0.416666 0.374991 0.155285 F F F Ti
0.916684 0.374993 0.155306 F F F Ti
0.416668 0.875051 0.155312 F F F Ti
0.916674 0.874989 0.155324 F F F Ti
0.416661 0.375016 -0.000014 F F F Ti
0.916655 0.375011 -0.000005 F F F Ti
0.416666 0.874999 -0.000024 F F F Ti
0.916658 0.874992 -0.000010 F F F Ti
0.090648 0.120734 0.316473 T T T Ti
0.595058 0.107245 0.319142 T T T Ti
0.096008 0.621094 0.314396 T T T Ti
0.600658 0.620631 0.322435 T T T Ti
0.083316 0.125011 0.155306 F F F Ti
0.583334 0.125014 0.155284 F F F Ti
0.083326 0.625016 0.155325 F F F Ti
0.583332 0.624953 0.155313 F F F Ti
0.083345 0.124992 -0.000006 F F F Ti
0.583339 0.124988 -0.000015 F F F Ti
0.083342 0.625014 -0.000009 F F F Ti
0.583334 0.625007 -0.000023 F F F Ti
0.339907 0.148547 0.390129 T T T Ti
0.859021 0.127003 0.405241 T T T Ti
0.339434 0.637377 0.411773 T T T Ti
0.859133 0.638503 0.399529 T T T Ti
0.343822 0.126843 0.234601 T T T Ti
0.836586 0.128732 0.236768 T T T Ti
0.340748 0.628661 0.234706 T T T Ti
0.837496 0.625818 0.234945 T T T Ti
0.333333 0.125004 0.077658 F F F Ti
0.833336 0.124985 0.077673 F F F Ti
0.333347 0.625001 0.077683 F F F Ti
0.833327 0.624996 0.077687 F F F Ti
0.374969 0.374997 0.823862 F F F Ti
0.874999 0.374949 0.823851 F F F Ti
0.375021 0.875067 0.823772 F F F Ti
0.875027 0.875008 0.823803 F F F Ti
0.125006 0.125048 0.823850 F F F Ti
0.625036 0.125003 0.823861 F F F Ti
0.124974 0.624993 0.823804 F F F Ti
0.624981 0.624930 0.823774 F F F Ti
0.124984 0.375026 0.910116 F F F Ti
0.625006 0.375010 0.910114 F F F Ti
0.125005 0.875007 0.910083 F F F Ti
0.624994 0.874997 0.910072 F F F Ti
0.374996 0.124992 0.910113 F F F Ti
0.875020 0.124975 0.910114 F F F Ti
0.375009 0.625005 0.910072 F F F Ti
0.874999 0.624995 0.910084 F F F Ti
0.381874 0.371151 0.669750 T T T Ti
0.877121 0.393538 0.647631 T T T Ti
0.381585 0.887578 0.661478 T T T Ti
0.904730 0.881953 0.654832 T T T Ti
0.122878 0.106461 0.647631 T T T Ti
0.618125 0.128847 0.669750 T T T Ti
0.095269 0.618044 0.654833 T T T Ti
0.618414 0.612419 0.661478 T T T Ti
0.131294 0.356413 0.571835 T T T Ti
0.625281 0.357080 0.577655 T T T Ti
0.166445 0.847294 0.568590 T T T Ti
0.678463 0.923710 0.577114 T T T Ti
0.374718 0.142920 0.577654 T T T Ti
0.868706 0.143587 0.571835 T T T Ti
0.321537 0.576290 0.577114 T T T Ti
0.833555 0.652705 0.568591 T T T Ti
0.397806 0.374011 0.480269 T T T Ti
0.881304 0.387884 0.490183 T T T Ti
0.370803 0.930987 0.474274 T T T Ti
0.916477 0.888275 0.491081 T T T Ti
0.118696 0.112116 0.490183 T T T Ti
0.602194 0.125989 0.480269 T T T Ti
0.083523 0.611725 0.491082 T T T Ti
0.629197 0.569013 0.474274 T T T Ti
0.125239 0.875208 0.737574 F F F Ti
0.625131 0.875115 0.737585 F F F Ti
0.374863 0.624874 0.737588 F F F Ti
0.874756 0.624781 0.737579 F F F Ti
0.124937 0.374893 0.737593 F F F Ti
0.625118 0.374810 0.737630 F F F Ti
0.374875 0.125176 0.737628 F F F Ti
0.875058 0.125095 0.737591 F F F Ti
0.500000 0.750000 0.540380 T T T Al

0.000000 0.000000 0.000000
0.000000 0.000000 0.000000
0.000000 0.000000 0.000000
0.000000 0.000000 0.000000
0.000000 0.000000 0.000000
0.000000 0.000000 0.000000
0.000000 0.000000 0.000000
0.000000 0.000000 0.000000
0.000000 0.000000 0.000000
0.000000 0.000000 0.000000
0.000000 0.000000 0.000000
0.000000 0.000000 0.000000
0.000000 0.000000 0.000000
0.000000 0.000000 0.000000
0.000000 0.000000 0.000000
0.000000 0.000000 0.000000
0.000000 0.000000 0.000000
0.000000 0.000000 0.000000
0.000000 0.000000 0.000000
0.000000 0.000000 0.000000
0.000000 0.000000 0.000000
0.000000 0.000000 0.000000
0.000000 0.000000 0.000000
0.000000 0.000000 0.000000
0.000000 0.000000 0.000000
0.000000 0.000000 0.000000
0.000000 0.000000 0.000000
0.000000 0.000000 0.000000
0.000000 0.000000 0.000000
0.000000 0.000000 0.000000
0.000000 0.000000 0.000000
0.000000 0.000000 0.000000
0.000000 0.000000 0.000000
0.000000 0.000000 0.000000
0.000000 0.000000 0.000000
0.000000 0.000000 0.000000
0.000000 0.000000 0.000000
0.000000 0.000000 0.000000
0.000000 0.000000 0.000000
0.000000 0.000000 0.000000
0.000000 0.000000 0.000000
0.000000 0.000000 0.000000
0.000000 0.000000 0.000000
0.000000 0.000000 0.000000
0.000000 0.000000 0.000000
0.000000 0.000000 0.000000
0.000000 0.000000 0.000000
0.000000 0.000000 0.000000
0.000000 0.000000 0.000000
0.000000 0.000000 0.000000
0.000000 0.000000 0.000000
0.000000 0.000000 0.000000
0.000000 0.000000 0.000000
0.000000 0.000000 0.000000
0.000000 0.000000 0.000000
0.000000 0.000000 0.000000
0.000000 0.000000 0.000000
0.000000 0.000000 0.000000
0.000000 0.000000 0.000000
0.000000 0.000000 0.000000
0.000000 0.000000 0.000000
0.000000 0.000000 0.000000
0.000000 0.000000 0.000000
0.000000 0.000000 0.000000
0.000000 0.000000 0.000000
0.000000 0.000000 0.000000
0.000000 0.000000 0.000000
0.000000 0.000000 0.000000
0.000000 0.000000 0.000000
0.000000 0.000000 0.000000
0.000000 0.000000 0.000000
0.000000 0.000000 0.000000
0.000000 0.000000 0.000000
0.000000 0.000000 0.000000
0.000000 0.000000 0.000000
0.000000 0.000000 0.000000
0.000000 0.000000 0.000000
0.000000 0.000000 0.000000
0.000000 0.000000 0.000000
0.000000 0.000000 0.000000
0.000000 0.000000 0.000000
0.000000 0.000000 0.000000
0.000000 0.000000 0.000000
0.000000 0.000000 0.000000
0.000000 0.000000 0.000000
0.000000 0.000000 0.000000
0.000000 0.000000 0.000000
0.000000 0.000000 0.000000
0.000000 0.000000 0.000000
0.000000 0.000000 0.000000
0.000000 0.000000 0.000000
0.000000 0.000000 0.000000
0.000000 0.000000 0.000000
0.000000 0.000000 0.000000
0.000000 0.000000 0.000000
0.000000 0.000000 0.000000
0.000000 0.000000 0.000000
