beta_Ti
1.0
8.805261 0.000000 0.000000
-4.402631 7.625580 0.000000
0.000000 0.000000 29.883422
Ti
36
direct
0.055556 0.055556 0.568427 Ti
0.055556 0.555555 0.568427 Ti
0.555556 0.055556 0.568427 Ti
0.555556 0.555555 0.568427 Ti
0.222222 0.388889 0.785010 Ti
0.222222 0.888889 0.785010 Ti
0.722222 0.388889 0.785010 Ti
0.722222 0.888889 0.785010 Ti
0.388889 0.222222 0.815951 Ti
0.388889 0.722222 0.815951 Ti
0.888889 0.222222 0.815951 Ti
0.888889 0.722222 0.815951 Ti
0.222222 0.388889 0.599368 Ti
0.222222 0.888889 0.599368 Ti
0.722222 0.388889 0.599368 Ti
0.722222 0.888889 0.599368 Ti
0.388889 0.222222 0.630308 Ti
0.388889 0.722222 0.630308 Ti
0.888889 0.222222 0.630308 Ti
0.888889 0.722222 0.630308 Ti
0.055556 0.055556 0.661249 Ti
0.055556 0.555555 0.661249 Ti
0.555556 0.055556 0.661249 Ti
0.555556 0.555555 0.661249 Ti
0.222222 0.388889 0.692189 Ti
0.222222 0.888889 0.692189 Ti
0.722222 0.388889 0.692189 Ti
0.722222 0.888889 0.692189 Ti
0.388889 0.222222 0.723129 Ti
0.388889 0.722222 0.723129 Ti
0.888889 0.222222 0.723129 Ti
0.888889 0.722222 0.723129 Ti
0.055556 0.055556 0.754070 Ti
0.055556 0.555555 0.754070 Ti
0.555556 0.055556 0.754070 Ti
0.555556 0.555555 0.754070 Ti
