Ti66 Al1
1.0
6.309760 0.000000 0.000000
0.000000 9.464640 0.000000
0.000000 0.000000 18.918326
Ti Al
66 1
Selective dynamics
direct
0.628894 0.041600 0.499986 F F F Ti
0.125092 0.042039 0.658411 F F F Ti
0.625109 0.041779 0.658621 F F F Ti
0.125075 0.041763 0.817122 F F F Ti
0.625024 0.041737 0.817168 F F F Ti
0.125629 0.379085 0.500397 F F F Ti
0.625990 0.375558 0.500072 F F F Ti
0.125410 0.375589 0.658820 F F F Ti
0.625041 0.375650 0.658918 F F F Ti
0.125065 0.375093 0.817228 F F F Ti
0.625007 0.375087 0.817255 F F F Ti
0.125168 0.707912 0.499946 F F F Ti
0.625053 0.707909 0.500151 F F F Ti
0.125284 0.708705 0.658665 F F F Ti
0.624853 0.708709 0.658778 F F F Ti
0.125042 0.708515 0.817206 F F F Ti
0.624993 0.708533 0.817227 F F F Ti
0.376713 0.209450 0.579632 F F F Ti
0.873469 0.210287 0.580223 F F F Ti
0.375099 0.208448 0.737913 F F F Ti
0.875090 0.208496 0.738004 F F F Ti
0.374969 0.208308 0.896402 F F F Ti
0.875079 0.208313 0.896414 F F F Ti
0.375864 0.542381 0.579585 F F F Ti
0.874697 0.542452 0.579655 F F F Ti
0.375042 0.541992 0.738045 F F F Ti
0.875078 0.541992 0.738051 F F F Ti
0.374981 0.541690 0.896439 F F F Ti
0.875022 0.541690 0.896439 F F F Ti
0.375361 0.875366 0.579104 F F F Ti
0.874655 0.874505 0.579568 F F F Ti
0.374938 0.875259 0.737837 F F F Ti
0.875157 0.875210 0.737902 F F F Ti
0.374942 0.875099 0.896385 F F F Ti
0.875080 0.875098 0.896395 F F F Ti
0.125580 0.624235 0.356444 F F F Ti
0.624811 0.623558 0.356350 F F F Ti
0.125096 0.624840 0.118771 F F F Ti
0.625017 0.624831 0.118742 F F F Ti
0.627307 0.124683 0.356706 F F F Ti
0.125164 0.124916 0.118912 F F F Ti
0.625006 0.124934 0.118890 F F F Ti
0.125037 0.374914 0.039595 F F F Ti
0.624987 0.374915 0.039589 F F F Ti
0.125063 0.874992 0.039545 F F F Ti
0.625008 0.874999 0.039539 F F F Ti
0.125150 0.374616 0.277497 F F F Ti
0.625204 0.374528 0.277339 F F F Ti
0.125248 0.874435 0.277316 F F F Ti
0.625039 0.874641 0.276764 F F F Ti
0.374919 0.874912 0.158386 F F F Ti
0.875242 0.874858 0.158352 F F F Ti
0.375016 0.374730 0.158515 F F F Ti
0.875133 0.374781 0.158467 F F F Ti
0.376169 0.375745 0.396411 F F F Ti
0.874391 0.376713 0.396329 F F F Ti
0.380174 0.871252 0.395518 F F F Ti
0.868674 0.869120 0.395046 F F F Ti
0.375143 0.624573 0.237548 F F F Ti
0.875080 0.624509 0.237527 F F F Ti
0.375021 0.624990 -0.000055 F F F Ti
0.875020 0.624988 -0.000054 F F F Ti
0.375030 0.124748 0.237986 F F F Ti
0.875423 0.124749 0.237769 F F F Ti
0.375012 0.124986 -0.000036 F F F Ti
0.875040 0.124982 -0.000029 F F F Ti
0.112830 0.064977 0.464834 T T T Al
