Ti66 Al1
1.0
6.309760 0.000000 0.000000
0.000000 9.464640 0.000000
0.000000 0.000000 18.918326
Ti Al
66 1
Selective dynamics
direct
0.072047 0.034137 0.488072 T T T Ti
0.607156 0.029249 0.484549 T T T Ti
0.128731 0.057068 0.646774 T T T Ti
0.600014 0.061370 0.643826 T T T Ti
0.124900 0.041512 0.817481 F F F Ti
0.625117 0.041513 0.817449 F F F Ti
0.615002 0.375192 0.477938 T T T Ti
0.126057 0.374974 0.652952 T T T Ti
0.619044 0.375062 0.646935 T T T Ti
0.125157 0.374994 0.817507 F F F Ti
0.624944 0.375002 0.817486 F F F Ti
0.072370 0.715854 0.488020 T T T Ti
0.606827 0.720852 0.484499 T T T Ti
0.128818 0.692903 0.646754 T T T Ti
0.599919 0.688614 0.643802 T T T Ti
0.124902 0.708454 0.817480 F F F Ti
0.625103 0.708443 0.817446 F F F Ti
0.332044 0.225771 0.549568 T T T Ti
0.879827 0.228105 0.554810 T T T Ti
0.375153 0.207892 0.738402 F F F Ti
0.875151 0.208140 0.738332 F F F Ti
0.375071 0.208286 0.896507 F F F Ti
0.875007 0.208320 0.896506 F F F Ti
0.331995 0.524201 0.549506 T T T Ti
0.879927 0.521966 0.554796 T T T Ti
0.375137 0.542081 0.738393 F F F Ti
0.875190 0.541840 0.738324 F F F Ti
0.375070 0.541679 0.896515 F F F Ti
0.875007 0.541647 0.896514 F F F Ti
0.362845 0.875099 0.563772 T T T Ti
0.849498 0.874866 0.581423 T T T Ti
0.375253 0.874945 0.738347 F F F Ti
0.875034 0.874932 0.738115 F F F Ti
0.375085 0.874936 0.896573 F F F Ti
0.874957 0.874943 0.896559 F F F Ti
0.188375 0.616293 0.369901 T T T Ti
0.701596 0.600517 0.370923 T T T Ti
0.124662 0.624974 0.118655 F F F Ti
0.624458 0.625028 0.118706 F F F Ti
0.187574 0.133489 0.369799 T T T Ti
0.702003 0.149516 0.370933 T T T Ti
0.124622 0.125063 0.118630 F F F Ti
0.624490 0.125007 0.118680 F F F Ti
0.124931 0.375009 0.039485 F F F Ti
0.624474 0.374998 0.039451 F F F Ti
0.124769 0.875006 0.039444 F F F Ti
0.624891 0.875005 0.039455 F F F Ti
0.100528 0.375050 0.278791 T T T Ti
0.649329 0.375054 0.279629 T T T Ti
0.141413 0.875148 0.278792 T T T Ti
0.602223 0.875338 0.285616 T T T Ti
0.374899 0.875057 0.157947 F F F Ti
0.874404 0.874992 0.158197 F F F Ti
0.374730 0.374993 0.158515 F F F Ti
0.873412 0.375015 0.157818 F F F Ti
-0.047941 0.375157 0.419863 T T T Ti
0.349726 0.875743 0.403425 T T T Ti
0.882635 0.874752 0.388513 T T T Ti
0.386872 0.618314 0.247543 T T T Ti
0.880192 0.630520 0.247102 T T T Ti
0.374920 0.624997 -0.000021 F F F Ti
0.874771 0.625035 -0.000045 F F F Ti
0.386855 0.131829 0.247496 T T T Ti
0.880102 0.119596 0.247053 T T T Ti
0.374935 0.124984 -0.000032 F F F Ti
0.874773 0.124946 -0.000058 F F F Ti
0.325986 0.373732 0.407156 T T T Al

0.000000 0.000000 0.000000
0.000000 0.000000 0.000000
0.000000 0.000000 0.000000
0.000000 0.000000 0.000000
0.000000 0.000000 0.000000
0.000000 0.000000 0.000000
0.000000 0.000000 0.000000
0.000000 0.000000 0.000000
0.000000 0.000000 0.000000
0.000000 0.000000 0.000000
0.000000 0.000000 0.000000
0.000000 0.000000 0.000000
0.000000 0.000000 0.000000
0.000000 0.000000 0.000000
0.000000 0.000000 0.000000
0.000000 0.000000 0.000000
0.000000 0.000000 0.000000
0.000000 0.000000 0.000000
0.000000 0.000000 0.000000
0.000000 0.000000 0.000000
0.000000 0.000000 0.000000
0.000000 0.000000 0.000000
0.000000 0.000000 0.000000
0.000000 0.000000 0.000000
0.000000 0.000000 0.000000
0.000000 0.000000 0.000000
0.000000 0.000000 0.000000
0.000000 0.000000 0.000000
0.000000 0.000000 0.000000
0.000000 0.000000 0.000000
0.000000 0.000000 0.000000
0.000000 0.000000 0.000000
0.000000 0.000000 0.000000
0.000000 0.000000 0.000000
0.000000 0.000000 0.000000
0.000000 0.000000 0.000000
0.000000 0.000000 0.000000
0.000000 0.000000 0.000000
0.000000 0.000000 0.000000
0.000000 0.000000 0.000000
0.000000 0.000000 0.000000
0.000000 0.000000 0.000000
0.000000 0.000000 0.000000
0.000000 0.000000 0.000000
0.000000 0.000000 0.000000
0.000000 0.000000 0.000000
0.000000 0.000000 0.000000
0.000000 0.000000 0.000000
0.000000 0.000000 0.000000
0.000000 0.000000 0.000000
0.000000 0.000000 0.000000
0.000000 0.000000 0.000000
0.000000 0.000000 0.000000
0.000000 0.000000 0.000000
0.000000 0.000000 0.000000
0.000000 0.000000 0.000000
0.000000 0.000000 0.000000
0.000000 0.000000 0.000000
0.000000 0.000000 0.000000
0.000000 0.000000 0.000000
0.000000 0.000000 0.000000
0.000000 0.000000 0.000000
0.000000 0.000000 0.000000
0.000000 0.000000 0.000000
0.000000 0.000000 0.000000
0.000000 0.000000 0.000000
0.000000 0.000000 0.000000
