substance_bottem
1.0
   3.5061499999999999    0.0000000000000000    0.0000000000000002
   0.0000000000000019   12.0001999999999995    0.0000000000000007
   0.0000000000000000    0.0000000000000000   27.0116049620000034
Cr N
16 16
Selective dynamics
direct
   0.0000000000000000    0.0000000000000000    0.2327266680689138 F F F Cr
  -0.0000000000000000    0.2500000000000000    0.2327266680689138 F F F Cr
   0.5000000000000000    0.1250000000000000    0.1551477937314579 F F F Cr
   0.5000000000000000    0.3750000000000000    0.1551477937314578 F F F Cr
   0.0000000000000000    0.0000000000000000    0.0775788743374560 F F F Cr
  -0.0000000000000000    0.2500000000000000    0.0775788743374560 F F F Cr
   0.5000000000000000    0.1250000000000000   -0.0000000000000000 F F F Cr
   0.5000000000000000    0.3750000000000000   -0.0000000000000000 F F F Cr
  -0.0000000000000000    0.5000000000000000    0.2327266680689138 F F F Cr
  -0.0000000000000000    0.7500000000000000    0.2327266680689138 F F F Cr
   0.5000000000000000    0.6250000000000000    0.1551477937314579 F F F Cr
   0.4999999999999999    0.8749999999999999    0.1551477937314579 F F F Cr
  -0.0000000000000000    0.5000000000000000    0.0775788743374560 F F F Cr
  -0.0000000000000000    0.7500000000000000    0.0775788743374560 F F F Cr
   0.5000000000000000    0.6250000000000000   -0.0000000000000000 F F F Cr
   0.4999999999999999    0.8749999999999999   -0.0000000000000000 F F F Cr
   0.5000000000000000    0.1250000000000000    0.2327266680689138 F F F N
   0.5000000000000000    0.3750000000000000    0.2327266680689138 F F F N
   0.0000000000000000    0.0000000000000000    0.1551477937314579 F F F N
  -0.0000000000000000    0.2500000000000000    0.1551477937314579 F F F N
   0.5000000000000000    0.1250000000000000    0.0775788743374559 F F F N
   0.5000000000000000    0.3750000000000000    0.0775788743374560 F F F N
   0.0000000000000000    0.0000000000000000    0.0000000000000000 F F F N
  -0.0000000000000000    0.2500000000000000   -0.0000000000000000 F F F N
   0.5000000000000000    0.6250000000000000    0.2327266680689138 F F F N
   0.4999999999999999    0.8749999999999999    0.2327266680689138 F F F N
  -0.0000000000000000    0.5000000000000000    0.1551477937314579 F F F N
  -0.0000000000000000    0.7500000000000000    0.1551477937314579 F F F N
   0.5000000000000000    0.6250000000000000    0.0775788743374559 F F F N
   0.4999999999999999    0.8749999999999999    0.0775788743374560 F F F N
  -0.0000000000000000    0.5000000000000000   -0.0000000000000000 F F F N
  -0.0000000000000000    0.7500000000000000   -0.0000000000000000 F F F N
