total_Ti
1.0
6.309760 0.000000 0.000000
0.000000 9.464640 0.000000
0.000000 0.000000 18.100004
Ti
68
direct
0.125000 0.958333 0.500000 Ti
0.625000 0.958333 0.500000 Ti
0.125000 0.958333 0.665746 Ti
0.625000 0.958333 0.665746 Ti
0.125000 0.958333 0.831492 Ti
0.625000 0.958333 0.831492 Ti
0.125000 0.291667 0.500000 Ti
0.625000 0.291667 0.500000 Ti
0.125000 0.291667 0.665746 Ti
0.625000 0.291667 0.665746 Ti
0.125000 0.291667 0.831492 Ti
0.625000 0.291667 0.831492 Ti
0.125000 0.625000 0.500000 Ti
0.625000 0.625000 0.500000 Ti
0.125000 0.625000 0.665746 Ti
0.625000 0.625000 0.665746 Ti
0.125000 0.625000 0.831492 Ti
0.625000 0.625000 0.831492 Ti
0.375000 0.125000 0.582873 Ti
0.875000 0.125000 0.582873 Ti
0.375000 0.125000 0.748619 Ti
0.875000 0.125000 0.748619 Ti
0.375000 0.125000 0.914365 Ti
0.875000 0.125000 0.914365 Ti
0.375000 0.458333 0.582873 Ti
0.875000 0.458333 0.582873 Ti
0.375000 0.458333 0.748619 Ti
0.875000 0.458333 0.748619 Ti
0.375000 0.458333 0.914365 Ti
0.875000 0.458333 0.914365 Ti
0.375000 0.791667 0.582873 Ti
0.875000 0.791667 0.582873 Ti
0.375000 0.791667 0.748619 Ti
0.875000 0.791667 0.748619 Ti
0.375000 0.791667 0.914365 Ti
0.875000 0.791667 0.914365 Ti
0.125000 0.625000 0.372928 Ti
0.625000 0.625000 0.372928 Ti
0.125000 0.625000 0.124309 Ti
0.625000 0.625000 0.124309 Ti
0.125000 0.125000 0.372928 Ti
0.625000 0.125000 0.372928 Ti
0.125000 0.125000 0.124309 Ti
0.625000 0.125000 0.124309 Ti
0.125000 0.375000 0.041436 Ti
0.625000 0.375000 0.041436 Ti
0.125000 0.875000 0.041436 Ti
0.625000 0.875000 0.041436 Ti
0.125000 0.375000 0.290055 Ti
0.625000 0.375000 0.290055 Ti
0.125000 0.875000 0.290055 Ti
0.625000 0.875000 0.290055 Ti
0.375000 0.875000 0.165746 Ti
0.875000 0.875000 0.165746 Ti
0.374999 0.375000 0.165746 Ti
0.874999 0.375000 0.165746 Ti
0.375000 0.375000 0.414365 Ti
0.875000 0.375000 0.414365 Ti
0.375000 0.875000 0.414365 Ti
0.875000 0.875000 0.414365 Ti
0.375000 0.625000 0.248619 Ti
0.875000 0.625000 0.248619 Ti
0.375000 0.625000 -0.000000 Ti
0.875000 0.625000 -0.000000 Ti
0.375000 0.125000 0.248619 Ti
0.875000 0.125000 0.248619 Ti
0.375000 0.125000 -0.000000 Ti
0.875000 0.125000 -0.000000 Ti
