alpha_Ti
1.0
6.309760 0.000000 0.000000
0.000000 9.464640 0.000000
0.000000 0.000000 18.100004
Ti
32
direct
0.125000 0.625000 0.372928 Ti
0.625000 0.625000 0.372928 Ti
0.125000 0.625000 0.124309 Ti
0.625000 0.625000 0.124309 Ti
0.125000 0.125000 0.372928 Ti
0.625000 0.125000 0.372928 Ti
0.125000 0.125000 0.124309 Ti
0.625000 0.125000 0.124309 Ti
0.125000 0.375000 0.041436 Ti
0.625000 0.375000 0.041436 Ti
0.125000 0.875000 0.041436 Ti
0.625000 0.875000 0.041436 Ti
0.125000 0.375000 0.290055 Ti
0.625000 0.375000 0.290055 Ti
0.125000 0.875000 0.290055 Ti
0.625000 0.875000 0.290055 Ti
0.375000 0.875000 0.165746 Ti
0.875000 0.875000 0.165746 Ti
0.374999 0.375000 0.165746 Ti
0.874999 0.375000 0.165746 Ti
0.375000 0.375000 0.414365 Ti
0.875000 0.375000 0.414365 Ti
0.375000 0.875000 0.414365 Ti
0.875000 0.875000 0.414365 Ti
0.375000 0.625000 0.248619 Ti
0.875000 0.625000 0.248619 Ti
0.375000 0.625000 -0.000000 Ti
0.875000 0.625000 -0.000000 Ti
0.375000 0.125000 0.248619 Ti
0.875000 0.125000 0.248619 Ti
0.375000 0.125000 -0.000000 Ti
0.875000 0.125000 -0.000000 Ti
