beta_Ti
1.0
4.756510 0.000000 0.000000
0.000000 4.675430 0.000000
0.000000 0.000000 18.211761
Ti
12
direct
0.750000 0.750000 0.917639 Ti
0.250000 0.250000 0.917639 Ti
0.250000 0.750000 0.829705 Ti
0.750000 0.250000 0.829705 Ti
0.750000 0.750000 0.741769 Ti
0.250000 0.250000 0.741769 Ti
0.250000 0.750000 0.653835 Ti
0.750000 0.250000 0.653835 Ti
0.750000 0.750000 0.565900 Ti
0.250000 0.250000 0.565900 Ti
0.250000 0.750000 0.477965 Ti
0.750000 0.250000 0.477965 Ti
