total_Ti
1.0
4.756510 0.000000 0.000000
0.000000 4.675430 0.000000
0.000000 0.000000 18.211761
Ti
24
direct
0.333333 0.750000 0.395601 Ti
0.333333 0.750000 0.237361 Ti
0.333333 0.750000 0.079120 Ti
0.833334 0.750000 0.316482 Ti
0.833334 0.750000 0.158241 Ti
0.833334 0.750000 -0.000000 Ti
0.166666 0.250000 0.316481 Ti
0.166666 0.250000 0.158241 Ti
0.166666 0.250000 -0.000000 Ti
0.666667 0.250000 0.395601 Ti
0.666667 0.250000 0.237361 Ti
0.666667 0.250000 0.079120 Ti
0.750000 0.750000 0.917639 Ti
0.250000 0.250000 0.917639 Ti
0.250000 0.750000 0.829705 Ti
0.750000 0.250000 0.829705 Ti
0.750000 0.750000 0.741769 Ti
0.250000 0.250000 0.741769 Ti
0.250000 0.750000 0.653835 Ti
0.750000 0.250000 0.653835 Ti
0.750000 0.750000 0.565900 Ti
0.250000 0.250000 0.565900 Ti
0.250000 0.750000 0.477965 Ti
0.750000 0.250000 0.477965 Ti
