Ti36
1.0
8.805261 0.000000 0.000000
-4.402630 7.625579 0.000000
0.000000 0.000000 20.288801
Ti
36
direct
0.000000 0.000000 0.487556 Ti
1.000000 0.500000 0.487556 Ti
0.500000 0.000000 0.487556 Ti
0.500000 0.500000 0.487556 Ti
0.166667 0.333333 0.806562 Ti
0.166667 0.833333 0.806562 Ti
0.666667 0.333333 0.806562 Ti
0.666667 0.833333 0.806562 Ti
0.333333 0.166667 0.852134 Ti
0.333333 0.666667 0.852134 Ti
0.833333 0.166667 0.852134 Ti
0.833333 0.666667 0.852134 Ti
0.166667 0.333333 0.533128 Ti
0.166667 0.833333 0.533128 Ti
0.666667 0.333333 0.533128 Ti
0.666667 0.833333 0.533128 Ti
0.333333 0.166667 0.578701 Ti
0.333333 0.666667 0.578701 Ti
0.833333 0.166667 0.578701 Ti
0.833333 0.666667 0.578701 Ti
0.000000 0.000000 0.624273 Ti
1.000000 0.500000 0.624273 Ti
0.500000 0.000000 0.624273 Ti
0.500000 0.500000 0.624273 Ti
0.166667 0.333333 0.669845 Ti
0.166667 0.833333 0.669845 Ti
0.666667 0.333333 0.669845 Ti
0.666667 0.833333 0.669845 Ti
0.333333 0.166667 0.715418 Ti
0.333333 0.666667 0.715418 Ti
0.833333 0.166667 0.715418 Ti
0.833333 0.666667 0.715418 Ti
0.000000 0.000000 0.760990 Ti
1.000000 0.500000 0.760990 Ti
0.500000 0.000000 0.760990 Ti
0.500000 0.500000 0.760990 Ti

0.000000 0.000000 0.000000
0.000000 0.000000 0.000000
0.000000 0.000000 0.000000
0.000000 0.000000 0.000000
0.000000 0.000000 0.000000
0.000000 0.000000 0.000000
0.000000 0.000000 0.000000
0.000000 0.000000 0.000000
0.000000 0.000000 0.000000
0.000000 0.000000 0.000000
0.000000 0.000000 0.000000
0.000000 0.000000 0.000000
0.000000 0.000000 0.000000
0.000000 0.000000 0.000000
0.000000 0.000000 0.000000
0.000000 0.000000 0.000000
0.000000 0.000000 0.000000
0.000000 0.000000 0.000000
0.000000 0.000000 0.000000
0.000000 0.000000 0.000000
0.000000 0.000000 0.000000
0.000000 0.000000 0.000000
0.000000 0.000000 0.000000
0.000000 0.000000 0.000000
0.000000 0.000000 0.000000
0.000000 0.000000 0.000000
0.000000 0.000000 0.000000
0.000000 0.000000 0.000000
0.000000 0.000000 0.000000
0.000000 0.000000 0.000000
0.000000 0.000000 0.000000
0.000000 0.000000 0.000000
0.000000 0.000000 0.000000
0.000000 0.000000 0.000000
0.000000 0.000000 0.000000
0.000000 0.000000 0.000000
