Ti72
1.0
8.805261 0.000000 0.000000
-4.402630 7.625579 0.000000
0.000000 0.000000 20.288801
Ti
72
direct
0.000000 0.000000 0.487556 Ti
1.000000 0.500000 0.487556 Ti
0.500000 0.000000 0.487556 Ti
0.500000 0.500000 0.487556 Ti
0.166667 0.333333 0.806562 Ti
0.166667 0.833333 0.806562 Ti
0.666667 0.333333 0.806562 Ti
0.666667 0.833333 0.806562 Ti
0.333333 0.166667 0.852134 Ti
0.333333 0.666667 0.852134 Ti
0.833333 0.166667 0.852134 Ti
0.833333 0.666667 0.852134 Ti
0.166667 0.333333 0.533128 Ti
0.166667 0.833333 0.533128 Ti
0.666667 0.333333 0.533128 Ti
0.666667 0.833333 0.533128 Ti
0.333333 0.166667 0.578701 Ti
0.333333 0.666667 0.578701 Ti
0.833333 0.166667 0.578701 Ti
0.833333 0.666667 0.578701 Ti
0.000000 0.000000 0.624273 Ti
1.000000 0.500000 0.624273 Ti
0.500000 0.000000 0.624273 Ti
0.500000 0.500000 0.624273 Ti
0.166667 0.333333 0.669845 Ti
0.166667 0.833333 0.669845 Ti
0.666667 0.333333 0.669845 Ti
0.666667 0.833333 0.669845 Ti
0.333333 0.166667 0.715418 Ti
0.333333 0.666667 0.715418 Ti
0.833333 0.166667 0.715418 Ti
0.833333 0.666667 0.715418 Ti
0.000000 0.000000 0.760990 Ti
1.000000 0.500000 0.760990 Ti
0.500000 0.000000 0.760990 Ti
0.500000 0.500000 0.760990 Ti
0.111111 0.888889 -0.000000 Ti
0.111111 0.888889 0.226461 Ti
0.111111 0.555556 -0.000000 Ti
0.222222 0.777778 0.113230 Ti
0.111111 0.555556 0.226461 Ti
0.444444 0.888889 -0.000000 Ti
0.111111 0.222222 -0.000000 Ti
0.222222 0.777778 0.339691 Ti
0.222222 0.444444 0.113230 Ti
0.444444 0.888889 0.226461 Ti
0.111111 0.222222 0.226461 Ti
0.444444 0.555556 -0.000000 Ti
0.222222 0.444444 0.339691 Ti
0.555556 0.777778 0.113230 Ti
0.222222 0.111111 0.113230 Ti
0.444444 0.555556 0.226461 Ti
0.777778 0.888889 -0.000000 Ti
0.444444 0.222222 -0.000000 Ti
0.555556 0.777778 0.339691 Ti
0.222222 0.111111 0.339691 Ti
0.555556 0.444444 0.113230 Ti
0.777778 0.888889 0.226461 Ti
0.444444 0.222222 0.226461 Ti
0.777778 0.555556 -0.000000 Ti
0.555556 0.444444 0.339691 Ti
0.888889 0.777778 0.113230 Ti
0.555556 0.111111 0.113230 Ti
0.777778 0.555556 0.226461 Ti
0.777778 0.222222 -0.000000 Ti
0.888889 0.777778 0.339691 Ti
0.555556 0.111111 0.339691 Ti
0.888889 0.444444 0.113230 Ti
0.777778 0.222222 0.226461 Ti
0.888889 0.444444 0.339691 Ti
0.888889 0.111111 0.113230 Ti
0.888889 0.111111 0.339691 Ti

0.000000 0.000000 0.000000
0.000000 0.000000 0.000000
0.000000 0.000000 0.000000
0.000000 0.000000 0.000000
0.000000 0.000000 0.000000
0.000000 0.000000 0.000000
0.000000 0.000000 0.000000
0.000000 0.000000 0.000000
0.000000 0.000000 0.000000
0.000000 0.000000 0.000000
0.000000 0.000000 0.000000
0.000000 0.000000 0.000000
0.000000 0.000000 0.000000
0.000000 0.000000 0.000000
0.000000 0.000000 0.000000
0.000000 0.000000 0.000000
0.000000 0.000000 0.000000
0.000000 0.000000 0.000000
0.000000 0.000000 0.000000
0.000000 0.000000 0.000000
0.000000 0.000000 0.000000
0.000000 0.000000 0.000000
0.000000 0.000000 0.000000
0.000000 0.000000 0.000000
0.000000 0.000000 0.000000
0.000000 0.000000 0.000000
0.000000 0.000000 0.000000
0.000000 0.000000 0.000000
0.000000 0.000000 0.000000
0.000000 0.000000 0.000000
0.000000 0.000000 0.000000
0.000000 0.000000 0.000000
0.000000 0.000000 0.000000
0.000000 0.000000 0.000000
0.000000 0.000000 0.000000
0.000000 0.000000 0.000000
0.000000 0.000000 0.000000
0.000000 0.000000 0.000000
0.000000 0.000000 0.000000
0.000000 0.000000 0.000000
0.000000 0.000000 0.000000
0.000000 0.000000 0.000000
0.000000 0.000000 0.000000
0.000000 0.000000 0.000000
0.000000 0.000000 0.000000
0.000000 0.000000 0.000000
0.000000 0.000000 0.000000
0.000000 0.000000 0.000000
0.000000 0.000000 0.000000
0.000000 0.000000 0.000000
0.000000 0.000000 0.000000
0.000000 0.000000 0.000000
0.000000 0.000000 0.000000
0.000000 0.000000 0.000000
0.000000 0.000000 0.000000
0.000000 0.000000 0.000000
0.000000 0.000000 0.000000
0.000000 0.000000 0.000000
0.000000 0.000000 0.000000
0.000000 0.000000 0.000000
0.000000 0.000000 0.000000
0.000000 0.000000 0.000000
0.000000 0.000000 0.000000
0.000000 0.000000 0.000000
0.000000 0.000000 0.000000
0.000000 0.000000 0.000000
0.000000 0.000000 0.000000
0.000000 0.000000 0.000000
0.000000 0.000000 0.000000
0.000000 0.000000 0.000000
0.000000 0.000000 0.000000
0.000000 0.000000 0.000000
