alpha_Ti
1.0
9.588310 0.000000 0.000000
0.000000 9.588310 0.000000
0.000000 0.000000 19.200006
Ti
48
direct
0.125000 0.833333 -0.000000 Ti
0.125000 0.333333 -0.000000 Ti
0.625000 0.833333 -0.000000 Ti
0.625000 0.333333 -0.000000 Ti
0.375000 0.666667 -0.000000 Ti
0.375000 0.166667 -0.000000 Ti
0.875000 0.666667 -0.000000 Ti
0.875000 0.166667 -0.000000 Ti
0.875000 0.416667 0.078125 Ti
0.375000 0.416667 0.078125 Ti
0.875000 0.916667 0.078125 Ti
0.375000 0.916667 0.078125 Ti
0.625000 0.083333 0.078125 Ti
0.125000 0.083333 0.078125 Ti
0.625000 0.583333 0.078125 Ti
0.125000 0.583333 0.078125 Ti
0.125000 0.333333 0.156250 Ti
0.625000 0.333333 0.156250 Ti
0.625000 0.833333 0.156250 Ti
0.125000 0.833333 0.156250 Ti
0.875000 0.666667 0.156250 Ti
0.375000 0.166667 0.156250 Ti
0.875000 0.166667 0.156250 Ti
0.375000 0.666667 0.156250 Ti
0.875000 0.416667 0.234375 Ti
0.375000 0.416667 0.234375 Ti
0.875000 0.916667 0.234375 Ti
0.375000 0.916667 0.234375 Ti
0.125000 0.583333 0.234375 Ti
0.625000 0.083333 0.234375 Ti
0.125000 0.083333 0.234375 Ti
0.625000 0.583333 0.234375 Ti
0.625000 0.833333 0.312499 Ti
0.625000 0.333333 0.312499 Ti
0.125000 0.833333 0.312499 Ti
0.125000 0.333333 0.312499 Ti
0.375000 0.166667 0.312499 Ti
0.875000 0.166667 0.312499 Ti
0.375000 0.666667 0.312499 Ti
0.875000 0.666667 0.312499 Ti
0.875000 0.416667 0.390625 Ti
0.375000 0.416667 0.390625 Ti
0.375000 0.916667 0.390625 Ti
0.875000 0.916667 0.390625 Ti
0.625000 0.583333 0.390625 Ti
0.625000 0.083333 0.390625 Ti
0.125000 0.583333 0.390625 Ti
0.125000 0.083333 0.390625 Ti
