Ti96 Mo1
1.0
9.513020 0.000000 0.000000
0.000000 9.350860 0.000000
0.000000 0.000000 18.547230
Ti Mo
96 1
Selective dynamics
direct
0.139368 0.379288 0.404928 T T T Ti
0.645720 0.358419 0.403295 T T T Ti
0.168666 0.886448 0.402624 T T T Ti
0.632721 0.945287 0.407438 T T T Ti
0.161191 0.379597 0.235587 T T T Ti
0.659917 0.377231 0.232164 T T T Ti
0.161860 0.875974 0.236859 T T T Ti
0.655918 0.881593 0.234789 T T T Ti
0.166649 0.374986 0.077467 F F F Ti
0.666701 0.375015 0.077475 F F F Ti
0.166703 0.874983 0.077506 F F F Ti
0.666693 0.874966 0.077649 F F F Ti
0.395627 0.365788 0.319461 T T T Ti
0.908289 0.360706 0.310800 T T T Ti
0.412175 0.861662 0.321498 T T T Ti
0.917662 0.894132 0.324326 T T T Ti
0.416615 0.375032 0.155016 F F F Ti
0.916799 0.374868 0.155004 F F F Ti
0.416886 0.875028 0.155192 F F F Ti
0.916635 0.874866 0.155184 F F F Ti
0.416687 0.375012 -0.000093 F F F Ti
0.916643 0.375003 -0.000077 F F F Ti
0.416746 0.874991 -0.000035 F F F Ti
0.916622 0.874967 -0.000024 F F F Ti
0.104373 0.134213 0.319460 T T T Ti
0.591710 0.139295 0.310799 T T T Ti
0.087825 0.638339 0.321497 T T T Ti
0.582338 0.605870 0.324325 T T T Ti
0.083390 0.124991 0.155016 F F F Ti
0.583196 0.125155 0.155001 F F F Ti
0.083117 0.624987 0.155194 F F F Ti
0.583362 0.625152 0.155184 F F F Ti
0.083318 0.124996 -0.000094 F F F Ti
0.583353 0.125005 -0.000077 F F F Ti
0.083259 0.625011 -0.000035 F F F Ti
0.583376 0.625037 -0.000024 F F F Ti
0.360631 0.120712 0.404928 T T T Ti
0.854279 0.141581 0.403294 T T T Ti
0.331333 0.613553 0.402624 T T T Ti
0.867278 0.554713 0.407438 T T T Ti
0.338808 0.120407 0.235587 T T T Ti
0.840082 0.122774 0.232163 T T T Ti
0.338139 0.624030 0.236860 T T T Ti
0.844081 0.618412 0.234789 T T T Ti
0.333350 0.125030 0.077467 F F F Ti
0.833299 0.125001 0.077475 F F F Ti
0.333295 0.625033 0.077506 F F F Ti
0.833307 0.625045 0.077648 F F F Ti
0.374959 0.374995 0.823897 F F F Ti
0.875018 0.374957 0.823859 F F F Ti
0.375051 0.874996 0.823887 F F F Ti
0.874977 0.874944 0.823813 F F F Ti
0.125047 0.124997 0.823896 F F F Ti
0.624990 0.125036 0.823859 F F F Ti
0.124954 0.624991 0.823888 F F F Ti
0.625030 0.625047 0.823814 F F F Ti
0.124907 0.375047 0.910072 F F F Ti
0.625053 0.375080 0.910048 F F F Ti
0.124880 0.874946 0.910069 F F F Ti
0.625068 0.874943 0.910028 F F F Ti
0.375099 0.124952 0.910073 F F F Ti
0.874951 0.124916 0.910048 F F F Ti
0.375125 0.625045 0.910069 F F F Ti
0.874937 0.625055 0.910028 F F F Ti
0.392888 0.365773 0.647917 T T T Ti
0.891747 0.365676 0.662224 T T T Ti
0.384848 0.863316 0.663483 T T T Ti
0.891248 0.864457 0.655866 T T T Ti
0.107110 0.134222 0.647917 T T T Ti
0.608250 0.134318 0.662223 T T T Ti
0.115149 0.636676 0.663483 T T T Ti
0.608749 0.635536 0.655866 T T T Ti
0.144326 0.396052 0.574328 T T T Ti
0.651970 0.387432 0.578526 T T T Ti
0.149176 0.878590 0.573365 T T T Ti
0.633056 0.891868 0.579257 T T T Ti
0.355674 0.103946 0.574328 T T T Ti
0.848029 0.112566 0.578526 T T T Ti
0.350823 0.621408 0.573366 T T T Ti
0.866943 0.608129 0.579257 T T T Ti
0.386307 0.363326 0.491885 T T T Ti
0.903888 0.349201 0.499276 T T T Ti
0.405130 0.853592 0.485622 T T T Ti
0.917795 0.896284 0.483366 T T T Ti
0.113693 0.136673 0.491885 T T T Ti
0.596112 0.150798 0.499276 T T T Ti
0.094870 0.646407 0.485622 T T T Ti
0.582205 0.603716 0.483367 T T T Ti
0.125149 0.874963 0.737736 F F F Ti
0.624975 0.875148 0.737596 F F F Ti
0.374839 0.625007 0.737737 F F F Ti
0.875018 0.624831 0.737598 F F F Ti
0.125078 0.374902 0.737667 F F F Ti
0.624932 0.374961 0.737708 F F F Ti
0.374912 0.125077 0.737666 F F F Ti
0.875057 0.125013 0.737707 F F F Ti
0.750000 0.750000 0.412446 T T T Mo

0.000000 0.000000 0.000000
0.000000 0.000000 0.000000
0.000000 0.000000 0.000000
0.000000 0.000000 0.000000
0.000000 0.000000 0.000000
0.000000 0.000000 0.000000
0.000000 0.000000 0.000000
0.000000 0.000000 0.000000
0.000000 0.000000 0.000000
0.000000 0.000000 0.000000
0.000000 0.000000 0.000000
0.000000 0.000000 0.000000
0.000000 0.000000 0.000000
0.000000 0.000000 0.000000
0.000000 0.000000 0.000000
0.000000 0.000000 0.000000
0.000000 0.000000 0.000000
0.000000 0.000000 0.000000
0.000000 0.000000 0.000000
0.000000 0.000000 0.000000
0.000000 0.000000 0.000000
0.000000 0.000000 0.000000
0.000000 0.000000 0.000000
0.000000 0.000000 0.000000
0.000000 0.000000 0.000000
0.000000 0.000000 0.000000
0.000000 0.000000 0.000000
0.000000 0.000000 0.000000
0.000000 0.000000 0.000000
0.000000 0.000000 0.000000
0.000000 0.000000 0.000000
0.000000 0.000000 0.000000
0.000000 0.000000 0.000000
0.000000 0.000000 0.000000
0.000000 0.000000 0.000000
0.000000 0.000000 0.000000
0.000000 0.000000 0.000000
0.000000 0.000000 0.000000
0.000000 0.000000 0.000000
0.000000 0.000000 0.000000
0.000000 0.000000 0.000000
0.000000 0.000000 0.000000
0.000000 0.000000 0.000000
0.000000 0.000000 0.000000
0.000000 0.000000 0.000000
0.000000 0.000000 0.000000
0.000000 0.000000 0.000000
0.000000 0.000000 0.000000
0.000000 0.000000 0.000000
0.000000 0.000000 0.000000
0.000000 0.000000 0.000000
0.000000 0.000000 0.000000
0.000000 0.000000 0.000000
0.000000 0.000000 0.000000
0.000000 0.000000 0.000000
0.000000 0.000000 0.000000
0.000000 0.000000 0.000000
0.000000 0.000000 0.000000
0.000000 0.000000 0.000000
0.000000 0.000000 0.000000
0.000000 0.000000 0.000000
0.000000 0.000000 0.000000
0.000000 0.000000 0.000000
0.000000 0.000000 0.000000
0.000000 0.000000 0.000000
0.000000 0.000000 0.000000
0.000000 0.000000 0.000000
0.000000 0.000000 0.000000
0.000000 0.000000 0.000000
0.000000 0.000000 0.000000
0.000000 0.000000 0.000000
0.000000 0.000000 0.000000
0.000000 0.000000 0.000000
0.000000 0.000000 0.000000
0.000000 0.000000 0.000000
0.000000 0.000000 0.000000
0.000000 0.000000 0.000000
0.000000 0.000000 0.000000
0.000000 0.000000 0.000000
0.000000 0.000000 0.000000
0.000000 0.000000 0.000000
0.000000 0.000000 0.000000
0.000000 0.000000 0.000000
0.000000 0.000000 0.000000
0.000000 0.000000 0.000000
0.000000 0.000000 0.000000
0.000000 0.000000 0.000000
0.000000 0.000000 0.000000
0.000000 0.000000 0.000000
0.000000 0.000000 0.000000
0.000000 0.000000 0.000000
0.000000 0.000000 0.000000
0.000000 0.000000 0.000000
0.000000 0.000000 0.000000
0.000000 0.000000 0.000000
0.000000 0.000000 0.000000
0.000000 0.000000 0.000000
