alpha_Ti
1.0
4.756512 0.000000 0.000000
0.000000 4.675432 0.000000
0.000000 0.000000 27.211800
Ti
12
direct
0.333333 0.750000 0.264760 Ti
0.333333 0.750000 0.158856 Ti
0.333333 0.750000 0.052952 Ti
0.833334 0.750000 0.211808 Ti
0.833334 0.750000 0.105904 Ti
0.833334 0.750000 -0.000000 Ti
0.166666 0.250000 0.211808 Ti
0.166666 0.250000 0.105904 Ti
0.166666 0.250000 -0.000000 Ti
0.666667 0.250000 0.264760 Ti
0.666667 0.250000 0.158856 Ti
0.666667 0.250000 0.052952 Ti
