Zr1 Ti96
1.0
9.513020 0.000000 0.000000
0.000000 9.350860 0.000000
0.000000 0.000000 18.547230
Ti Zr
96 1
Selective dynamics
direct
0.146995 0.374613 0.404902 T T T Ti
0.642460 0.337246 0.408019 T T T Ti
0.135379 0.852502 0.407055 T T T Ti
0.685607 0.893733 0.404549 T T T Ti
0.153550 0.369096 0.238890 T T T Ti
0.655289 0.365413 0.236564 T T T Ti
0.159981 0.869615 0.232371 T T T Ti
0.673080 0.886616 0.232310 T T T Ti
0.166656 0.375107 0.077436 F F F Ti
0.666750 0.374926 0.077353 F F F Ti
0.166680 0.875013 0.077427 F F F Ti
0.666582 0.874944 0.077517 F F F Ti
0.409616 0.387311 0.319803 T T T Ti
0.898759 0.372843 0.323828 T T T Ti
0.357006 0.924208 0.328499 T T T Ti
0.915099 0.878839 0.314865 T T T Ti
0.416743 0.375242 0.154888 F F F Ti
0.916836 0.374726 0.154905 F F F Ti
0.416605 0.874932 0.155264 F F F Ti
0.916609 0.875187 0.154846 F F F Ti
0.416661 0.375044 -0.000125 F F F Ti
0.916651 0.374969 -0.000158 F F F Ti
0.416656 0.874966 -0.000036 F F F Ti
0.916638 0.874998 -0.000169 F F F Ti
0.101241 0.127159 0.323826 T T T Ti
0.590383 0.112691 0.319802 T T T Ti
0.084901 0.621163 0.314864 T T T Ti
0.642994 0.575794 0.328498 T T T Ti
0.083162 0.125305 0.154901 F F F Ti
0.583257 0.124790 0.154890 F F F Ti
0.083392 0.624847 0.154848 F F F Ti
0.583397 0.625085 0.155262 F F F Ti
0.083350 0.125036 -0.000161 F F F Ti
0.583340 0.124966 -0.000125 F F F Ti
0.083362 0.625014 -0.000168 F F F Ti
0.583347 0.625036 -0.000038 F F F Ti
0.357539 0.162754 0.408019 T T T Ti
0.853004 0.125387 0.404902 T T T Ti
0.314392 0.606268 0.404549 T T T Ti
0.864620 0.647498 0.407055 T T T Ti
0.344710 0.134593 0.236563 T T T Ti
0.846449 0.130910 0.238890 T T T Ti
0.326919 0.613391 0.232311 T T T Ti
0.840018 0.630392 0.232371 T T T Ti
0.333250 0.125098 0.077351 F F F Ti
0.833343 0.124914 0.077436 F F F Ti
0.333417 0.625077 0.077516 F F F Ti
0.833320 0.625011 0.077426 F F F Ti
0.375038 0.375068 0.823864 F F F Ti
0.874942 0.374949 0.823881 F F F Ti
0.375018 0.874954 0.823760 F F F Ti
0.875011 0.875049 0.823740 F F F Ti
0.125060 0.125028 0.823878 F F F Ti
0.624967 0.124914 0.823863 F F F Ti
0.124990 0.624937 0.823742 F F F Ti
0.624985 0.625031 0.823760 F F F Ti
0.125040 0.375101 0.910140 F F F Ti
0.624992 0.375090 0.910174 F F F Ti
0.125062 0.874946 0.910135 F F F Ti
0.624964 0.874923 0.910203 F F F Ti
0.375014 0.124891 0.910175 F F F Ti
0.874965 0.124881 0.910140 F F F Ti
0.375038 0.625052 0.910203 F F F Ti
0.874944 0.625034 0.910135 F F F Ti
0.394211 0.386954 0.654605 T T T Ti
0.896269 0.374172 0.652434 T T T Ti
0.396457 0.889214 0.649990 T T T Ti
0.885790 0.884585 0.664234 T T T Ti
0.103729 0.125825 0.652433 T T T Ti
0.605788 0.113041 0.654605 T T T Ti
0.114209 0.615408 0.664235 T T T Ti
0.603543 0.610781 0.649991 T T T Ti
0.149817 0.373780 0.571690 T T T Ti
0.650698 0.349232 0.574441 T T T Ti
0.133764 0.866002 0.584012 T T T Ti
0.652710 0.859561 0.575214 T T T Ti
0.349302 0.150767 0.574440 T T T Ti
0.850183 0.126219 0.571690 T T T Ti
0.347290 0.640437 0.575214 T T T Ti
0.866236 0.633995 0.584012 T T T Ti
0.405724 0.397675 0.496050 T T T Ti
0.898482 0.372564 0.486722 T T T Ti
0.356287 0.916046 0.494436 T T T Ti
0.909174 0.883703 0.494685 T T T Ti
0.101518 0.127436 0.486722 T T T Ti
0.594276 0.102324 0.496050 T T T Ti
0.090826 0.616297 0.494685 T T T Ti
0.643713 0.583954 0.494436 T T T Ti
0.125013 0.875282 0.737593 F F F Ti
0.624974 0.875102 0.737556 F F F Ti
0.375022 0.624881 0.737557 F F F Ti
0.874984 0.624698 0.737598 F F F Ti
0.124906 0.375005 0.737679 F F F Ti
0.624947 0.374898 0.737716 F F F Ti
0.375043 0.125073 0.737714 F F F Ti
0.875087 0.124969 0.737678 F F F Ti
0.500000 0.750000 0.378446 T T T Zr

0.000000 0.000000 0.000000
0.000000 0.000000 0.000000
0.000000 0.000000 0.000000
0.000000 0.000000 0.000000
0.000000 0.000000 0.000000
0.000000 0.000000 0.000000
0.000000 0.000000 0.000000
0.000000 0.000000 0.000000
0.000000 0.000000 0.000000
0.000000 0.000000 0.000000
0.000000 0.000000 0.000000
0.000000 0.000000 0.000000
0.000000 0.000000 0.000000
0.000000 0.000000 0.000000
0.000000 0.000000 0.000000
0.000000 0.000000 0.000000
0.000000 0.000000 0.000000
0.000000 0.000000 0.000000
0.000000 0.000000 0.000000
0.000000 0.000000 0.000000
0.000000 0.000000 0.000000
0.000000 0.000000 0.000000
0.000000 0.000000 0.000000
0.000000 0.000000 0.000000
0.000000 0.000000 0.000000
0.000000 0.000000 0.000000
0.000000 0.000000 0.000000
0.000000 0.000000 0.000000
0.000000 0.000000 0.000000
0.000000 0.000000 0.000000
0.000000 0.000000 0.000000
0.000000 0.000000 0.000000
0.000000 0.000000 0.000000
0.000000 0.000000 0.000000
0.000000 0.000000 0.000000
0.000000 0.000000 0.000000
0.000000 0.000000 0.000000
0.000000 0.000000 0.000000
0.000000 0.000000 0.000000
0.000000 0.000000 0.000000
0.000000 0.000000 0.000000
0.000000 0.000000 0.000000
0.000000 0.000000 0.000000
0.000000 0.000000 0.000000
0.000000 0.000000 0.000000
0.000000 0.000000 0.000000
0.000000 0.000000 0.000000
0.000000 0.000000 0.000000
0.000000 0.000000 0.000000
0.000000 0.000000 0.000000
0.000000 0.000000 0.000000
0.000000 0.000000 0.000000
0.000000 0.000000 0.000000
0.000000 0.000000 0.000000
0.000000 0.000000 0.000000
0.000000 0.000000 0.000000
0.000000 0.000000 0.000000
0.000000 0.000000 0.000000
0.000000 0.000000 0.000000
0.000000 0.000000 0.000000
0.000000 0.000000 0.000000
0.000000 0.000000 0.000000
0.000000 0.000000 0.000000
0.000000 0.000000 0.000000
0.000000 0.000000 0.000000
0.000000 0.000000 0.000000
0.000000 0.000000 0.000000
0.000000 0.000000 0.000000
0.000000 0.000000 0.000000
0.000000 0.000000 0.000000
0.000000 0.000000 0.000000
0.000000 0.000000 0.000000
0.000000 0.000000 0.000000
0.000000 0.000000 0.000000
0.000000 0.000000 0.000000
0.000000 0.000000 0.000000
0.000000 0.000000 0.000000
0.000000 0.000000 0.000000
0.000000 0.000000 0.000000
0.000000 0.000000 0.000000
0.000000 0.000000 0.000000
0.000000 0.000000 0.000000
0.000000 0.000000 0.000000
0.000000 0.000000 0.000000
0.000000 0.000000 0.000000
0.000000 0.000000 0.000000
0.000000 0.000000 0.000000
0.000000 0.000000 0.000000
0.000000 0.000000 0.000000
0.000000 0.000000 0.000000
0.000000 0.000000 0.000000
0.000000 0.000000 0.000000
0.000000 0.000000 0.000000
0.000000 0.000000 0.000000
0.000000 0.000000 0.000000
0.000000 0.000000 0.000000
0.000000 0.000000 0.000000
