beta_Ti
1.0
4.756510 0.000000 0.000000
0.000000 4.675430 0.000000
0.000000 0.000000 20.911761
Ti
12
direct
0.750000 0.750000 0.863716 Ti
0.250000 0.250000 0.863716 Ti
0.250000 0.750000 0.787135 Ti
0.750000 0.250000 0.787135 Ti
0.750000 0.750000 0.710554 Ti
0.250000 0.250000 0.710554 Ti
0.250000 0.750000 0.633973 Ti
0.750000 0.250000 0.633973 Ti
0.750000 0.750000 0.557391 Ti
0.250000 0.250000 0.557391 Ti
0.250000 0.750000 0.480810 Ti
0.750000 0.250000 0.480810 Ti
