Ti66 Al1
1.0
6.309760 0.000000 0.000000
0.000000 9.464640 0.000000
0.000000 0.000000 18.918326
Ti Al
66 1
Selective dynamics
direct
0.625000 0.081525 0.469460 T T T Ti
0.125000 0.042732 0.653594 T T T Ti
0.625000 0.051562 0.636286 T T T Ti
0.125000 0.041667 0.817153 F F F Ti
0.625000 0.041667 0.817153 F F F Ti
0.125000 0.401753 0.490705 T T T Ti
0.625000 0.398672 0.507807 T T T Ti
0.125000 0.349083 0.645001 T T T Ti
0.625000 0.352988 0.650424 T T T Ti
0.125000 0.375000 0.817153 F F F Ti
0.625000 0.375000 0.817153 F F F Ti
0.125000 0.683417 0.489705 T T T Ti
0.625000 0.710704 0.494323 T T T Ti
0.125000 0.736879 0.645124 T T T Ti
0.625000 0.742057 0.644455 T T T Ti
0.125000 0.708333 0.817153 F F F Ti
0.625000 0.708333 0.817153 F F F Ti
0.336785 0.190009 0.544542 T T T Ti
0.913215 0.190009 0.544542 T T T Ti
0.375000 0.208333 0.737865 F F F Ti
0.875000 0.208333 0.737865 F F F Ti
0.375000 0.208333 0.896441 F F F Ti
0.875000 0.208333 0.896441 F F F Ti
0.375379 0.545126 0.590751 T T T Ti
0.874621 0.545126 0.590751 T T T Ti
0.375000 0.541667 0.737865 F F F Ti
0.875000 0.541667 0.737865 F F F Ti
0.375000 0.541667 0.896441 F F F Ti
0.875000 0.541667 0.896441 F F F Ti
0.346155 0.901685 0.548793 T T T Ti
0.903845 0.901685 0.548793 T T T Ti
0.375000 0.875000 0.737865 F F F Ti
0.875000 0.875000 0.737865 F F F Ti
0.375000 0.875000 0.896441 F F F Ti
0.875000 0.875000 0.896441 F F F Ti
0.125000 0.621805 0.363178 T T T Ti
0.625000 0.612198 0.364783 T T T Ti
0.125000 0.625000 0.118932 F F F Ti
0.625000 0.625000 0.118932 F F F Ti
0.625000 0.096940 0.353162 T T T Ti
0.125000 0.125000 0.118932 F F F Ti
0.625000 0.125000 0.118932 F F F Ti
0.125000 0.375000 0.039644 F F F Ti
0.625000 0.375000 0.039644 F F F Ti
0.125000 0.875000 0.039644 F F F Ti
0.625000 0.875000 0.039644 F F F Ti
0.125000 0.378440 0.283493 T T T Ti
0.625000 0.377183 0.273418 T T T Ti
0.125000 0.890557 0.283716 T T T Ti
0.625000 0.861155 0.277647 T T T Ti
0.375000 0.875000 0.158576 F F F Ti
0.875000 0.875000 0.158576 F F F Ti
0.374999 0.375000 0.158576 F F F Ti
0.874999 0.375000 0.158576 F F F Ti
0.410327 0.351017 0.391760 T T T Ti
0.839673 0.351017 0.391760 T T T Ti
0.362329 0.867157 0.403177 T T T Ti
0.887671 0.867157 0.403177 T T T Ti
0.363047 0.630244 0.246074 T T T Ti
0.886953 0.630244 0.246074 T T T Ti
0.375000 0.625000 0.000000 F F F Ti
0.875000 0.625000 0.000000 F F F Ti
0.375488 0.129621 0.245609 T T T Ti
0.874512 0.129621 0.245609 T T T Ti
0.375000 0.125000 0.000000 F F F Ti
0.875000 0.125000 0.000000 F F F Ti
0.125000 0.121626 0.395855 T T T Al
