Zr1 Ti96
1.0
9.513020 0.000000 0.000000
0.000000 9.350860 0.000000
0.000000 0.000000 18.547230
Ti Zr
96 1
Selective dynamics
direct
0.143112 0.368571 0.405558 T T T Ti
0.636385 0.338850 0.407401 T T T Ti
0.141229 0.846412 0.399770 T T T Ti
0.687453 0.906050 0.397788 T T T Ti
0.151461 0.368690 0.238788 T T T Ti
0.659379 0.368073 0.235119 T T T Ti
0.161054 0.872700 0.233122 T T T Ti
0.668581 0.879063 0.233713 T T T Ti
0.166653 0.375058 0.077523 F F F Ti
0.666716 0.374911 0.077495 F F F Ti
0.166672 0.875020 0.077503 F F F Ti
0.666616 0.874993 0.077527 F F F Ti
0.407435 0.381483 0.314371 T T T Ti
0.890797 0.381475 0.328518 T T T Ti
0.380888 0.907335 0.323983 T T T Ti
0.916204 0.882439 0.312511 T T T Ti
0.416737 0.375076 0.155102 F F F Ti
0.916675 0.374803 0.155066 F F F Ti
0.416594 0.874947 0.155274 F F F Ti
0.916691 0.875192 0.154990 F F F Ti
0.416679 0.375021 -0.000086 F F F Ti
0.916647 0.374974 -0.000114 F F F Ti
0.416671 0.874982 -0.000046 F F F Ti
0.916659 0.875003 -0.000146 F F F Ti
0.109203 0.118526 0.328517 T T T Ti
0.592565 0.118518 0.314370 T T T Ti
0.083796 0.617563 0.312510 T T T Ti
0.619111 0.592666 0.323982 T T T Ti
0.083325 0.125214 0.155064 F F F Ti
0.583264 0.124941 0.155102 F F F Ti
0.083309 0.624831 0.154991 F F F Ti
0.583408 0.625065 0.155272 F F F Ti
0.083356 0.125026 -0.000116 F F F Ti
0.583321 0.124983 -0.000085 F F F Ti
0.083341 0.625007 -0.000145 F F F Ti
0.583332 0.625023 -0.000047 F F F Ti
0.363614 0.161150 0.407401 T T T Ti
0.856887 0.131429 0.405558 T T T Ti
0.312546 0.593950 0.397788 T T T Ti
0.858770 0.653588 0.399770 T T T Ti
0.340620 0.131931 0.235119 T T T Ti
0.848538 0.131314 0.238788 T T T Ti
0.331418 0.620940 0.233713 T T T Ti
0.838945 0.627304 0.233122 T T T Ti
0.333284 0.125100 0.077495 F F F Ti
0.833346 0.124953 0.077524 F F F Ti
0.333382 0.625022 0.077526 F F F Ti
0.833328 0.624995 0.077503 F F F Ti
0.375016 0.375037 0.823819 F F F Ti
0.874960 0.375013 0.823867 F F F Ti
0.375032 0.874899 0.823758 F F F Ti
0.875007 0.875020 0.823692 F F F Ti
0.125049 0.124976 0.823867 F F F Ti
0.624983 0.124955 0.823819 F F F Ti
0.124997 0.624975 0.823694 F F F Ti
0.624977 0.625097 0.823757 F F F Ti
0.125050 0.375099 0.910062 F F F Ti
0.624970 0.375085 0.910058 F F F Ti
0.125066 0.874922 0.910018 F F F Ti
0.624952 0.874956 0.910001 F F F Ti
0.375037 0.124909 0.910058 F F F Ti
0.874955 0.124895 0.910064 F F F Ti
0.375052 0.625042 0.910001 F F F Ti
0.874938 0.625075 0.910016 F F F Ti
0.392048 0.389062 0.656442 T T T Ti
0.895997 0.372236 0.650907 T T T Ti
0.396044 0.890776 0.647255 T T T Ti
0.884105 0.884844 0.667011 T T T Ti
0.104000 0.127760 0.650907 T T T Ti
0.607950 0.110934 0.656441 T T T Ti
0.115894 0.615151 0.667012 T T T Ti
0.603954 0.609219 0.647256 T T T Ti
0.150010 0.379840 0.569762 T T T Ti
0.648429 0.344024 0.576189 T T T Ti
0.128293 0.861999 0.585709 T T T Ti
0.654612 0.860156 0.575670 T T T Ti
0.351570 0.155975 0.576189 T T T Ti
0.849989 0.120158 0.569762 T T T Ti
0.345387 0.639842 0.575670 T T T Ti
0.871707 0.637999 0.585709 T T T Ti
0.410287 0.400899 0.496452 T T T Ti
0.898092 0.371240 0.488062 T T T Ti
0.334500 0.927626 0.495546 T T T Ti
0.913136 0.881649 0.489692 T T T Ti
0.101908 0.128760 0.488062 T T T Ti
0.589713 0.099100 0.496452 T T T Ti
0.086864 0.618351 0.489692 T T T Ti
0.665499 0.572373 0.495546 T T T Ti
0.125004 0.874809 0.737573 F F F Ti
0.625133 0.875198 0.737515 F F F Ti
0.374861 0.624787 0.737519 F F F Ti
0.874987 0.625174 0.737570 F F F Ti
0.125013 0.375035 0.737652 F F F Ti
0.624914 0.374967 0.737701 F F F Ti
0.375073 0.125002 0.737699 F F F Ti
0.874977 0.124940 0.737654 F F F Ti
0.500000 0.750000 0.419394 T T T Zr

0.000000 0.000000 0.000000
0.000000 0.000000 0.000000
0.000000 0.000000 0.000000
0.000000 0.000000 0.000000
0.000000 0.000000 0.000000
0.000000 0.000000 0.000000
0.000000 0.000000 0.000000
0.000000 0.000000 0.000000
0.000000 0.000000 0.000000
0.000000 0.000000 0.000000
0.000000 0.000000 0.000000
0.000000 0.000000 0.000000
0.000000 0.000000 0.000000
0.000000 0.000000 0.000000
0.000000 0.000000 0.000000
0.000000 0.000000 0.000000
0.000000 0.000000 0.000000
0.000000 0.000000 0.000000
0.000000 0.000000 0.000000
0.000000 0.000000 0.000000
0.000000 0.000000 0.000000
0.000000 0.000000 0.000000
0.000000 0.000000 0.000000
0.000000 0.000000 0.000000
0.000000 0.000000 0.000000
0.000000 0.000000 0.000000
0.000000 0.000000 0.000000
0.000000 0.000000 0.000000
0.000000 0.000000 0.000000
0.000000 0.000000 0.000000
0.000000 0.000000 0.000000
0.000000 0.000000 0.000000
0.000000 0.000000 0.000000
0.000000 0.000000 0.000000
0.000000 0.000000 0.000000
0.000000 0.000000 0.000000
0.000000 0.000000 0.000000
0.000000 0.000000 0.000000
0.000000 0.000000 0.000000
0.000000 0.000000 0.000000
0.000000 0.000000 0.000000
0.000000 0.000000 0.000000
0.000000 0.000000 0.000000
0.000000 0.000000 0.000000
0.000000 0.000000 0.000000
0.000000 0.000000 0.000000
0.000000 0.000000 0.000000
0.000000 0.000000 0.000000
0.000000 0.000000 0.000000
0.000000 0.000000 0.000000
0.000000 0.000000 0.000000
0.000000 0.000000 0.000000
0.000000 0.000000 0.000000
0.000000 0.000000 0.000000
0.000000 0.000000 0.000000
0.000000 0.000000 0.000000
0.000000 0.000000 0.000000
0.000000 0.000000 0.000000
0.000000 0.000000 0.000000
0.000000 0.000000 0.000000
0.000000 0.000000 0.000000
0.000000 0.000000 0.000000
0.000000 0.000000 0.000000
0.000000 0.000000 0.000000
0.000000 0.000000 0.000000
0.000000 0.000000 0.000000
0.000000 0.000000 0.000000
0.000000 0.000000 0.000000
0.000000 0.000000 0.000000
0.000000 0.000000 0.000000
0.000000 0.000000 0.000000
0.000000 0.000000 0.000000
0.000000 0.000000 0.000000
0.000000 0.000000 0.000000
0.000000 0.000000 0.000000
0.000000 0.000000 0.000000
0.000000 0.000000 0.000000
0.000000 0.000000 0.000000
0.000000 0.000000 0.000000
0.000000 0.000000 0.000000
0.000000 0.000000 0.000000
0.000000 0.000000 0.000000
0.000000 0.000000 0.000000
0.000000 0.000000 0.000000
0.000000 0.000000 0.000000
0.000000 0.000000 0.000000
0.000000 0.000000 0.000000
0.000000 0.000000 0.000000
0.000000 0.000000 0.000000
0.000000 0.000000 0.000000
0.000000 0.000000 0.000000
0.000000 0.000000 0.000000
0.000000 0.000000 0.000000
0.000000 0.000000 0.000000
0.000000 0.000000 0.000000
0.000000 0.000000 0.000000
0.000000 0.000000 0.000000
