Zr1 Ti66
1.0
6.309760 0.000000 0.000000
0.000000 9.464640 0.000000
0.000000 0.000000 18.918326
Ti Zr
66 1
Selective dynamics
direct
0.125093 0.042047 0.499965 F F F Ti
0.625269 0.041756 0.500037 F F F Ti
0.125065 0.041600 0.658613 F F F Ti
0.625040 0.041570 0.658634 F F F Ti
0.125034 0.041632 0.817071 F F F Ti
0.624953 0.041621 0.817085 F F F Ti
0.125247 0.375819 0.500677 F F F Ti
0.625162 0.375169 0.501796 F F F Ti
0.124962 0.375059 0.658784 F F F Ti
0.625031 0.375020 0.658916 F F F Ti
0.124988 0.375010 0.817117 F F F Ti
0.624928 0.375012 0.817146 F F F Ti
0.125106 0.708044 0.499868 F F F Ti
0.624481 0.708833 0.500116 F F F Ti
0.124993 0.708492 0.658612 F F F Ti
0.624904 0.708587 0.658678 F F F Ti
0.124994 0.708289 0.817093 F F F Ti
0.624925 0.708308 0.817113 F F F Ti
0.374898 0.208190 0.579517 F F F Ti
0.875252 0.208191 0.579580 F F F Ti
0.374999 0.208271 0.737913 F F F Ti
0.875008 0.208264 0.737929 F F F Ti
0.374992 0.208349 0.896307 F F F Ti
0.875021 0.208353 0.896283 F F F Ti
0.375058 0.542162 0.579700 F F F Ti
0.874975 0.542269 0.579735 F F F Ti
0.374995 0.541756 0.737957 F F F Ti
0.874971 0.541774 0.737968 F F F Ti
0.374969 0.541645 0.896394 F F F Ti
0.875006 0.541655 0.896377 F F F Ti
0.374858 0.875164 0.579273 F F F Ti
0.875156 0.875088 0.579287 F F F Ti
0.374969 0.875011 0.737869 F F F Ti
0.875000 0.875005 0.737874 F F F Ti
0.374994 0.874895 0.896321 F F F Ti
0.875036 0.874888 0.896302 F F F Ti
0.125406 0.625777 0.356891 F F F Ti
0.625390 0.626803 0.356588 F F F Ti
0.125225 0.624498 0.118880 F F F Ti
0.624989 0.624657 0.118831 F F F Ti
0.629238 0.125281 0.356788 F F F Ti
0.125271 0.124447 0.118473 F F F Ti
0.625067 0.124655 0.117603 F F F Ti
0.125136 0.374871 0.039542 F F F Ti
0.624932 0.375097 0.039385 F F F Ti
0.125066 0.874602 0.039354 F F F Ti
0.625015 0.874481 0.039225 F F F Ti
0.628278 0.375057 0.277454 F F F Ti
0.125253 0.874399 0.277088 F F F Ti
0.625378 0.873810 0.277434 F F F Ti
0.375409 0.873807 0.158112 F F F Ti
0.874826 0.873541 0.157985 F F F Ti
0.375498 0.374543 0.158544 F F F Ti
0.874636 0.374918 0.158098 F F F Ti
0.385433 0.380574 0.398855 F F F Ti
0.863690 0.382321 0.399550 F F F Ti
0.374940 0.875860 0.396312 F F F Ti
0.875524 0.875234 0.396412 F F F Ti
0.375041 0.624348 0.237881 F F F Ti
0.875451 0.624711 0.237784 F F F Ti
0.374949 0.624818 -0.000069 F F F Ti
0.875089 0.624831 -0.000086 F F F Ti
0.384264 0.121317 0.235735 F F F Ti
0.864908 0.120496 0.234813 F F F Ti
0.374889 0.124853 -0.000296 F F F Ti
0.875247 0.124852 -0.000323 F F F Ti
0.115231 0.245763 0.323130 T T T Zr

0.000000 0.000000 0.000000
0.000000 0.000000 0.000000
0.000000 0.000000 0.000000
0.000000 0.000000 0.000000
0.000000 0.000000 0.000000
0.000000 0.000000 0.000000
0.000000 0.000000 0.000000
0.000000 0.000000 0.000000
0.000000 0.000000 0.000000
0.000000 0.000000 0.000000
0.000000 0.000000 0.000000
0.000000 0.000000 0.000000
0.000000 0.000000 0.000000
0.000000 0.000000 0.000000
0.000000 0.000000 0.000000
0.000000 0.000000 0.000000
0.000000 0.000000 0.000000
0.000000 0.000000 0.000000
0.000000 0.000000 0.000000
0.000000 0.000000 0.000000
0.000000 0.000000 0.000000
0.000000 0.000000 0.000000
0.000000 0.000000 0.000000
0.000000 0.000000 0.000000
0.000000 0.000000 0.000000
0.000000 0.000000 0.000000
0.000000 0.000000 0.000000
0.000000 0.000000 0.000000
0.000000 0.000000 0.000000
0.000000 0.000000 0.000000
0.000000 0.000000 0.000000
0.000000 0.000000 0.000000
0.000000 0.000000 0.000000
0.000000 0.000000 0.000000
0.000000 0.000000 0.000000
0.000000 0.000000 0.000000
0.000000 0.000000 0.000000
0.000000 0.000000 0.000000
0.000000 0.000000 0.000000
0.000000 0.000000 0.000000
0.000000 0.000000 0.000000
0.000000 0.000000 0.000000
0.000000 0.000000 0.000000
0.000000 0.000000 0.000000
0.000000 0.000000 0.000000
0.000000 0.000000 0.000000
0.000000 0.000000 0.000000
0.000000 0.000000 0.000000
0.000000 0.000000 0.000000
0.000000 0.000000 0.000000
0.000000 0.000000 0.000000
0.000000 0.000000 0.000000
0.000000 0.000000 0.000000
0.000000 0.000000 0.000000
0.000000 0.000000 0.000000
0.000000 0.000000 0.000000
0.000000 0.000000 0.000000
0.000000 0.000000 0.000000
0.000000 0.000000 0.000000
0.000000 0.000000 0.000000
0.000000 0.000000 0.000000
0.000000 0.000000 0.000000
0.000000 0.000000 0.000000
0.000000 0.000000 0.000000
0.000000 0.000000 0.000000
0.000000 0.000000 0.000000
0.000000 0.000000 0.000000
