Ti96 Nb1
1.0
9.513020 0.000000 0.000000
0.000000 9.350860 0.000000
0.000000 0.000000 18.547230
Ti Nb
96 1
Selective dynamics
direct
0.139167 0.366285 0.406181 T T T Ti
0.646434 0.344827 0.406163 T T T Ti
0.148918 0.855634 0.395571 T T T Ti
0.680473 0.901847 0.396642 T T T Ti
0.160054 0.375805 0.235739 T T T Ti
0.663719 0.371182 0.231141 T T T Ti
0.161868 0.873739 0.234471 T T T Ti
0.655316 0.865204 0.241136 T T T Ti
0.166677 0.375002 0.077664 F F F Ti
0.666664 0.374999 0.077669 F F F Ti
0.166704 0.874993 0.077687 F F F Ti
0.666669 0.875023 0.077688 F F F Ti
0.404150 0.372496 0.312670 T T T Ti
0.897443 0.374273 0.319075 T T T Ti
0.401508 0.904075 0.320759 T T T Ti
0.915971 0.882939 0.313603 T T T Ti
0.416668 0.374989 0.155290 F F F Ti
0.916641 0.374970 0.155295 F F F Ti
0.416689 0.875033 0.155354 F F F Ti
0.916753 0.874991 0.155291 F F F Ti
0.416668 0.375000 -0.000010 F F F Ti
0.916657 0.375000 -0.000011 F F F Ti
0.416670 0.874995 0.000014 F F F Ti
0.916673 0.874998 -0.000002 F F F Ti
0.102557 0.125727 0.319074 T T T Ti
0.595850 0.127504 0.312669 T T T Ti
0.084029 0.617061 0.313602 T T T Ti
0.598492 0.595925 0.320758 T T T Ti
0.083358 0.125034 0.155294 F F F Ti
0.583332 0.125016 0.155290 F F F Ti
0.083247 0.625013 0.155291 F F F Ti
0.583312 0.624970 0.155354 F F F Ti
0.083343 0.125001 -0.000011 F F F Ti
0.583332 0.125002 -0.000010 F F F Ti
0.083327 0.625003 -0.000002 F F F Ti
0.583330 0.625005 0.000014 F F F Ti
0.353565 0.155173 0.406163 T T T Ti
0.860832 0.133715 0.406181 T T T Ti
0.319526 0.598153 0.396642 T T T Ti
0.851081 0.644366 0.395571 T T T Ti
0.336280 0.128819 0.231141 T T T Ti
0.839945 0.124195 0.235739 T T T Ti
0.344683 0.634796 0.241136 T T T Ti
0.838131 0.626261 0.234471 T T T Ti
0.333335 0.125003 0.077669 F F F Ti
0.833322 0.125001 0.077663 F F F Ti
0.333331 0.624979 0.077688 F F F Ti
0.833295 0.625009 0.077687 F F F Ti
0.375019 0.375017 0.823789 F F F Ti
0.874986 0.374987 0.823801 F F F Ti
0.375011 0.874995 0.823788 F F F Ti
0.874989 0.875005 0.823796 F F F Ti
0.125014 0.125011 0.823801 F F F Ti
0.624983 0.124982 0.823789 F F F Ti
0.125012 0.624993 0.823796 F F F Ti
0.624990 0.625003 0.823788 F F F Ti
0.125004 0.375003 0.910104 F F F Ti
0.624998 0.375003 0.910100 F F F Ti
0.125005 0.875001 0.910107 F F F Ti
0.624991 0.874999 0.910101 F F F Ti
0.375003 0.124996 0.910100 F F F Ti
0.874997 0.124996 0.910104 F F F Ti
0.375010 0.624999 0.910101 F F F Ti
0.874995 0.624998 0.910107 F F F Ti
0.392053 0.391371 0.656858 T T T Ti
0.896824 0.373673 0.648340 T T T Ti
0.392409 0.888408 0.648414 T T T Ti
0.881612 0.885254 0.666853 T T T Ti
0.103175 0.126327 0.648340 T T T Ti
0.607947 0.108628 0.656858 T T T Ti
0.118388 0.614745 0.666853 T T T Ti
0.607591 0.611592 0.648414 T T T Ti
0.150264 0.380161 0.566541 T T T Ti
0.644955 0.343039 0.577707 T T T Ti
0.125491 0.858103 0.585153 T T T Ti
0.654066 0.859548 0.571653 T T T Ti
0.355044 0.156961 0.577707 T T T Ti
0.849736 0.119839 0.566541 T T T Ti
0.345934 0.640452 0.571653 T T T Ti
0.874509 0.641896 0.585154 T T T Ti
0.410615 0.395797 0.491686 T T T Ti
0.896495 0.377598 0.489764 T T T Ti
0.339360 0.924820 0.496088 T T T Ti
0.911393 0.877061 0.485819 T T T Ti
0.103505 0.122401 0.489764 T T T Ti
0.589385 0.104203 0.491686 T T T Ti
0.088607 0.622939 0.485819 T T T Ti
0.660640 0.575180 0.496088 T T T Ti
0.124977 0.875050 0.737507 F F F Ti
0.624989 0.874948 0.737459 F F F Ti
0.375010 0.625049 0.737458 F F F Ti
0.875021 0.624945 0.737507 F F F Ti
0.124991 0.375018 0.737500 F F F Ti
0.624996 0.374929 0.737479 F F F Ti
0.375003 0.125067 0.737479 F F F Ti
0.875007 0.124978 0.737500 F F F Ti
0.500000 0.750000 0.446804 T T T Nb

0.000000 0.000000 0.000000
0.000000 0.000000 0.000000
0.000000 0.000000 0.000000
0.000000 0.000000 0.000000
0.000000 0.000000 0.000000
0.000000 0.000000 0.000000
0.000000 0.000000 0.000000
0.000000 0.000000 0.000000
0.000000 0.000000 0.000000
0.000000 0.000000 0.000000
0.000000 0.000000 0.000000
0.000000 0.000000 0.000000
0.000000 0.000000 0.000000
0.000000 0.000000 0.000000
0.000000 0.000000 0.000000
0.000000 0.000000 0.000000
0.000000 0.000000 0.000000
0.000000 0.000000 0.000000
0.000000 0.000000 0.000000
0.000000 0.000000 0.000000
0.000000 0.000000 0.000000
0.000000 0.000000 0.000000
0.000000 0.000000 0.000000
0.000000 0.000000 0.000000
0.000000 0.000000 0.000000
0.000000 0.000000 0.000000
0.000000 0.000000 0.000000
0.000000 0.000000 0.000000
0.000000 0.000000 0.000000
0.000000 0.000000 0.000000
0.000000 0.000000 0.000000
0.000000 0.000000 0.000000
0.000000 0.000000 0.000000
0.000000 0.000000 0.000000
0.000000 0.000000 0.000000
0.000000 0.000000 0.000000
0.000000 0.000000 0.000000
0.000000 0.000000 0.000000
0.000000 0.000000 0.000000
0.000000 0.000000 0.000000
0.000000 0.000000 0.000000
0.000000 0.000000 0.000000
0.000000 0.000000 0.000000
0.000000 0.000000 0.000000
0.000000 0.000000 0.000000
0.000000 0.000000 0.000000
0.000000 0.000000 0.000000
0.000000 0.000000 0.000000
0.000000 0.000000 0.000000
0.000000 0.000000 0.000000
0.000000 0.000000 0.000000
0.000000 0.000000 0.000000
0.000000 0.000000 0.000000
0.000000 0.000000 0.000000
0.000000 0.000000 0.000000
0.000000 0.000000 0.000000
0.000000 0.000000 0.000000
0.000000 0.000000 0.000000
0.000000 0.000000 0.000000
0.000000 0.000000 0.000000
0.000000 0.000000 0.000000
0.000000 0.000000 0.000000
0.000000 0.000000 0.000000
0.000000 0.000000 0.000000
0.000000 0.000000 0.000000
0.000000 0.000000 0.000000
0.000000 0.000000 0.000000
0.000000 0.000000 0.000000
0.000000 0.000000 0.000000
0.000000 0.000000 0.000000
0.000000 0.000000 0.000000
0.000000 0.000000 0.000000
0.000000 0.000000 0.000000
0.000000 0.000000 0.000000
0.000000 0.000000 0.000000
0.000000 0.000000 0.000000
0.000000 0.000000 0.000000
0.000000 0.000000 0.000000
0.000000 0.000000 0.000000
0.000000 0.000000 0.000000
0.000000 0.000000 0.000000
0.000000 0.000000 0.000000
0.000000 0.000000 0.000000
0.000000 0.000000 0.000000
0.000000 0.000000 0.000000
0.000000 0.000000 0.000000
0.000000 0.000000 0.000000
0.000000 0.000000 0.000000
0.000000 0.000000 0.000000
0.000000 0.000000 0.000000
0.000000 0.000000 0.000000
0.000000 0.000000 0.000000
0.000000 0.000000 0.000000
0.000000 0.000000 0.000000
0.000000 0.000000 0.000000
0.000000 0.000000 0.000000
0.000000 0.000000 0.000000
