Ti36
1.0
8.805261 0.000000 0.000000
-4.402630 7.625580 0.000000
0.000000 0.000000 25.288801
Ti
36
direct
0.967272 0.027818 0.490017 Ti
0.967272 0.527818 0.490017 Ti
0.467272 0.027818 0.490017 Ti
0.467272 0.527818 0.490017 Ti
0.133938 0.361151 0.745950 Ti
0.133938 0.861151 0.745950 Ti
0.633938 0.361151 0.745950 Ti
0.633938 0.861151 0.745950 Ti
0.300605 0.194485 0.782512 Ti
0.300605 0.694485 0.782512 Ti
0.800605 0.194485 0.782512 Ti
0.800605 0.694485 0.782512 Ti
0.133938 0.361151 0.526578 Ti
0.133938 0.861151 0.526578 Ti
0.633938 0.361151 0.526578 Ti
0.633938 0.861151 0.526578 Ti
0.300605 0.194485 0.563140 Ti
0.300605 0.694485 0.563140 Ti
0.800605 0.194485 0.563140 Ti
0.800605 0.694485 0.563140 Ti
0.967272 0.027818 0.599702 Ti
0.967272 0.527818 0.599702 Ti
0.467272 0.027818 0.599702 Ti
0.467272 0.527818 0.599702 Ti
0.133938 0.361151 0.636264 Ti
0.133938 0.861151 0.636264 Ti
0.633938 0.361151 0.636264 Ti
0.633938 0.861151 0.636264 Ti
0.300605 0.194485 0.672826 Ti
0.300605 0.694485 0.672826 Ti
0.800605 0.194485 0.672826 Ti
0.800605 0.694485 0.672826 Ti
0.967272 0.027818 0.709388 Ti
0.967272 0.527818 0.709388 Ti
0.467272 0.027818 0.709388 Ti
0.467272 0.527818 0.709388 Ti
