Ti96 Sn1
1.0
9.513020 0.000000 0.000000
0.000000 9.350860 0.000000
0.000000 0.000000 18.547230
Ti Sn
96 1
Selective dynamics
direct
0.151367 0.385234 0.404504 T T T Ti
0.646179 0.328155 0.411918 T T T Ti
0.120060 0.849401 0.415350 T T T Ti
0.671077 0.869799 0.408835 T T T Ti
0.148512 0.363419 0.239693 T T T Ti
0.658640 0.370172 0.235360 T T T Ti
0.162533 0.867853 0.233178 T T T Ti
0.679349 0.899790 0.231091 T T T Ti
0.166718 0.375108 0.077369 F F F Ti
0.666704 0.374969 0.077339 F F F Ti
0.166705 0.875043 0.077453 F F F Ti
0.666572 0.874918 0.077462 F F F Ti
0.412519 0.384718 0.320426 T T T Ti
0.898406 0.369807 0.325415 T T T Ti
0.335193 0.938642 0.340625 T T T Ti
0.917235 0.881782 0.313381 T T T Ti
0.416765 0.375091 0.154900 F F F Ti
0.916786 0.374794 0.154815 F F F Ti
0.416551 0.875140 0.155244 F F F Ti
0.916760 0.875015 0.154824 F F F Ti
0.416672 0.375043 -0.000186 F F F Ti
0.916651 0.374988 -0.000242 F F F Ti
0.416653 0.874978 -0.000084 F F F Ti
0.916655 0.874982 -0.000211 F F F Ti
0.101594 0.130196 0.325413 T T T Ti
0.587481 0.115284 0.320425 T T T Ti
0.082765 0.618221 0.313380 T T T Ti
0.664807 0.561360 0.340624 T T T Ti
0.083212 0.125242 0.154812 F F F Ti
0.583235 0.124942 0.154900 F F F Ti
0.083240 0.625019 0.154824 F F F Ti
0.583451 0.624874 0.155246 F F F Ti
0.083350 0.125023 -0.000243 F F F Ti
0.583330 0.124972 -0.000186 F F F Ti
0.083346 0.625028 -0.000210 F F F Ti
0.583350 0.625021 -0.000084 F F F Ti
0.353820 0.171845 0.411918 T T T Ti
0.848632 0.114766 0.404504 T T T Ti
0.328921 0.630202 0.408835 T T T Ti
0.879939 0.650599 0.415350 T T T Ti
0.341359 0.129835 0.235359 T T T Ti
0.851487 0.136588 0.239693 T T T Ti
0.320649 0.600218 0.231092 T T T Ti
0.837466 0.632156 0.233179 T T T Ti
0.333296 0.125057 0.077339 F F F Ti
0.833282 0.124917 0.077370 F F F Ti
0.333427 0.625103 0.077461 F F F Ti
0.833295 0.624978 0.077454 F F F Ti
0.375051 0.375103 0.823775 F F F Ti
0.874933 0.374947 0.823753 F F F Ti
0.375051 0.874970 0.823669 F F F Ti
0.874931 0.874980 0.823790 F F F Ti
0.125064 0.125027 0.823751 F F F Ti
0.624960 0.124888 0.823775 F F F Ti
0.125075 0.625006 0.823791 F F F Ti
0.624950 0.625010 0.823669 F F F Ti
0.125046 0.375077 0.910026 F F F Ti
0.624997 0.375095 0.910067 F F F Ti
0.125108 0.874966 0.910061 F F F Ti
0.624941 0.874897 0.910130 F F F Ti
0.375007 0.124889 0.910070 F F F Ti
0.874961 0.124912 0.910026 F F F Ti
0.375063 0.625078 0.910129 F F F Ti
0.874899 0.625015 0.910062 F F F Ti
0.394360 0.387135 0.656460 T T T Ti
0.895973 0.381952 0.652753 T T T Ti
0.394898 0.888514 0.649481 T T T Ti
0.887829 0.887504 0.661461 T T T Ti
0.104026 0.118042 0.652753 T T T Ti
0.605638 0.112857 0.656460 T T T Ti
0.112167 0.612487 0.661462 T T T Ti
0.605102 0.611481 0.649481 T T T Ti
0.149493 0.363169 0.574322 T T T Ti
0.645988 0.352143 0.576040 T T T Ti
0.138154 0.863184 0.583157 T T T Ti
0.652481 0.861728 0.574016 T T T Ti
0.354012 0.147854 0.576040 T T T Ti
0.850506 0.136829 0.574321 T T T Ti
0.347518 0.638269 0.574015 T T T Ti
0.861845 0.636813 0.583158 T T T Ti
0.403521 0.401502 0.493990 T T T Ti
0.898358 0.373834 0.485118 T T T Ti
0.365160 0.906642 0.491934 T T T Ti
0.904302 0.894380 0.501848 T T T Ti
0.101642 0.126166 0.485118 T T T Ti
0.596479 0.098498 0.493990 T T T Ti
0.095698 0.605619 0.501848 T T T Ti
0.634839 0.593357 0.491934 T T T Ti
0.125072 0.875298 0.737634 F F F Ti
0.624674 0.874847 0.737523 F F F Ti
0.375318 0.625128 0.737516 F F F Ti
0.874918 0.624669 0.737641 F F F Ti
0.124770 0.374875 0.737589 F F F Ti
0.625085 0.374897 0.737580 F F F Ti
0.374905 0.125076 0.737581 F F F Ti
0.875222 0.125099 0.737585 F F F Ti
0.500000 0.750001 0.335782 T T T Sn

0.000000 0.000000 0.000000
0.000000 0.000000 0.000000
0.000000 0.000000 0.000000
0.000000 0.000000 0.000000
0.000000 0.000000 0.000000
0.000000 0.000000 0.000000
0.000000 0.000000 0.000000
0.000000 0.000000 0.000000
0.000000 0.000000 0.000000
0.000000 0.000000 0.000000
0.000000 0.000000 0.000000
0.000000 0.000000 0.000000
0.000000 0.000000 0.000000
0.000000 0.000000 0.000000
0.000000 0.000000 0.000000
0.000000 0.000000 0.000000
0.000000 0.000000 0.000000
0.000000 0.000000 0.000000
0.000000 0.000000 0.000000
0.000000 0.000000 0.000000
0.000000 0.000000 0.000000
0.000000 0.000000 0.000000
0.000000 0.000000 0.000000
0.000000 0.000000 0.000000
0.000000 0.000000 0.000000
0.000000 0.000000 0.000000
0.000000 0.000000 0.000000
0.000000 0.000000 0.000000
0.000000 0.000000 0.000000
0.000000 0.000000 0.000000
0.000000 0.000000 0.000000
0.000000 0.000000 0.000000
0.000000 0.000000 0.000000
0.000000 0.000000 0.000000
0.000000 0.000000 0.000000
0.000000 0.000000 0.000000
0.000000 0.000000 0.000000
0.000000 0.000000 0.000000
0.000000 0.000000 0.000000
0.000000 0.000000 0.000000
0.000000 0.000000 0.000000
0.000000 0.000000 0.000000
0.000000 0.000000 0.000000
0.000000 0.000000 0.000000
0.000000 0.000000 0.000000
0.000000 0.000000 0.000000
0.000000 0.000000 0.000000
0.000000 0.000000 0.000000
0.000000 0.000000 0.000000
0.000000 0.000000 0.000000
0.000000 0.000000 0.000000
0.000000 0.000000 0.000000
0.000000 0.000000 0.000000
0.000000 0.000000 0.000000
0.000000 0.000000 0.000000
0.000000 0.000000 0.000000
0.000000 0.000000 0.000000
0.000000 0.000000 0.000000
0.000000 0.000000 0.000000
0.000000 0.000000 0.000000
0.000000 0.000000 0.000000
0.000000 0.000000 0.000000
0.000000 0.000000 0.000000
0.000000 0.000000 0.000000
0.000000 0.000000 0.000000
0.000000 0.000000 0.000000
0.000000 0.000000 0.000000
0.000000 0.000000 0.000000
0.000000 0.000000 0.000000
0.000000 0.000000 0.000000
0.000000 0.000000 0.000000
0.000000 0.000000 0.000000
0.000000 0.000000 0.000000
0.000000 0.000000 0.000000
0.000000 0.000000 0.000000
0.000000 0.000000 0.000000
0.000000 0.000000 0.000000
0.000000 0.000000 0.000000
0.000000 0.000000 0.000000
0.000000 0.000000 0.000000
0.000000 0.000000 0.000000
0.000000 0.000000 0.000000
0.000000 0.000000 0.000000
0.000000 0.000000 0.000000
0.000000 0.000000 0.000000
0.000000 0.000000 0.000000
0.000000 0.000000 0.000000
0.000000 0.000000 0.000000
0.000000 0.000000 0.000000
0.000000 0.000000 0.000000
0.000000 0.000000 0.000000
0.000000 0.000000 0.000000
0.000000 0.000000 0.000000
0.000000 0.000000 0.000000
0.000000 0.000000 0.000000
0.000000 0.000000 0.000000
0.000000 0.000000 0.000000
