beta_Ti
1.0
8.805261 0.000000 0.000000
-4.402631 7.625580 0.000000
0.000000 0.000000 26.883422
Ti
36
direct
0.055556 0.055556 0.576063 Ti
0.055556 0.555555 0.576063 Ti
0.555556 0.055556 0.576063 Ti
0.555556 0.555555 0.576063 Ti
0.222222 0.388889 0.816816 Ti
0.222222 0.888889 0.816816 Ti
0.722222 0.388889 0.816816 Ti
0.722222 0.888889 0.816816 Ti
0.388889 0.222222 0.851209 Ti
0.388889 0.722222 0.851209 Ti
0.888889 0.222222 0.851209 Ti
0.888889 0.722222 0.851209 Ti
0.222222 0.388889 0.610456 Ti
0.222222 0.888889 0.610456 Ti
0.722222 0.388889 0.610456 Ti
0.722222 0.888889 0.610456 Ti
0.388889 0.222222 0.644850 Ti
0.388889 0.722222 0.644850 Ti
0.888889 0.222222 0.644850 Ti
0.888889 0.722222 0.644850 Ti
0.055556 0.055556 0.679243 Ti
0.055556 0.555555 0.679243 Ti
0.555556 0.055556 0.679243 Ti
0.555556 0.555555 0.679243 Ti
0.222222 0.388889 0.713636 Ti
0.222222 0.888889 0.713636 Ti
0.722222 0.388889 0.713636 Ti
0.722222 0.888889 0.713636 Ti
0.388889 0.222222 0.748029 Ti
0.388889 0.722222 0.748029 Ti
0.888889 0.222222 0.748029 Ti
0.888889 0.722222 0.748029 Ti
0.055556 0.055556 0.782422 Ti
0.055556 0.555555 0.782422 Ti
0.555556 0.055556 0.782422 Ti
0.555556 0.555555 0.782422 Ti
