Zr1 Ti66
1.0
6.309760 0.000000 0.000000
0.000000 9.464640 0.000000
0.000000 0.000000 18.918326
Ti Zr
66 1
Selective dynamics
direct
0.123811 0.040980 0.499170 F F F Ti
0.625178 0.041514 0.499904 F F F Ti
0.627123 0.041176 0.658822 F F F Ti
0.124994 0.041663 0.817184 F F F Ti
0.625166 0.041600 0.817238 F F F Ti
0.124838 0.375153 0.499935 F F F Ti
0.624820 0.375059 0.499972 F F F Ti
0.124276 0.376240 0.658799 F F F Ti
0.625116 0.375169 0.658639 F F F Ti
0.124922 0.375101 0.817231 F F F Ti
0.625166 0.375134 0.817243 F F F Ti
0.124916 0.708175 0.499948 F F F Ti
0.625135 0.708179 0.499933 F F F Ti
0.124979 0.708328 0.658584 F F F Ti
0.625132 0.708213 0.658611 F F F Ti
0.124997 0.708352 0.817174 F F F Ti
0.625033 0.708339 0.817188 F F F Ti
0.872817 0.208858 0.579046 F F F Ti
0.375990 0.208924 0.738587 F F F Ti
0.874862 0.208473 0.737957 F F F Ti
0.375013 0.208350 0.896505 F F F Ti
0.874993 0.208340 0.896467 F F F Ti
0.375021 0.541658 0.579284 F F F Ti
0.874853 0.541785 0.579262 F F F Ti
0.375073 0.541797 0.737918 F F F Ti
0.874876 0.541793 0.737929 F F F Ti
0.375005 0.541701 0.896467 F F F Ti
0.874992 0.541696 0.896468 F F F Ti
0.375847 0.873656 0.579048 F F F Ti
0.874874 0.874811 0.579231 F F F Ti
0.375165 0.874870 0.737932 F F F Ti
0.875191 0.874957 0.737891 F F F Ti
0.375002 0.874992 0.896460 F F F Ti
0.875018 0.874993 0.896455 F F F Ti
0.125011 0.625055 0.356818 F F F Ti
0.624929 0.625035 0.356807 F F F Ti
0.125004 0.625020 0.118951 F F F Ti
0.624985 0.625018 0.118949 F F F Ti
0.124989 0.125031 0.356712 F F F Ti
0.624973 0.125006 0.356770 F F F Ti
0.125002 0.125002 0.118953 F F F Ti
0.624983 0.125002 0.118951 F F F Ti
0.124996 0.375009 0.039654 F F F Ti
0.625004 0.375011 0.039656 F F F Ti
0.124997 0.875002 0.039648 F F F Ti
0.625004 0.874999 0.039651 F F F Ti
0.124997 0.375019 0.277499 F F F Ti
0.624989 0.375011 0.277501 F F F Ti
0.124993 0.874989 0.277485 F F F Ti
0.624989 0.874996 0.277487 F F F Ti
0.375002 0.874998 0.158571 F F F Ti
0.874993 0.874998 0.158571 F F F Ti
0.375000 0.375009 0.158576 F F F Ti
0.874998 0.375010 0.158575 F F F Ti
0.374990 0.374995 0.396428 F F F Ti
0.874933 0.375033 0.396406 F F F Ti
0.375072 0.874929 0.396378 F F F Ti
0.874862 0.874901 0.396365 F F F Ti
0.374994 0.625015 0.237876 F F F Ti
0.875006 0.625010 0.237874 F F F Ti
0.374995 0.625030 0.000002 F F F Ti
0.875010 0.625025 0.000004 F F F Ti
0.375010 0.125004 0.237855 F F F Ti
0.874981 0.125005 0.237851 F F F Ti
0.375000 0.124993 0.000023 F F F Ti
0.874995 0.124999 0.000014 F F F Ti
0.247644 0.124097 0.618452 T T T Zr

0.000000 0.000000 0.000000
0.000000 0.000000 0.000000
0.000000 0.000000 0.000000
0.000000 0.000000 0.000000
0.000000 0.000000 0.000000
0.000000 0.000000 0.000000
0.000000 0.000000 0.000000
0.000000 0.000000 0.000000
0.000000 0.000000 0.000000
0.000000 0.000000 0.000000
0.000000 0.000000 0.000000
0.000000 0.000000 0.000000
0.000000 0.000000 0.000000
0.000000 0.000000 0.000000
0.000000 0.000000 0.000000
0.000000 0.000000 0.000000
0.000000 0.000000 0.000000
0.000000 0.000000 0.000000
0.000000 0.000000 0.000000
0.000000 0.000000 0.000000
0.000000 0.000000 0.000000
0.000000 0.000000 0.000000
0.000000 0.000000 0.000000
0.000000 0.000000 0.000000
0.000000 0.000000 0.000000
0.000000 0.000000 0.000000
0.000000 0.000000 0.000000
0.000000 0.000000 0.000000
0.000000 0.000000 0.000000
0.000000 0.000000 0.000000
0.000000 0.000000 0.000000
0.000000 0.000000 0.000000
0.000000 0.000000 0.000000
0.000000 0.000000 0.000000
0.000000 0.000000 0.000000
0.000000 0.000000 0.000000
0.000000 0.000000 0.000000
0.000000 0.000000 0.000000
0.000000 0.000000 0.000000
0.000000 0.000000 0.000000
0.000000 0.000000 0.000000
0.000000 0.000000 0.000000
0.000000 0.000000 0.000000
0.000000 0.000000 0.000000
0.000000 0.000000 0.000000
0.000000 0.000000 0.000000
0.000000 0.000000 0.000000
0.000000 0.000000 0.000000
0.000000 0.000000 0.000000
0.000000 0.000000 0.000000
0.000000 0.000000 0.000000
0.000000 0.000000 0.000000
0.000000 0.000000 0.000000
0.000000 0.000000 0.000000
0.000000 0.000000 0.000000
0.000000 0.000000 0.000000
0.000000 0.000000 0.000000
0.000000 0.000000 0.000000
0.000000 0.000000 0.000000
0.000000 0.000000 0.000000
0.000000 0.000000 0.000000
0.000000 0.000000 0.000000
0.000000 0.000000 0.000000
0.000000 0.000000 0.000000
0.000000 0.000000 0.000000
0.000000 0.000000 0.000000
0.000000 0.000000 0.000000
