Ti66 Cr1
1.0
6.309760 0.000000 0.000000
0.000000 9.464640 0.000000
0.000000 0.000000 18.918326
Ti Cr
66 1
Selective dynamics
direct
0.127438 0.032544 0.507667 F F F Ti
0.629370 0.042561 0.500969 F F F Ti
0.125614 0.041023 0.660325 F F F Ti
0.625177 0.041527 0.659749 F F F Ti
0.125129 0.041569 0.817935 F F F Ti
0.624991 0.041632 0.817899 F F F Ti
0.627286 0.375703 0.501487 F F F Ti
0.125337 0.374916 0.659122 F F F Ti
0.625346 0.375244 0.659376 F F F Ti
0.125156 0.374990 0.817698 F F F Ti
0.625129 0.375049 0.817750 F F F Ti
0.125315 0.710460 0.500300 F F F Ti
0.622633 0.710207 0.500560 F F F Ti
0.125365 0.707799 0.659314 F F F Ti
0.624484 0.707346 0.659576 F F F Ti
0.125072 0.708128 0.817792 F F F Ti
0.624939 0.708046 0.817855 F F F Ti
0.376984 0.208315 0.580419 F F F Ti
0.874884 0.208392 0.580988 F F F Ti
0.375392 0.208385 0.738656 F F F Ti
0.875085 0.208342 0.738739 F F F Ti
0.375096 0.208507 0.896963 F F F Ti
0.875102 0.208490 0.896968 F F F Ti
0.374720 0.541404 0.579677 F F F Ti
0.875381 0.542183 0.579886 F F F Ti
0.374965 0.541250 0.738512 F F F Ti
0.875330 0.541345 0.738542 F F F Ti
0.375005 0.541611 0.896948 F F F Ti
0.875117 0.541632 0.896939 F F F Ti
0.378806 0.873534 0.581112 F F F Ti
0.872304 0.872895 0.581298 F F F Ti
0.375501 0.874478 0.738891 F F F Ti
0.874728 0.874422 0.738889 F F F Ti
0.375089 0.875101 0.897062 F F F Ti
0.874978 0.875104 0.897049 F F F Ti
0.126575 0.627750 0.356889 F F F Ti
0.622254 0.631582 0.356189 F F F Ti
0.125418 0.626627 0.119006 F F F Ti
0.625065 0.626687 0.118973 F F F Ti
0.635475 0.129019 0.357259 F F F Ti
0.126062 0.126438 0.119180 F F F Ti
0.625046 0.126274 0.119028 F F F Ti
0.125505 0.375773 0.039667 F F F Ti
0.625220 0.375775 0.039641 F F F Ti
0.125217 0.875941 0.039977 F F F Ti
0.624969 0.875907 0.039982 F F F Ti
0.126139 0.381890 0.276523 F F F Ti
0.626870 0.378330 0.276467 F F F Ti
0.125102 0.879248 0.278376 F F F Ti
0.625457 0.879130 0.277785 F F F Ti
0.374948 0.877194 0.159052 F F F Ti
0.875631 0.876851 0.158825 F F F Ti
0.375788 0.376829 0.158365 F F F Ti
0.875562 0.377231 0.158040 F F F Ti
0.388160 0.385903 0.396327 F F F Ti
0.859171 0.393710 0.396159 F F F Ti
0.375339 0.879319 0.397204 F F F Ti
0.874246 0.874630 0.397392 F F F Ti
0.375291 0.628051 0.237753 F F F Ti
0.875410 0.628258 0.237789 F F F Ti
0.375070 0.625719 0.000298 F F F Ti
0.875124 0.625741 0.000294 F F F Ti
0.376605 0.128185 0.238431 F F F Ti
0.874770 0.128052 0.236962 F F F Ti
0.375264 0.125424 0.000385 F F F Ti
0.875295 0.125432 0.000409 F F F Ti
0.094702 0.162222 0.393399 T T T Cr

0.000000 0.000000 0.000000
0.000000 0.000000 0.000000
0.000000 0.000000 0.000000
0.000000 0.000000 0.000000
0.000000 0.000000 0.000000
0.000000 0.000000 0.000000
0.000000 0.000000 0.000000
0.000000 0.000000 0.000000
0.000000 0.000000 0.000000
0.000000 0.000000 0.000000
0.000000 0.000000 0.000000
0.000000 0.000000 0.000000
0.000000 0.000000 0.000000
0.000000 0.000000 0.000000
0.000000 0.000000 0.000000
0.000000 0.000000 0.000000
0.000000 0.000000 0.000000
0.000000 0.000000 0.000000
0.000000 0.000000 0.000000
0.000000 0.000000 0.000000
0.000000 0.000000 0.000000
0.000000 0.000000 0.000000
0.000000 0.000000 0.000000
0.000000 0.000000 0.000000
0.000000 0.000000 0.000000
0.000000 0.000000 0.000000
0.000000 0.000000 0.000000
0.000000 0.000000 0.000000
0.000000 0.000000 0.000000
0.000000 0.000000 0.000000
0.000000 0.000000 0.000000
0.000000 0.000000 0.000000
0.000000 0.000000 0.000000
0.000000 0.000000 0.000000
0.000000 0.000000 0.000000
0.000000 0.000000 0.000000
0.000000 0.000000 0.000000
0.000000 0.000000 0.000000
0.000000 0.000000 0.000000
0.000000 0.000000 0.000000
0.000000 0.000000 0.000000
0.000000 0.000000 0.000000
0.000000 0.000000 0.000000
0.000000 0.000000 0.000000
0.000000 0.000000 0.000000
0.000000 0.000000 0.000000
0.000000 0.000000 0.000000
0.000000 0.000000 0.000000
0.000000 0.000000 0.000000
0.000000 0.000000 0.000000
0.000000 0.000000 0.000000
0.000000 0.000000 0.000000
0.000000 0.000000 0.000000
0.000000 0.000000 0.000000
0.000000 0.000000 0.000000
0.000000 0.000000 0.000000
0.000000 0.000000 0.000000
0.000000 0.000000 0.000000
0.000000 0.000000 0.000000
0.000000 0.000000 0.000000
0.000000 0.000000 0.000000
0.000000 0.000000 0.000000
0.000000 0.000000 0.000000
0.000000 0.000000 0.000000
0.000000 0.000000 0.000000
0.000000 0.000000 0.000000
0.000000 0.000000 0.000000
