Ti82 Cr1
1.0
6.391540 0.000000 0.000000
0.000000 9.587310 0.000000
0.000000 0.000000 23.271695
Ti Cr
82 1
Selective dynamics
direct
0.635750 0.083148 0.582499 F F F Ti
0.125483 0.083365 0.709532 F F F Ti
0.625650 0.083357 0.709815 F F F Ti
0.125064 0.083346 0.838470 F F F Ti
0.625089 0.083345 0.838508 F F F Ti
0.124968 0.417745 0.580897 F F F Ti
0.625839 0.417353 0.580846 F F F Ti
0.125399 0.416804 0.709688 F F F Ti
0.625324 0.416796 0.709705 F F F Ti
0.125069 0.416665 0.838507 F F F Ti
0.625059 0.416665 0.838512 F F F Ti
0.124839 0.749166 0.580904 F F F Ti
0.625802 0.749421 0.580860 F F F Ti
0.125323 0.749915 0.709707 F F F Ti
0.625310 0.749915 0.709726 F F F Ti
0.125050 0.750012 0.838512 F F F Ti
0.625050 0.750010 0.838518 F F F Ti
0.376044 0.250409 0.645330 F F F Ti
0.876851 0.250658 0.645322 F F F Ti
0.375109 0.250023 0.774063 F F F Ti
0.875312 0.250032 0.774076 F F F Ti
0.375015 0.249987 0.902919 F F F Ti
0.875059 0.249986 0.902925 F F F Ti
0.375357 0.583500 0.645252 F F F Ti
0.875084 0.583320 0.645363 F F F Ti
0.375115 0.583342 0.774100 F F F Ti
0.875141 0.583311 0.774121 F F F Ti
0.375009 0.583326 0.902930 F F F Ti
0.875025 0.583322 0.902935 F F F Ti
0.375987 0.916360 0.645327 F F F Ti
0.876832 0.916043 0.645354 F F F Ti
0.375088 0.916681 0.774063 F F F Ti
0.875295 0.916658 0.774080 F F F Ti
0.374998 0.916681 0.902917 F F F Ti
0.875046 0.916678 0.902922 F F F Ti
0.121550 0.167651 0.386039 F F F Ti
0.622991 0.166749 0.386882 F F F Ti
0.124601 0.666050 0.386279 F F F Ti
0.625047 0.666469 0.386468 F F F Ti
0.125033 0.166654 0.000058 F F F Ti
0.624983 0.166654 0.000056 F F F Ti
0.125024 0.666697 0.000042 F F F Ti
0.624988 0.666695 0.000041 F F F Ti
0.124988 0.833357 0.096666 F F F Ti
0.624980 0.833359 0.096665 F F F Ti
0.118434 0.827500 0.483086 F F F Ti
0.627869 0.830867 0.483397 F F F Ti
0.124984 0.333330 0.096668 F F F Ti
0.624966 0.333325 0.096665 F F F Ti
0.116438 0.340580 0.482883 F F F Ti
0.627286 0.335847 0.483415 F F F Ti
0.375451 0.584037 0.483379 F F F Ti
0.873069 0.583697 0.483349 F F F Ti
0.375005 0.583343 0.096655 F F F Ti
0.875000 0.583341 0.096650 F F F Ti
0.374991 0.083342 0.096685 F F F Ti
0.874979 0.083348 0.096680 F F F Ti
0.869769 0.083372 0.483190 F F F Ti
0.374668 0.416982 0.386598 F F F Ti
0.873419 0.417092 0.386235 F F F Ti
0.374217 0.915534 0.386388 F F F Ti
0.874119 0.916656 0.386546 F F F Ti
0.374988 0.416643 0.000048 F F F Ti
0.875030 0.416643 0.000047 F F F Ti
0.374990 0.916688 0.000055 F F F Ti
0.875039 0.916686 0.000055 F F F Ti
0.374625 0.083315 0.290030 F F F Ti
0.874274 0.083328 0.289950 F F F Ti
0.124915 0.166638 0.193318 F F F Ti
0.624823 0.166639 0.193317 F F F Ti
0.124800 0.333544 0.289816 F F F Ti
0.624403 0.333235 0.289923 F F F Ti
0.374941 0.416667 0.193274 F F F Ti
0.874817 0.416636 0.193266 F F F Ti
0.375036 0.583364 0.289878 F F F Ti
0.874716 0.583390 0.289785 F F F Ti
0.124949 0.666662 0.193263 F F F Ti
0.624882 0.666677 0.193256 F F F Ti
0.124628 0.833297 0.289888 F F F Ti
0.624853 0.833310 0.289896 F F F Ti
0.374895 0.916677 0.193318 F F F Ti
0.874884 0.916680 0.193302 F F F Ti
0.326864 0.094466 0.497759 T T T Cr

0.000000 0.000000 0.000000
0.000000 0.000000 0.000000
0.000000 0.000000 0.000000
0.000000 0.000000 0.000000
0.000000 0.000000 0.000000
0.000000 0.000000 0.000000
0.000000 0.000000 0.000000
0.000000 0.000000 0.000000
0.000000 0.000000 0.000000
0.000000 0.000000 0.000000
0.000000 0.000000 0.000000
0.000000 0.000000 0.000000
0.000000 0.000000 0.000000
0.000000 0.000000 0.000000
0.000000 0.000000 0.000000
0.000000 0.000000 0.000000
0.000000 0.000000 0.000000
0.000000 0.000000 0.000000
0.000000 0.000000 0.000000
0.000000 0.000000 0.000000
0.000000 0.000000 0.000000
0.000000 0.000000 0.000000
0.000000 0.000000 0.000000
0.000000 0.000000 0.000000
0.000000 0.000000 0.000000
0.000000 0.000000 0.000000
0.000000 0.000000 0.000000
0.000000 0.000000 0.000000
0.000000 0.000000 0.000000
0.000000 0.000000 0.000000
0.000000 0.000000 0.000000
0.000000 0.000000 0.000000
0.000000 0.000000 0.000000
0.000000 0.000000 0.000000
0.000000 0.000000 0.000000
0.000000 0.000000 0.000000
0.000000 0.000000 0.000000
0.000000 0.000000 0.000000
0.000000 0.000000 0.000000
0.000000 0.000000 0.000000
0.000000 0.000000 0.000000
0.000000 0.000000 0.000000
0.000000 0.000000 0.000000
0.000000 0.000000 0.000000
0.000000 0.000000 0.000000
0.000000 0.000000 0.000000
0.000000 0.000000 0.000000
0.000000 0.000000 0.000000
0.000000 0.000000 0.000000
0.000000 0.000000 0.000000
0.000000 0.000000 0.000000
0.000000 0.000000 0.000000
0.000000 0.000000 0.000000
0.000000 0.000000 0.000000
0.000000 0.000000 0.000000
0.000000 0.000000 0.000000
0.000000 0.000000 0.000000
0.000000 0.000000 0.000000
0.000000 0.000000 0.000000
0.000000 0.000000 0.000000
0.000000 0.000000 0.000000
0.000000 0.000000 0.000000
0.000000 0.000000 0.000000
0.000000 0.000000 0.000000
0.000000 0.000000 0.000000
0.000000 0.000000 0.000000
0.000000 0.000000 0.000000
0.000000 0.000000 0.000000
0.000000 0.000000 0.000000
0.000000 0.000000 0.000000
0.000000 0.000000 0.000000
0.000000 0.000000 0.000000
0.000000 0.000000 0.000000
0.000000 0.000000 0.000000
0.000000 0.000000 0.000000
0.000000 0.000000 0.000000
0.000000 0.000000 0.000000
0.000000 0.000000 0.000000
0.000000 0.000000 0.000000
0.000000 0.000000 0.000000
0.000000 0.000000 0.000000
0.000000 0.000000 0.000000
0.000000 0.000000 0.000000
