total_Ti
1.0
6.391540 0.000000 0.000000
0.000000 9.587310 0.000000
0.000000 0.000000 23.150000
Ti
84
direct
0.125000 0.083333 0.580994 Ti
0.625000 0.083333 0.580994 Ti
0.125000 0.083333 0.710583 Ti
0.625000 0.083333 0.710583 Ti
0.125000 0.083333 0.840173 Ti
0.625000 0.083333 0.840173 Ti
0.125000 0.416667 0.580994 Ti
0.625000 0.416667 0.580994 Ti
0.125000 0.416667 0.710583 Ti
0.625000 0.416667 0.710583 Ti
0.125000 0.416667 0.840173 Ti
0.625000 0.416667 0.840173 Ti
0.125000 0.750000 0.580994 Ti
0.625000 0.750000 0.580994 Ti
0.125000 0.750000 0.710583 Ti
0.625000 0.750000 0.710583 Ti
0.125000 0.750000 0.840173 Ti
0.625000 0.750000 0.840173 Ti
0.375000 0.250000 0.645788 Ti
0.875000 0.250000 0.645788 Ti
0.375000 0.250000 0.775378 Ti
0.875000 0.250000 0.775378 Ti
0.375000 0.250000 0.904968 Ti
0.875000 0.250000 0.904968 Ti
0.375000 0.583333 0.645788 Ti
0.875000 0.583333 0.645788 Ti
0.375000 0.583333 0.775378 Ti
0.875000 0.583333 0.775378 Ti
0.375000 0.583333 0.904968 Ti
0.875000 0.583333 0.904968 Ti
0.375000 0.916667 0.645788 Ti
0.875000 0.916667 0.645788 Ti
0.375000 0.916667 0.775378 Ti
0.875000 0.916667 0.775378 Ti
0.375000 0.916667 0.904968 Ti
0.875000 0.916667 0.904968 Ti
0.125000 0.166667 0.388769 Ti
0.625000 0.166667 0.388769 Ti
0.125000 0.666667 0.388769 Ti
0.625000 0.666667 0.388769 Ti
0.125000 0.166667 -0.000000 Ti
0.625000 0.166667 -0.000000 Ti
0.125000 0.666667 -0.000000 Ti
0.625000 0.666667 -0.000000 Ti
0.125000 0.833333 0.097192 Ti
0.625000 0.833333 0.097192 Ti
0.125000 0.833333 0.485961 Ti
0.625000 0.833333 0.485961 Ti
0.125000 0.333333 0.097192 Ti
0.625000 0.333333 0.097192 Ti
0.125000 0.333333 0.485961 Ti
0.625000 0.333333 0.485961 Ti
0.375000 0.583333 0.485961 Ti
0.875000 0.583333 0.485961 Ti
0.374999 0.583333 0.097192 Ti
0.874999 0.583333 0.097192 Ti
0.375000 0.083333 0.097192 Ti
0.875000 0.083333 0.097192 Ti
0.375000 0.083333 0.485961 Ti
0.875000 0.083333 0.485961 Ti
0.375000 0.416667 0.388769 Ti
0.875000 0.416667 0.388769 Ti
0.375000 0.916667 0.388769 Ti
0.875000 0.916667 0.388769 Ti
0.375000 0.416667 -0.000000 Ti
0.875000 0.416667 -0.000000 Ti
0.375000 0.916667 -0.000000 Ti
0.875000 0.916667 -0.000000 Ti
0.375000 0.083333 0.291577 Ti
0.875000 0.083333 0.291577 Ti
0.125000 0.166667 0.194384 Ti
0.625000 0.166667 0.194384 Ti
0.125000 0.333333 0.291577 Ti
0.625000 0.333333 0.291577 Ti
0.375000 0.416667 0.194384 Ti
0.875000 0.416667 0.194384 Ti
0.374999 0.583333 0.291577 Ti
0.874999 0.583333 0.291577 Ti
0.125000 0.666667 0.194384 Ti
0.625000 0.666667 0.194384 Ti
0.125000 0.833333 0.291577 Ti
0.625000 0.833333 0.291577 Ti
0.375000 0.916667 0.194384 Ti
0.875000 0.916667 0.194384 Ti
