Ti72
1.0
8.805261 0.000000 0.000000
-4.402630 7.625580 0.000000
0.000000 0.000000 16.288801
Ti
72
direct
0.967272 0.027818 0.484500 Ti
0.967272 0.527818 0.484500 Ti
0.467272 0.027818 0.484500 Ti
0.467272 0.527818 0.484500 Ti
0.133938 0.361151 0.881844 Ti
0.133938 0.861151 0.881844 Ti
0.633938 0.361151 0.881844 Ti
0.633938 0.861151 0.881844 Ti
0.300605 0.194485 0.938607 Ti
0.300605 0.694485 0.938607 Ti
0.800605 0.194485 0.938607 Ti
0.800605 0.694485 0.938607 Ti
0.133938 0.361151 0.541264 Ti
0.133938 0.861151 0.541264 Ti
0.633938 0.361151 0.541264 Ti
0.633938 0.861151 0.541264 Ti
0.300605 0.194485 0.598027 Ti
0.300605 0.694485 0.598027 Ti
0.800605 0.194485 0.598027 Ti
0.800605 0.694485 0.598027 Ti
0.967272 0.027818 0.654790 Ti
0.967272 0.527818 0.654790 Ti
0.467272 0.027818 0.654790 Ti
0.467272 0.527818 0.654790 Ti
0.133938 0.361151 0.711554 Ti
0.133938 0.861151 0.711554 Ti
0.633938 0.361151 0.711554 Ti
0.633938 0.861151 0.711554 Ti
0.300605 0.194485 0.768317 Ti
0.300605 0.694485 0.768317 Ti
0.800605 0.194485 0.768317 Ti
0.800605 0.694485 0.768317 Ti
0.967272 0.027818 0.825080 Ti
0.967272 0.527818 0.825080 Ti
0.467272 0.027818 0.825080 Ti
0.467272 0.527818 0.825080 Ti
0.111111 0.888889 -0.000000 Ti
0.111111 0.888889 0.282072 Ti
0.111111 0.555556 -0.000000 Ti
0.222222 0.777778 0.141036 Ti
0.111111 0.555556 0.282072 Ti
0.444444 0.888889 -0.000000 Ti
0.111111 0.222222 -0.000000 Ti
0.222222 0.777778 0.423108 Ti
0.222222 0.444444 0.141036 Ti
0.444444 0.888889 0.282072 Ti
0.111111 0.222222 0.282072 Ti
0.444444 0.555556 -0.000000 Ti
0.222222 0.444444 0.423108 Ti
0.555556 0.777778 0.141036 Ti
0.222222 0.111111 0.141036 Ti
0.444444 0.555556 0.282072 Ti
0.777778 0.888889 -0.000000 Ti
0.444444 0.222222 -0.000000 Ti
0.555556 0.777778 0.423108 Ti
0.222222 0.111111 0.423108 Ti
0.555556 0.444444 0.141036 Ti
0.777778 0.888889 0.282072 Ti
0.444444 0.222222 0.282072 Ti
0.777778 0.555556 -0.000000 Ti
0.555556 0.444444 0.423108 Ti
0.888889 0.777778 0.141036 Ti
0.555556 0.111111 0.141036 Ti
0.777778 0.555556 0.282072 Ti
0.777778 0.222222 -0.000000 Ti
0.888889 0.777778 0.423108 Ti
0.555556 0.111111 0.423108 Ti
0.888889 0.444444 0.141036 Ti
0.777778 0.222222 0.282072 Ti
0.888889 0.444444 0.423108 Ti
0.888889 0.111111 0.141036 Ti
0.888889 0.111111 0.423108 Ti
