alpha_Ti
1.0
6.309760 0.000000 0.000000
0.000000 9.464640 0.000000
0.000000 0.000000 30.000004
Ti
32
direct
0.125000 0.625000 0.225000 Ti
0.625000 0.625000 0.225000 Ti
0.125000 0.625000 0.075000 Ti
0.625000 0.625000 0.075000 Ti
0.125000 0.125000 0.225000 Ti
0.625000 0.125000 0.225000 Ti
0.125000 0.125000 0.075000 Ti
0.625000 0.125000 0.075000 Ti
0.125000 0.375000 0.025000 Ti
0.625000 0.375000 0.025000 Ti
0.125000 0.875000 0.025000 Ti
0.625000 0.875000 0.025000 Ti
0.125000 0.375000 0.175000 Ti
0.625000 0.375000 0.175000 Ti
0.125000 0.875000 0.175000 Ti
0.625000 0.875000 0.175000 Ti
0.375000 0.875000 0.100000 Ti
0.875000 0.875000 0.100000 Ti
0.374999 0.375000 0.100000 Ti
0.874999 0.375000 0.100000 Ti
0.375000 0.375000 0.250000 Ti
0.875000 0.375000 0.250000 Ti
0.375000 0.875000 0.250000 Ti
0.875000 0.875000 0.250000 Ti
0.375000 0.625000 0.150000 Ti
0.875000 0.625000 0.150000 Ti
0.375000 0.625000 -0.000000 Ti
0.875000 0.625000 -0.000000 Ti
0.375000 0.125000 0.150000 Ti
0.875000 0.125000 0.150000 Ti
0.375000 0.125000 -0.000000 Ti
0.875000 0.125000 -0.000000 Ti
