Ti66 Al1
1.0
6.309760 0.000000 0.000000
0.000000 9.464640 0.000000
0.000000 0.000000 18.918326
Ti Al
66 1
Selective dynamics
direct
0.124780 0.041099 0.500110 F F F Ti
0.625441 0.041360 0.500109 F F F Ti
0.125101 0.041574 0.658677 F F F Ti
0.625147 0.041573 0.658696 F F F Ti
0.125022 0.041659 0.817195 F F F Ti
0.625015 0.041660 0.817199 F F F Ti
0.630950 0.375152 0.501258 F F F Ti
0.125130 0.374996 0.658588 F F F Ti
0.625282 0.375012 0.658786 F F F Ti
0.125004 0.375002 0.817175 F F F Ti
0.625025 0.375004 0.817202 F F F Ti
0.124827 0.708768 0.500094 F F F Ti
0.625327 0.708659 0.500097 F F F Ti
0.125077 0.708403 0.658654 F F F Ti
0.625108 0.708437 0.658687 F F F Ti
0.125006 0.708339 0.817187 F F F Ti
0.625009 0.708343 0.817196 F F F Ti
0.375536 0.208039 0.579559 F F F Ti
0.875630 0.207973 0.579486 F F F Ti
0.375019 0.208319 0.737932 F F F Ti
0.875088 0.208309 0.737930 F F F Ti
0.375001 0.208336 0.896455 F F F Ti
0.875006 0.208335 0.896452 F F F Ti
0.375506 0.541957 0.579546 F F F Ti
0.875659 0.542036 0.579486 F F F Ti
0.375013 0.541685 0.737931 F F F Ti
0.875087 0.541690 0.737930 F F F Ti
0.374998 0.541665 0.896455 F F F Ti
0.875006 0.541664 0.896453 F F F Ti
0.375111 0.875058 0.579363 F F F Ti
0.874984 0.874985 0.579409 F F F Ti
0.375023 0.874998 0.737925 F F F Ti
0.875029 0.874990 0.737935 F F F Ti
0.375007 0.874999 0.896459 F F F Ti
0.874999 0.874998 0.896458 F F F Ti
0.123242 0.626536 0.356403 F F F Ti
0.625136 0.625553 0.356696 F F F Ti
0.124978 0.625017 0.118891 F F F Ti
0.624896 0.625014 0.118883 F F F Ti
0.123155 0.123444 0.356386 F F F Ti
0.625300 0.124471 0.356685 F F F Ti
0.124981 0.124996 0.118885 F F F Ti
0.624902 0.125000 0.118876 F F F Ti
0.124993 0.375003 0.039620 F F F Ti
0.624947 0.375003 0.039613 F F F Ti
0.124993 0.875006 0.039617 F F F Ti
0.624965 0.875006 0.039613 F F F Ti
0.123817 0.375008 0.277147 F F F Ti
0.624375 0.375013 0.277378 F F F Ti
0.124886 0.875066 0.277346 F F F Ti
0.624784 0.875058 0.277423 F F F Ti
0.375005 0.875015 0.158519 F F F Ti
0.874899 0.875012 0.158488 F F F Ti
0.374925 0.375005 0.158545 F F F Ti
0.874727 0.375003 0.158461 F F F Ti
0.869893 0.375009 0.395925 F F F Ti
0.375034 0.875264 0.396446 F F F Ti
0.874617 0.875086 0.396453 F F F Ti
0.374896 0.625040 0.237824 F F F Ti
0.874553 0.625109 0.237685 F F F Ti
0.374989 0.625006 -0.000007 F F F Ti
0.874976 0.625009 -0.000013 F F F Ti
0.374899 0.124987 0.237818 F F F Ti
0.874548 0.124907 0.237678 F F F Ti
0.374990 0.124993 -0.000009 F F F Ti
0.874976 0.124992 -0.000013 F F F Ti
0.296288 0.374289 0.422740 T T T Al

0.000000 0.000000 0.000000
0.000000 0.000000 0.000000
0.000000 0.000000 0.000000
0.000000 0.000000 0.000000
0.000000 0.000000 0.000000
0.000000 0.000000 0.000000
0.000000 0.000000 0.000000
0.000000 0.000000 0.000000
0.000000 0.000000 0.000000
0.000000 0.000000 0.000000
0.000000 0.000000 0.000000
0.000000 0.000000 0.000000
0.000000 0.000000 0.000000
0.000000 0.000000 0.000000
0.000000 0.000000 0.000000
0.000000 0.000000 0.000000
0.000000 0.000000 0.000000
0.000000 0.000000 0.000000
0.000000 0.000000 0.000000
0.000000 0.000000 0.000000
0.000000 0.000000 0.000000
0.000000 0.000000 0.000000
0.000000 0.000000 0.000000
0.000000 0.000000 0.000000
0.000000 0.000000 0.000000
0.000000 0.000000 0.000000
0.000000 0.000000 0.000000
0.000000 0.000000 0.000000
0.000000 0.000000 0.000000
0.000000 0.000000 0.000000
0.000000 0.000000 0.000000
0.000000 0.000000 0.000000
0.000000 0.000000 0.000000
0.000000 0.000000 0.000000
0.000000 0.000000 0.000000
0.000000 0.000000 0.000000
0.000000 0.000000 0.000000
0.000000 0.000000 0.000000
0.000000 0.000000 0.000000
0.000000 0.000000 0.000000
0.000000 0.000000 0.000000
0.000000 0.000000 0.000000
0.000000 0.000000 0.000000
0.000000 0.000000 0.000000
0.000000 0.000000 0.000000
0.000000 0.000000 0.000000
0.000000 0.000000 0.000000
0.000000 0.000000 0.000000
0.000000 0.000000 0.000000
0.000000 0.000000 0.000000
0.000000 0.000000 0.000000
0.000000 0.000000 0.000000
0.000000 0.000000 0.000000
0.000000 0.000000 0.000000
0.000000 0.000000 0.000000
0.000000 0.000000 0.000000
0.000000 0.000000 0.000000
0.000000 0.000000 0.000000
0.000000 0.000000 0.000000
0.000000 0.000000 0.000000
0.000000 0.000000 0.000000
0.000000 0.000000 0.000000
0.000000 0.000000 0.000000
0.000000 0.000000 0.000000
0.000000 0.000000 0.000000
0.000000 0.000000 0.000000
0.000000 0.000000 0.000000
