Ti66 Cr1
1.0
6.309760 0.000000 0.000000
0.000000 9.464640 0.000000
0.000000 0.000000 18.918326
Ti Cr
66 1
Selective dynamics
direct
0.143596 0.052618 0.496102 T T T Ti
0.605776 0.051890 0.496399 T T T Ti
0.154399 0.081428 0.642397 T T T Ti
0.594640 0.081327 0.642700 T T T Ti
0.124921 0.040902 0.817822 F F F Ti
0.624855 0.040943 0.817841 F F F Ti
0.151647 0.369116 0.489564 T T T Ti
0.602505 0.373682 0.492759 T T T Ti
0.140409 0.385336 0.641690 T T T Ti
0.609220 0.385696 0.642338 T T T Ti
0.124985 0.373990 0.817874 F F F Ti
0.624749 0.373962 0.817910 F F F Ti
0.099376 0.752374 0.492765 T T T Ti
0.650312 0.752448 0.492902 T T T Ti
0.104844 0.691517 0.647615 T T T Ti
0.644927 0.691561 0.647747 T T T Ti
0.125099 0.707637 0.818089 F F F Ti
0.624751 0.707625 0.818097 F F F Ti
0.873446 0.234192 0.566982 T T T Ti
0.374526 0.206682 0.738464 F F F Ti
0.874971 0.206751 0.738803 F F F Ti
0.374953 0.207763 0.896842 F F F Ti
0.874939 0.207798 0.896922 F F F Ti
0.374813 0.572692 0.547329 T T T Ti
0.876360 0.532577 0.541760 T T T Ti
0.374758 0.540283 0.738910 F F F Ti
0.875069 0.540546 0.739332 F F F Ti
0.374971 0.540937 0.896988 F F F Ti
0.874789 0.540961 0.897064 F F F Ti
0.375170 0.868653 0.582876 T T T Ti
0.873998 0.911533 0.584521 T T T Ti
0.374867 0.873827 0.738826 F F F Ti
0.874836 0.873921 0.738951 F F F Ti
0.374969 0.874638 0.896955 F F F Ti
0.874799 0.874613 0.897000 F F F Ti
0.126237 0.590212 0.378747 T T T Ti
0.624646 0.592090 0.378470 T T T Ti
0.124892 0.624808 0.119097 F F F Ti
0.624733 0.624800 0.119061 F F F Ti
0.140936 0.110691 0.362740 T T T Ti
0.607841 0.107757 0.362084 T T T Ti
0.125054 0.125033 0.118982 F F F Ti
0.624176 0.125056 0.118893 F F F Ti
0.124971 0.374850 0.039994 F F F Ti
0.624700 0.374850 0.040008 F F F Ti
0.124815 0.874847 0.039675 F F F Ti
0.624651 0.874842 0.039667 F F F Ti
0.134441 0.364790 0.282698 T T T Ti
0.615195 0.365406 0.281711 T T T Ti
0.133693 0.853800 0.281827 T T T Ti
0.614850 0.853286 0.281526 T T T Ti
0.374467 0.874783 0.158104 F F F Ti
0.874525 0.874731 0.158099 F F F Ti
0.374652 0.374700 0.158865 F F F Ti
0.875420 0.375105 0.158807 F F F Ti
0.867241 0.317958 0.398361 T T T Ti
0.374494 0.862148 0.402700 T T T Ti
0.873366 0.890443 0.393027 T T T Ti
0.374760 0.612057 0.251690 T T T Ti
0.875153 0.613783 0.249665 T T T Ti
0.374797 0.624572 0.000413 F F F Ti
0.874695 0.624635 0.000423 F F F Ti
0.374021 0.115815 0.242605 T T T Ti
0.873139 0.115010 0.250977 T T T Ti
0.374868 0.124975 0.000358 F F F Ti
0.874869 0.124951 0.000388 F F F Ti
0.395451 0.289136 0.415431 T T T Cr

0.000000 0.000000 0.000000
0.000000 0.000000 0.000000
0.000000 0.000000 0.000000
0.000000 0.000000 0.000000
0.000000 0.000000 0.000000
0.000000 0.000000 0.000000
0.000000 0.000000 0.000000
0.000000 0.000000 0.000000
0.000000 0.000000 0.000000
0.000000 0.000000 0.000000
0.000000 0.000000 0.000000
0.000000 0.000000 0.000000
0.000000 0.000000 0.000000
0.000000 0.000000 0.000000
0.000000 0.000000 0.000000
0.000000 0.000000 0.000000
0.000000 0.000000 0.000000
0.000000 0.000000 0.000000
0.000000 0.000000 0.000000
0.000000 0.000000 0.000000
0.000000 0.000000 0.000000
0.000000 0.000000 0.000000
0.000000 0.000000 0.000000
0.000000 0.000000 0.000000
0.000000 0.000000 0.000000
0.000000 0.000000 0.000000
0.000000 0.000000 0.000000
0.000000 0.000000 0.000000
0.000000 0.000000 0.000000
0.000000 0.000000 0.000000
0.000000 0.000000 0.000000
0.000000 0.000000 0.000000
0.000000 0.000000 0.000000
0.000000 0.000000 0.000000
0.000000 0.000000 0.000000
0.000000 0.000000 0.000000
0.000000 0.000000 0.000000
0.000000 0.000000 0.000000
0.000000 0.000000 0.000000
0.000000 0.000000 0.000000
0.000000 0.000000 0.000000
0.000000 0.000000 0.000000
0.000000 0.000000 0.000000
0.000000 0.000000 0.000000
0.000000 0.000000 0.000000
0.000000 0.000000 0.000000
0.000000 0.000000 0.000000
0.000000 0.000000 0.000000
0.000000 0.000000 0.000000
0.000000 0.000000 0.000000
0.000000 0.000000 0.000000
0.000000 0.000000 0.000000
0.000000 0.000000 0.000000
0.000000 0.000000 0.000000
0.000000 0.000000 0.000000
0.000000 0.000000 0.000000
0.000000 0.000000 0.000000
0.000000 0.000000 0.000000
0.000000 0.000000 0.000000
0.000000 0.000000 0.000000
0.000000 0.000000 0.000000
0.000000 0.000000 0.000000
0.000000 0.000000 0.000000
0.000000 0.000000 0.000000
0.000000 0.000000 0.000000
0.000000 0.000000 0.000000
0.000000 0.000000 0.000000
