alpha_Ti
1.0
8.805261 0.000000 0.000000
-4.402631 7.625580 0.000000
0.000000 0.000000 23.183422
Ti
54
direct
0.166666 0.944444 -0.000000 Ti
0.166666 0.944444 0.396371 Ti
0.166666 0.611111 -0.000000 Ti
0.277778 0.833333 0.099093 Ti
0.166666 0.611111 0.396371 Ti
0.500000 0.944444 -0.000000 Ti
0.166666 0.277778 -0.000000 Ti
0.277778 0.833333 0.495464 Ti
0.277778 0.500000 0.099093 Ti
0.500000 0.944444 0.396371 Ti
0.166666 0.277778 0.396371 Ti
0.500000 0.611111 -0.000000 Ti
0.277778 0.500000 0.495464 Ti
0.611111 0.833333 0.099093 Ti
0.277778 0.166667 0.099093 Ti
0.500000 0.611111 0.396371 Ti
0.833333 0.944444 -0.000000 Ti
0.500000 0.277778 -0.000000 Ti
0.611111 0.833333 0.495464 Ti
0.277778 0.166667 0.495464 Ti
0.611111 0.500000 0.099093 Ti
0.833333 0.944444 0.396371 Ti
0.500000 0.277778 0.396371 Ti
0.833333 0.611111 -0.000000 Ti
0.611111 0.500000 0.495464 Ti
0.944444 0.833333 0.099093 Ti
0.611111 0.166667 0.099093 Ti
0.833333 0.611111 0.396371 Ti
0.833333 0.277778 -0.000000 Ti
0.944444 0.833333 0.495464 Ti
0.611111 0.166667 0.495464 Ti
0.944444 0.500000 0.099093 Ti
0.833333 0.277778 0.396371 Ti
0.944444 0.500000 0.495464 Ti
0.944444 0.166667 0.099093 Ti
0.944444 0.166667 0.495464 Ti
0.166666 0.944444 0.198186 Ti
0.166666 0.611111 0.198186 Ti
0.277778 0.833333 0.297278 Ti
0.500000 0.944444 0.198186 Ti
0.166666 0.277778 0.198186 Ti
0.277778 0.500000 0.297278 Ti
0.500000 0.611111 0.198186 Ti
0.611111 0.833333 0.297278 Ti
0.277778 0.166667 0.297278 Ti
0.833333 0.944444 0.198186 Ti
0.500000 0.277778 0.198186 Ti
0.611111 0.500000 0.297278 Ti
0.833333 0.611111 0.198186 Ti
0.944444 0.833333 0.297278 Ti
0.611111 0.166667 0.297278 Ti
0.833333 0.277778 0.198186 Ti
0.944444 0.500000 0.297278 Ti
0.944444 0.166667 0.297278 Ti
