alpha_Ti
1.0
6.309760 0.000000 0.000000
0.000000 9.464640 0.000000
0.000000 0.000000 31.000004
Ti
32
direct
0.125000 0.625000 0.217742 Ti
0.625000 0.625000 0.217742 Ti
0.125000 0.625000 0.072581 Ti
0.625000 0.625000 0.072581 Ti
0.125000 0.125000 0.217742 Ti
0.625000 0.125000 0.217742 Ti
0.125000 0.125000 0.072581 Ti
0.625000 0.125000 0.072581 Ti
0.125000 0.375000 0.024194 Ti
0.625000 0.375000 0.024194 Ti
0.125000 0.875000 0.024194 Ti
0.625000 0.875000 0.024194 Ti
0.125000 0.375000 0.169355 Ti
0.625000 0.375000 0.169355 Ti
0.125000 0.875000 0.169355 Ti
0.625000 0.875000 0.169355 Ti
0.375000 0.875000 0.096774 Ti
0.875000 0.875000 0.096774 Ti
0.374999 0.375000 0.096774 Ti
0.874999 0.375000 0.096774 Ti
0.375000 0.375000 0.241936 Ti
0.875000 0.375000 0.241936 Ti
0.375000 0.875000 0.241935 Ti
0.875000 0.875000 0.241935 Ti
0.375000 0.625000 0.145161 Ti
0.875000 0.625000 0.145161 Ti
0.375000 0.625000 -0.000000 Ti
0.875000 0.625000 -0.000000 Ti
0.375000 0.125000 0.145161 Ti
0.875000 0.125000 0.145161 Ti
0.375000 0.125000 -0.000000 Ti
0.875000 0.125000 -0.000000 Ti
