beta_Ti
1.0
6.309760 0.000000 0.000000
0.000000 9.464640 0.000000
0.000000 0.000000 31.000004
Ti
36
direct
0.125000 0.958333 0.500000 Ti
0.625000 0.958333 0.500000 Ti
0.125000 0.958333 0.596774 Ti
0.625000 0.958333 0.596774 Ti
0.125000 0.958333 0.693548 Ti
0.625000 0.958333 0.693548 Ti
0.125000 0.291667 0.500000 Ti
0.625000 0.291667 0.500000 Ti
0.125000 0.291667 0.596774 Ti
0.625000 0.291667 0.596774 Ti
0.125000 0.291667 0.693548 Ti
0.625000 0.291667 0.693548 Ti
0.125000 0.625000 0.500000 Ti
0.625000 0.625000 0.500000 Ti
0.125000 0.625000 0.596774 Ti
0.625000 0.625000 0.596774 Ti
0.125000 0.625000 0.693548 Ti
0.625000 0.625000 0.693548 Ti
0.375000 0.125000 0.548387 Ti
0.875000 0.125000 0.548387 Ti
0.375000 0.125000 0.645161 Ti
0.875000 0.125000 0.645161 Ti
0.375000 0.125000 0.741935 Ti
0.875000 0.125000 0.741935 Ti
0.375000 0.458333 0.548387 Ti
0.875000 0.458333 0.548387 Ti
0.375000 0.458333 0.645161 Ti
0.875000 0.458333 0.645161 Ti
0.375000 0.458333 0.741935 Ti
0.875000 0.458333 0.741935 Ti
0.375000 0.791667 0.548387 Ti
0.875000 0.791667 0.548387 Ti
0.375000 0.791667 0.645161 Ti
0.875000 0.791667 0.645161 Ti
0.375000 0.791667 0.741935 Ti
0.875000 0.791667 0.741935 Ti
