beta_Ti
1.0
8.805261 0.000000 0.000000
-4.402631 7.625580 0.000000
0.000000 0.000000 22.083422
Ti
36
direct
0.967272 0.027818 0.592596 Ti
0.967272 0.527818 0.592596 Ti
0.467272 0.027818 0.592596 Ti
0.467272 0.527818 0.592596 Ti
0.133938 0.361151 0.885678 Ti
0.133938 0.861151 0.885678 Ti
0.633938 0.361151 0.885678 Ti
0.633938 0.861151 0.885678 Ti
0.300605 0.194485 0.927547 Ti
0.300605 0.694485 0.927547 Ti
0.800605 0.194485 0.927547 Ti
0.800605 0.694485 0.927547 Ti
0.133938 0.361151 0.634465 Ti
0.133938 0.861151 0.634465 Ti
0.633938 0.361151 0.634465 Ti
0.633938 0.861151 0.634465 Ti
0.300605 0.194485 0.676334 Ti
0.300605 0.694485 0.676334 Ti
0.800605 0.194485 0.676334 Ti
0.800605 0.694485 0.676334 Ti
0.967272 0.027818 0.718203 Ti
0.967272 0.527818 0.718203 Ti
0.467272 0.027818 0.718203 Ti
0.467272 0.527818 0.718203 Ti
0.133938 0.361151 0.760071 Ti
0.133938 0.861151 0.760071 Ti
0.633938 0.361151 0.760071 Ti
0.633938 0.861151 0.760071 Ti
0.300605 0.194485 0.801940 Ti
0.300605 0.694485 0.801940 Ti
0.800605 0.194485 0.801940 Ti
0.800605 0.694485 0.801940 Ti
0.967272 0.027818 0.843809 Ti
0.967272 0.527818 0.843809 Ti
0.467272 0.027818 0.843809 Ti
0.467272 0.527818 0.843809 Ti
