Zr1 Ti66
1.0
6.309760 0.000000 0.000000
0.000000 9.464640 0.000000
0.000000 0.000000 18.918326
Ti Zr
66 1
Selective dynamics
direct
0.124950 0.041556 0.500020 F F F Ti
0.625066 0.041609 0.500013 F F F Ti
0.124996 0.041656 0.658586 F F F Ti
0.625019 0.041653 0.658588 F F F Ti
0.125000 0.041666 0.817156 F F F Ti
0.625002 0.041666 0.817156 F F F Ti
0.626085 0.375012 0.500207 F F F Ti
0.125002 0.375000 0.658580 F F F Ti
0.625031 0.375001 0.658602 F F F Ti
0.124999 0.375000 0.817155 F F F Ti
0.625002 0.375000 0.817157 F F F Ti
0.124953 0.708433 0.500019 F F F Ti
0.625058 0.708391 0.500012 F F F Ti
0.124995 0.708343 0.658584 F F F Ti
0.625016 0.708349 0.658588 F F F Ti
0.124999 0.708334 0.817155 F F F Ti
0.625001 0.708335 0.817156 F F F Ti
0.375078 0.208250 0.579359 F F F Ti
0.875046 0.208297 0.579306 F F F Ti
0.375000 0.208331 0.737873 F F F Ti
0.875003 0.208331 0.737870 F F F Ti
0.375000 0.208333 0.896442 F F F Ti
0.875000 0.208333 0.896442 F F F Ti
0.375076 0.541749 0.579358 F F F Ti
0.875047 0.541703 0.579306 F F F Ti
0.375000 0.541670 0.737873 F F F Ti
0.875003 0.541669 0.737870 F F F Ti
0.375000 0.541667 0.896442 F F F Ti
0.875000 0.541667 0.896442 F F F Ti
0.375010 0.875012 0.579296 F F F Ti
0.874991 0.875002 0.579298 F F F Ti
0.375000 0.875001 0.737870 F F F Ti
0.875000 0.875000 0.737870 F F F Ti
0.375000 0.875000 0.896442 F F F Ti
0.875000 0.875000 0.896442 F F F Ti
0.124791 0.625263 0.356717 F F F Ti
0.625040 0.625058 0.356784 F F F Ti
0.124999 0.625003 0.118927 F F F Ti
0.624998 0.625001 0.118929 F F F Ti
0.124788 0.124737 0.356716 F F F Ti
0.625049 0.124944 0.356783 F F F Ti
0.124999 0.124998 0.118927 F F F Ti
0.624998 0.124999 0.118928 F F F Ti
0.125000 0.375000 0.039642 F F F Ti
0.624999 0.375000 0.039642 F F F Ti
0.125000 0.875001 0.039642 F F F Ti
0.624999 0.875001 0.039642 F F F Ti
0.124878 0.375000 0.277431 F F F Ti
0.624963 0.375001 0.277498 F F F Ti
0.124995 0.875011 0.277494 F F F Ti
0.624990 0.875007 0.277503 F F F Ti
0.375003 0.875002 0.158572 F F F Ti
0.874994 0.875002 0.158570 F F F Ti
0.375003 0.375000 0.158571 F F F Ti
0.874977 0.375000 0.158564 F F F Ti
0.874223 0.375000 0.396353 F F F Ti
0.375013 0.875035 0.396440 F F F Ti
0.874967 0.875016 0.396440 F F F Ti
0.375006 0.625010 0.237854 F F F Ti
0.874963 0.625014 0.237846 F F F Ti
0.375000 0.625001 -0.000001 F F F Ti
0.874998 0.625001 -0.000001 F F F Ti
0.375006 0.124991 0.237855 F F F Ti
0.874962 0.124986 0.237847 F F F Ti
0.375000 0.124999 -0.000001 F F F Ti
0.874998 0.124999 -0.000001 F F F Ti
0.287725 0.374901 0.434688 T T T Zr

0.000000 0.000000 0.000000
0.000000 0.000000 0.000000
0.000000 0.000000 0.000000
0.000000 0.000000 0.000000
0.000000 0.000000 0.000000
0.000000 0.000000 0.000000
0.000000 0.000000 0.000000
0.000000 0.000000 0.000000
0.000000 0.000000 0.000000
0.000000 0.000000 0.000000
0.000000 0.000000 0.000000
0.000000 0.000000 0.000000
0.000000 0.000000 0.000000
0.000000 0.000000 0.000000
0.000000 0.000000 0.000000
0.000000 0.000000 0.000000
0.000000 0.000000 0.000000
0.000000 0.000000 0.000000
0.000000 0.000000 0.000000
0.000000 0.000000 0.000000
0.000000 0.000000 0.000000
0.000000 0.000000 0.000000
0.000000 0.000000 0.000000
0.000000 0.000000 0.000000
0.000000 0.000000 0.000000
0.000000 0.000000 0.000000
0.000000 0.000000 0.000000
0.000000 0.000000 0.000000
0.000000 0.000000 0.000000
0.000000 0.000000 0.000000
0.000000 0.000000 0.000000
0.000000 0.000000 0.000000
0.000000 0.000000 0.000000
0.000000 0.000000 0.000000
0.000000 0.000000 0.000000
0.000000 0.000000 0.000000
0.000000 0.000000 0.000000
0.000000 0.000000 0.000000
0.000000 0.000000 0.000000
0.000000 0.000000 0.000000
0.000000 0.000000 0.000000
0.000000 0.000000 0.000000
0.000000 0.000000 0.000000
0.000000 0.000000 0.000000
0.000000 0.000000 0.000000
0.000000 0.000000 0.000000
0.000000 0.000000 0.000000
0.000000 0.000000 0.000000
0.000000 0.000000 0.000000
0.000000 0.000000 0.000000
0.000000 0.000000 0.000000
0.000000 0.000000 0.000000
0.000000 0.000000 0.000000
0.000000 0.000000 0.000000
0.000000 0.000000 0.000000
0.000000 0.000000 0.000000
0.000000 0.000000 0.000000
0.000000 0.000000 0.000000
0.000000 0.000000 0.000000
0.000000 0.000000 0.000000
0.000000 0.000000 0.000000
0.000000 0.000000 0.000000
0.000000 0.000000 0.000000
0.000000 0.000000 0.000000
0.000000 0.000000 0.000000
0.000000 0.000000 0.000000
0.000000 0.000000 0.000000
