Ti96 Mo1
1.0
9.513020 0.000000 0.000000
0.000000 9.350860 0.000000
0.000000 0.000000 18.547230
Ti Mo
96 1
Selective dynamics
direct
0.141556 0.367068 0.402328 T T T Ti
0.661316 0.357128 0.391488 T T T Ti
0.155818 0.863358 0.401550 T T T Ti
0.663031 0.877174 0.410819 T T T Ti
0.161166 0.372723 0.237427 T T T Ti
0.659370 0.371187 0.232796 T T T Ti
0.160164 0.873182 0.234748 T T T Ti
0.660768 0.869337 0.237692 T T T Ti
0.166680 0.375063 0.077585 F F F Ti
0.666655 0.375000 0.077559 F F F Ti
0.166685 0.875024 0.077586 F F F Ti
0.666651 0.874948 0.077634 F F F Ti
0.406477 0.383584 0.316968 T T T Ti
0.909430 0.381022 0.316809 T T T Ti
0.402051 0.882488 0.316165 T T T Ti
0.906604 0.877003 0.319048 T T T Ti
0.416663 0.375187 0.155179 F F F Ti
0.916661 0.374976 0.155174 F F F Ti
0.416662 0.875048 0.155231 F F F Ti
0.916668 0.874980 0.155177 F F F Ti
0.416680 0.375089 -0.000091 F F F Ti
0.916611 0.375037 -0.000063 F F F Ti
0.416673 0.874974 -0.000125 F F F Ti
0.916601 0.874979 -0.000085 F F F Ti
0.090570 0.118980 0.316808 T T T Ti
0.593523 0.116417 0.316967 T T T Ti
0.093396 0.622998 0.319047 T T T Ti
0.597949 0.617513 0.316164 T T T Ti
0.083339 0.125038 0.155174 F F F Ti
0.583336 0.124826 0.155181 F F F Ti
0.083332 0.625037 0.155177 F F F Ti
0.583339 0.624966 0.155231 F F F Ti
0.083389 0.124972 -0.000063 F F F Ti
0.583323 0.124924 -0.000090 F F F Ti
0.083401 0.625036 -0.000085 F F F Ti
0.583328 0.625044 -0.000125 F F F Ti
0.338683 0.142873 0.391488 T T T Ti
0.858443 0.132933 0.402327 T T T Ti
0.336968 0.622826 0.410819 T T T Ti
0.844181 0.636642 0.401550 T T T Ti
0.340629 0.128817 0.232796 T T T Ti
0.838833 0.127281 0.237427 T T T Ti
0.339231 0.630666 0.237692 T T T Ti
0.839836 0.626821 0.234748 T T T Ti
0.333344 0.125014 0.077558 F F F Ti
0.833319 0.124951 0.077585 F F F Ti
0.333349 0.625066 0.077634 F F F Ti
0.833315 0.624991 0.077587 F F F Ti
0.375077 0.375022 0.823834 F F F Ti
0.874969 0.374923 0.823928 F F F Ti
0.375052 0.875120 0.823739 F F F Ti
0.874938 0.874977 0.823912 F F F Ti
0.125033 0.125055 0.823927 F F F Ti
0.624935 0.124978 0.823835 F F F Ti
0.125064 0.625016 0.823913 F F F Ti
0.624952 0.624870 0.823742 F F F Ti
0.125031 0.375017 0.910154 F F F Ti
0.624991 0.374982 0.910103 F F F Ti
0.125066 0.875026 0.910117 F F F Ti
0.624954 0.874980 0.910061 F F F Ti
0.375012 0.125012 0.910102 F F F Ti
0.874975 0.124977 0.910152 F F F Ti
0.375049 0.625016 0.910060 F F F Ti
0.874941 0.624971 0.910118 F F F Ti
0.380851 0.374623 0.668177 T T T Ti
0.884606 0.393777 0.648614 T T T Ti
0.379567 0.883474 0.661581 T T T Ti
0.904428 0.881578 0.651206 T T T Ti
0.115392 0.106218 0.648614 T T T Ti
0.619147 0.125370 0.668177 T T T Ti
0.095568 0.618415 0.651207 T T T Ti
0.620432 0.616520 0.661582 T T T Ti
0.135765 0.356743 0.571727 T T T Ti
0.634628 0.361782 0.582084 T T T Ti
0.163405 0.850310 0.564167 T T T Ti
0.671319 0.916934 0.570742 T T T Ti
0.365372 0.138216 0.582084 T T T Ti
0.864234 0.143255 0.571727 T T T Ti
0.328680 0.583064 0.570742 T T T Ti
0.836594 0.649687 0.564167 T T T Ti
0.395746 0.357304 0.483540 T T T Ti
0.881958 0.386460 0.490883 T T T Ti
0.389178 0.934719 0.477277 T T T Ti
0.918322 0.888170 0.485677 T T T Ti
0.118042 0.113539 0.490883 T T T Ti
0.604254 0.142695 0.483540 T T T Ti
0.081678 0.611829 0.485678 T T T Ti
0.610822 0.565280 0.477277 T T T Ti
0.125350 0.875286 0.737701 F F F Ti
0.624859 0.874881 0.737543 F F F Ti
0.375136 0.625100 0.737540 F F F Ti
0.874639 0.624687 0.737711 F F F Ti
0.125025 0.374921 0.737757 F F F Ti
0.625243 0.374837 0.737610 F F F Ti
0.374751 0.125143 0.737609 F F F Ti
0.874961 0.125048 0.737755 F F F Ti
0.500000 0.749999 0.527759 T T T Mo

0.000000 0.000000 0.000000
0.000000 0.000000 0.000000
0.000000 0.000000 0.000000
0.000000 0.000000 0.000000
0.000000 0.000000 0.000000
0.000000 0.000000 0.000000
0.000000 0.000000 0.000000
0.000000 0.000000 0.000000
0.000000 0.000000 0.000000
0.000000 0.000000 0.000000
0.000000 0.000000 0.000000
0.000000 0.000000 0.000000
0.000000 0.000000 0.000000
0.000000 0.000000 0.000000
0.000000 0.000000 0.000000
0.000000 0.000000 0.000000
0.000000 0.000000 0.000000
0.000000 0.000000 0.000000
0.000000 0.000000 0.000000
0.000000 0.000000 0.000000
0.000000 0.000000 0.000000
0.000000 0.000000 0.000000
0.000000 0.000000 0.000000
0.000000 0.000000 0.000000
0.000000 0.000000 0.000000
0.000000 0.000000 0.000000
0.000000 0.000000 0.000000
0.000000 0.000000 0.000000
0.000000 0.000000 0.000000
0.000000 0.000000 0.000000
0.000000 0.000000 0.000000
0.000000 0.000000 0.000000
0.000000 0.000000 0.000000
0.000000 0.000000 0.000000
0.000000 0.000000 0.000000
0.000000 0.000000 0.000000
0.000000 0.000000 0.000000
0.000000 0.000000 0.000000
0.000000 0.000000 0.000000
0.000000 0.000000 0.000000
0.000000 0.000000 0.000000
0.000000 0.000000 0.000000
0.000000 0.000000 0.000000
0.000000 0.000000 0.000000
0.000000 0.000000 0.000000
0.000000 0.000000 0.000000
0.000000 0.000000 0.000000
0.000000 0.000000 0.000000
0.000000 0.000000 0.000000
0.000000 0.000000 0.000000
0.000000 0.000000 0.000000
0.000000 0.000000 0.000000
0.000000 0.000000 0.000000
0.000000 0.000000 0.000000
0.000000 0.000000 0.000000
0.000000 0.000000 0.000000
0.000000 0.000000 0.000000
0.000000 0.000000 0.000000
0.000000 0.000000 0.000000
0.000000 0.000000 0.000000
0.000000 0.000000 0.000000
0.000000 0.000000 0.000000
0.000000 0.000000 0.000000
0.000000 0.000000 0.000000
0.000000 0.000000 0.000000
0.000000 0.000000 0.000000
0.000000 0.000000 0.000000
0.000000 0.000000 0.000000
0.000000 0.000000 0.000000
0.000000 0.000000 0.000000
0.000000 0.000000 0.000000
0.000000 0.000000 0.000000
0.000000 0.000000 0.000000
0.000000 0.000000 0.000000
0.000000 0.000000 0.000000
0.000000 0.000000 0.000000
0.000000 0.000000 0.000000
0.000000 0.000000 0.000000
0.000000 0.000000 0.000000
0.000000 0.000000 0.000000
0.000000 0.000000 0.000000
0.000000 0.000000 0.000000
0.000000 0.000000 0.000000
0.000000 0.000000 0.000000
0.000000 0.000000 0.000000
0.000000 0.000000 0.000000
0.000000 0.000000 0.000000
0.000000 0.000000 0.000000
0.000000 0.000000 0.000000
0.000000 0.000000 0.000000
0.000000 0.000000 0.000000
0.000000 0.000000 0.000000
0.000000 0.000000 0.000000
0.000000 0.000000 0.000000
0.000000 0.000000 0.000000
0.000000 0.000000 0.000000
0.000000 0.000000 0.000000
