beta_Ti
1.0
9.588310 0.000000 0.000000
0.000000 9.588310 0.000000
0.000000 0.000000 31.000006
Ti
54
direct
0.083333 0.083333 0.500000 Ti
0.083333 0.083333 0.596774 Ti
0.083333 0.083333 0.693548 Ti
0.083333 0.416667 0.500000 Ti
0.083333 0.416667 0.596774 Ti
0.083333 0.416667 0.693548 Ti
0.083333 0.750000 0.500000 Ti
0.083333 0.750000 0.596774 Ti
0.083333 0.750000 0.693548 Ti
0.416667 0.083333 0.500000 Ti
0.416667 0.083333 0.596774 Ti
0.416667 0.083333 0.693548 Ti
0.416667 0.416667 0.500000 Ti
0.416667 0.416667 0.596774 Ti
0.416667 0.416667 0.693548 Ti
0.416667 0.750000 0.500000 Ti
0.416667 0.750000 0.596774 Ti
0.416667 0.750000 0.693548 Ti
0.750000 0.083333 0.500000 Ti
0.750000 0.083333 0.596774 Ti
0.750000 0.083333 0.693548 Ti
0.750000 0.416667 0.500000 Ti
0.750000 0.416667 0.596774 Ti
0.750000 0.416667 0.693548 Ti
0.750000 0.750000 0.500000 Ti
0.750000 0.750000 0.596774 Ti
0.750000 0.750000 0.693548 Ti
0.250000 0.250000 0.548387 Ti
0.250000 0.250000 0.645161 Ti
0.250000 0.250000 0.741936 Ti
0.250000 0.583333 0.548387 Ti
0.250000 0.583333 0.645161 Ti
0.250000 0.583333 0.741936 Ti
0.250000 0.916667 0.548387 Ti
0.250000 0.916667 0.645161 Ti
0.250000 0.916667 0.741936 Ti
0.583333 0.250000 0.548387 Ti
0.583333 0.250000 0.645161 Ti
0.583333 0.250000 0.741936 Ti
0.583333 0.583333 0.548387 Ti
0.583333 0.583333 0.645161 Ti
0.583333 0.583333 0.741936 Ti
0.583333 0.916667 0.548387 Ti
0.583333 0.916667 0.645161 Ti
0.583333 0.916667 0.741936 Ti
0.916667 0.250000 0.548387 Ti
0.916667 0.250000 0.645161 Ti
0.916667 0.250000 0.741936 Ti
0.916667 0.583333 0.548387 Ti
0.916667 0.583333 0.645161 Ti
0.916667 0.583333 0.741936 Ti
0.916667 0.916667 0.548387 Ti
0.916667 0.916667 0.645161 Ti
0.916667 0.916667 0.741936 Ti
