total_Ti
1.0
9.588310 0.000000 0.000000
0.000000 9.588310 0.000000
0.000000 0.000000 31.000006
Ti
102
direct
0.083333 0.083333 0.500000 Ti
0.083333 0.083333 0.596774 Ti
0.083333 0.083333 0.693548 Ti
0.083333 0.416667 0.500000 Ti
0.083333 0.416667 0.596774 Ti
0.083333 0.416667 0.693548 Ti
0.083333 0.750000 0.500000 Ti
0.083333 0.750000 0.596774 Ti
0.083333 0.750000 0.693548 Ti
0.416667 0.083333 0.500000 Ti
0.416667 0.083333 0.596774 Ti
0.416667 0.083333 0.693548 Ti
0.416667 0.416667 0.500000 Ti
0.416667 0.416667 0.596774 Ti
0.416667 0.416667 0.693548 Ti
0.416667 0.750000 0.500000 Ti
0.416667 0.750000 0.596774 Ti
0.416667 0.750000 0.693548 Ti
0.750000 0.083333 0.500000 Ti
0.750000 0.083333 0.596774 Ti
0.750000 0.083333 0.693548 Ti
0.750000 0.416667 0.500000 Ti
0.750000 0.416667 0.596774 Ti
0.750000 0.416667 0.693548 Ti
0.750000 0.750000 0.500000 Ti
0.750000 0.750000 0.596774 Ti
0.750000 0.750000 0.693548 Ti
0.250000 0.250000 0.548387 Ti
0.250000 0.250000 0.645161 Ti
0.250000 0.250000 0.741936 Ti
0.250000 0.583333 0.548387 Ti
0.250000 0.583333 0.645161 Ti
0.250000 0.583333 0.741936 Ti
0.250000 0.916667 0.548387 Ti
0.250000 0.916667 0.645161 Ti
0.250000 0.916667 0.741936 Ti
0.583333 0.250000 0.548387 Ti
0.583333 0.250000 0.645161 Ti
0.583333 0.250000 0.741936 Ti
0.583333 0.583333 0.548387 Ti
0.583333 0.583333 0.645161 Ti
0.583333 0.583333 0.741936 Ti
0.583333 0.916667 0.548387 Ti
0.583333 0.916667 0.645161 Ti
0.583333 0.916667 0.741936 Ti
0.916667 0.250000 0.548387 Ti
0.916667 0.250000 0.645161 Ti
0.916667 0.250000 0.741936 Ti
0.916667 0.583333 0.548387 Ti
0.916667 0.583333 0.645161 Ti
0.916667 0.583333 0.741936 Ti
0.916667 0.916667 0.548387 Ti
0.916667 0.916667 0.645161 Ti
0.916667 0.916667 0.741936 Ti
0.125000 0.833333 -0.000000 Ti
0.125000 0.333333 -0.000000 Ti
0.625000 0.833333 -0.000000 Ti
0.625000 0.333333 -0.000000 Ti
0.375000 0.666667 -0.000000 Ti
0.375000 0.166667 -0.000000 Ti
0.875000 0.666667 -0.000000 Ti
0.875000 0.166667 -0.000000 Ti
0.875000 0.416667 0.048387 Ti
0.375000 0.416667 0.048387 Ti
0.875000 0.916667 0.048387 Ti
0.375000 0.916667 0.048387 Ti
0.625000 0.083333 0.048387 Ti
0.125000 0.083333 0.048387 Ti
0.625000 0.583333 0.048387 Ti
0.125000 0.583333 0.048387 Ti
0.125000 0.333333 0.096774 Ti
0.625000 0.333333 0.096774 Ti
0.625000 0.833333 0.096774 Ti
0.125000 0.833333 0.096774 Ti
0.875000 0.666667 0.096774 Ti
0.375000 0.166667 0.096774 Ti
0.875000 0.166667 0.096774 Ti
0.375000 0.666667 0.096774 Ti
0.875000 0.416667 0.145161 Ti
0.375000 0.416667 0.145161 Ti
0.875000 0.916667 0.145161 Ti
0.375000 0.916667 0.145161 Ti
0.125000 0.583333 0.145161 Ti
0.625000 0.083333 0.145161 Ti
0.125000 0.083333 0.145161 Ti
0.625000 0.583333 0.145161 Ti
0.625000 0.833333 0.193548 Ti
0.625000 0.333333 0.193548 Ti
0.125000 0.833333 0.193548 Ti
0.125000 0.333333 0.193548 Ti
0.375000 0.166667 0.193548 Ti
0.875000 0.166667 0.193548 Ti
0.375000 0.666667 0.193548 Ti
0.875000 0.666667 0.193548 Ti
0.875000 0.416667 0.241936 Ti
0.375000 0.416667 0.241936 Ti
0.375000 0.916667 0.241936 Ti
0.875000 0.916667 0.241936 Ti
0.625000 0.583333 0.241936 Ti
0.625000 0.083333 0.241936 Ti
0.125000 0.583333 0.241936 Ti
0.125000 0.083333 0.241936 Ti
