Ti66 Al1
1.0
6.309760 0.000000 0.000000
0.000000 9.464640 0.000000
0.000000 0.000000 18.918326
Ti Al
66 1
Selective dynamics
direct
0.125104 0.042082 0.499968 F F F Ti
0.625285 0.041758 0.500051 F F F Ti
0.125075 0.041597 0.658625 F F F Ti
0.625048 0.041564 0.658647 F F F Ti
0.125039 0.041628 0.817067 F F F Ti
0.624950 0.041616 0.817082 F F F Ti
0.125289 0.375829 0.500731 F F F Ti
0.625134 0.375178 0.501971 F F F Ti
0.124960 0.375068 0.658807 F F F Ti
0.625034 0.375027 0.658953 F F F Ti
0.124987 0.375012 0.817115 F F F Ti
0.624920 0.375014 0.817146 F F F Ti
0.125122 0.708120 0.499890 F F F Ti
0.624487 0.708910 0.500140 F F F Ti
0.124996 0.708525 0.658630 F F F Ti
0.624906 0.708620 0.658696 F F F Ti
0.124994 0.708287 0.817091 F F F Ti
0.624918 0.708307 0.817113 F F F Ti
0.374884 0.208169 0.579549 F F F Ti
0.875282 0.208171 0.579615 F F F Ti
0.375000 0.208266 0.737921 F F F Ti
0.875010 0.208259 0.737938 F F F Ti
0.374990 0.208346 0.896293 F F F Ti
0.875022 0.208351 0.896267 F F F Ti
0.375049 0.542216 0.579738 F F F Ti
0.874999 0.542326 0.579778 F F F Ti
0.374994 0.541768 0.737968 F F F Ti
0.874970 0.541787 0.737980 F F F Ti
0.374964 0.541640 0.896389 F F F Ti
0.875006 0.541650 0.896371 F F F Ti
0.374861 0.875191 0.579282 F F F Ti
0.875168 0.875113 0.579298 F F F Ti
0.374971 0.875014 0.737875 F F F Ti
0.874999 0.875009 0.737880 F F F Ti
0.374994 0.874880 0.896311 F F F Ti
0.875039 0.874873 0.896290 F F F Ti
0.125453 0.625868 0.356938 F F F Ti
0.625465 0.626879 0.356593 F F F Ti
0.125260 0.624413 0.118881 F F F Ti
0.624987 0.624605 0.118826 F F F Ti
0.629364 0.125277 0.356803 F F F Ti
0.125305 0.124343 0.118434 F F F Ti
0.625079 0.124580 0.117496 F F F Ti
0.125163 0.374834 0.039529 F F F Ti
0.624922 0.375084 0.039346 F F F Ti
0.125077 0.874541 0.039329 F F F Ti
0.625015 0.874414 0.039188 F F F Ti
0.628815 0.375008 0.277468 F F F Ti
0.125286 0.874417 0.277081 F F F Ti
0.625372 0.873640 0.277443 F F F Ti
0.375441 0.873671 0.158080 F F F Ti
0.874826 0.873367 0.157938 F F F Ti
0.375662 0.374458 0.158520 F F F Ti
0.874481 0.374869 0.158004 F F F Ti
0.386162 0.380700 0.399075 F F F Ti
0.862901 0.382559 0.399877 F F F Ti
0.374927 0.875943 0.396310 F F F Ti
0.875584 0.875292 0.396414 F F F Ti
0.375047 0.624238 0.237899 F F F Ti
0.875523 0.624674 0.237785 F F F Ti
0.374940 0.624788 -0.000075 F F F Ti
0.875104 0.624803 -0.000093 F F F Ti
0.384978 0.120896 0.235646 F F F Ti
0.864094 0.119903 0.234644 F F F Ti
0.374876 0.124820 -0.000326 F F F Ti
0.875278 0.124818 -0.000355 F F F Ti
0.114159 0.252462 0.320246 T T T Al

0.000000 0.000000 0.000000
0.000000 0.000000 0.000000
0.000000 0.000000 0.000000
0.000000 0.000000 0.000000
0.000000 0.000000 0.000000
0.000000 0.000000 0.000000
0.000000 0.000000 0.000000
0.000000 0.000000 0.000000
0.000000 0.000000 0.000000
0.000000 0.000000 0.000000
0.000000 0.000000 0.000000
0.000000 0.000000 0.000000
0.000000 0.000000 0.000000
0.000000 0.000000 0.000000
0.000000 0.000000 0.000000
0.000000 0.000000 0.000000
0.000000 0.000000 0.000000
0.000000 0.000000 0.000000
0.000000 0.000000 0.000000
0.000000 0.000000 0.000000
0.000000 0.000000 0.000000
0.000000 0.000000 0.000000
0.000000 0.000000 0.000000
0.000000 0.000000 0.000000
0.000000 0.000000 0.000000
0.000000 0.000000 0.000000
0.000000 0.000000 0.000000
0.000000 0.000000 0.000000
0.000000 0.000000 0.000000
0.000000 0.000000 0.000000
0.000000 0.000000 0.000000
0.000000 0.000000 0.000000
0.000000 0.000000 0.000000
0.000000 0.000000 0.000000
0.000000 0.000000 0.000000
0.000000 0.000000 0.000000
0.000000 0.000000 0.000000
0.000000 0.000000 0.000000
0.000000 0.000000 0.000000
0.000000 0.000000 0.000000
0.000000 0.000000 0.000000
0.000000 0.000000 0.000000
0.000000 0.000000 0.000000
0.000000 0.000000 0.000000
0.000000 0.000000 0.000000
0.000000 0.000000 0.000000
0.000000 0.000000 0.000000
0.000000 0.000000 0.000000
0.000000 0.000000 0.000000
0.000000 0.000000 0.000000
0.000000 0.000000 0.000000
0.000000 0.000000 0.000000
0.000000 0.000000 0.000000
0.000000 0.000000 0.000000
0.000000 0.000000 0.000000
0.000000 0.000000 0.000000
0.000000 0.000000 0.000000
0.000000 0.000000 0.000000
0.000000 0.000000 0.000000
0.000000 0.000000 0.000000
0.000000 0.000000 0.000000
0.000000 0.000000 0.000000
0.000000 0.000000 0.000000
0.000000 0.000000 0.000000
0.000000 0.000000 0.000000
0.000000 0.000000 0.000000
0.000000 0.000000 0.000000
