total_structure
1.0
   3.0750000000000002    0.0000000000000000    0.0000000000000002
   0.0000000000000026   16.0000000000000000    0.0000000000000010
   0.0000000000000000    0.0000000000000000   55.0109925000000004
Cr Fe W N
30 54 6 36
Selective dynamics
direct
   0.3179800000000000    0.8541700000000000    0.1672739043928357 T T T Cr
   0.3171399999999999    0.9636600000000000    0.2133018505346909 T T T Cr
   0.8244299999999999    0.7978400000000000    0.2129618821183784 T T T Cr
   0.3327500000000000    0.5208500000000000    0.1672739043928357 T T T Cr
   0.3319100000000000    0.6303400000000000    0.2133018505346909 T T T Cr
   0.8252700000000001    0.6883500000000000    0.1669433795436430 T T T Cr
   0.8391900000000000    0.4645200000000000    0.2129618821183785 T T T Cr
   0.3475200000000000    0.1875300000000000    0.1672739043928357 T T T Cr
   0.3466800000000000    0.2970200000000000    0.2133018505346909 T T T Cr
   0.8400400000000000    0.3550300000000000    0.1669339359765233 T T T Cr
   0.8539600000000002    0.1311900000000000    0.2129618821183785 T T T Cr
   0.3190500000000000    0.8541800000000001    0.0301721969477282 F F F Cr
   0.3182000000000000    0.9636700000000000    0.0762001430895834 F F F Cr
   0.8254899999999999    0.7978400000000000    0.0758601746732710 F F F Cr
   0.3320899999999999    0.7398700000000000    0.1212365146838607 F F F Cr
   0.8246500000000000    0.9073300000000000    0.1218881208151262 F F F Cr
   0.3338200000000000    0.5208600000000000    0.0301721969477282 F F F Cr
   0.3329700000000000    0.6303500000000000    0.0762001430895834 F F F Cr
   0.8263400000000001    0.6883500000000000    0.0298416720985356 F F F Cr
   0.8402600000000000    0.4645200000000000    0.0758601746732710 F F F Cr
   0.3468600000000001    0.4065500000000000    0.1212365146838607 F F F Cr
   0.8394100000000000    0.5740100000000000    0.1218881208151262 F F F Cr
   0.3485900000000000    0.1875400000000000    0.0301721969477282 F F F Cr
   0.3477400000000000    0.2970300000000000    0.0762001430895834 F F F Cr
   0.8411000000000000    0.3550300000000000    0.0298322285314158 F F F Cr
   0.8550300000000000    0.1312000000000000    0.0758601746732710 F F F Cr
   0.3616200000000000    0.0732300000000000    0.1212365146838607 F F F Cr
   0.8541800000000001    0.2406900000000000    0.1218881208151262 F F F Cr
   0.8400400000000000    0.0233600000000000    0.1669339359765233 T T T Cr
   0.8411000000000000    0.0233700000000000    0.0298322285314158 F F F Cr
   0.3530400000000000    0.0286600000000000    0.3871313810598855 T T T Fe
   0.3478800000000001    0.1409000000000000    0.4317050178652930 T T T Fe
   0.3467900000000000    0.0900100000000000    0.5068946992730590 F F F Fe
   0.3427100000000000    0.2531300000000000    0.4762880982378204 T T T Fe
   0.3457200000000000    0.0391300000000000    0.5820749371137051 F F F Fe
   0.3416299999999999    0.2022400000000000    0.5514777796455863 F F F Fe
   0.3375500000000000    0.3653700000000000    0.5208711786103479 F F F Fe
   0.3489500000000000    0.1917800000000000    0.3565247800246469 T T T Fe
   0.3437799999999999    0.3040200000000000    0.4011078603971743 T T T Fe
   0.3396900000000000    0.4671400000000000    0.3705107029290555 T T T Fe
   0.3386200000000000    0.4162500000000000    0.4456814972025819 T T T Fe
   0.3345300000000000    0.5793800000000000    0.4150843397344631 T T T Fe
   0.3304300000000000    0.7425000000000000    0.3844871822663444 T T T Fe
   0.3334500000000000    0.5284799999999999    0.4902740211422290 F F F Fe
   0.3293600000000000    0.6916099999999999    0.4596674201069905 T T T Fe
   0.3252700000000000    0.8547400000000001    0.4290608190717519 T T T Fe
   0.3405600000000000    0.1513600000000000    0.6266580174862324 F F F Fe
   0.3364600000000000    0.3144800000000000    0.5960514164509939 F F F Fe
   0.3323800000000000    0.4776000000000000    0.5654542589828753 F F F Fe
   0.3272200000000001    0.5898400000000000    0.6100373393554025 F F F Fe
   0.3282900000000000    0.6407200000000000    0.5348476579476367 F F F Fe
   0.3242000000000000    0.8038500000000000    0.5042505004795179 F F F Fe
   0.3200999999999999    0.9669700000000000    0.4736438994442793 T T T Fe
   0.3231200000000000    0.7529500000000000    0.5794307383201640 F F F Fe
   0.3190300000000000    0.9160800000000000    0.5488335808520453 F F F Fe
   0.3179600000000000    0.8652000000000000    0.6240138186926912 F F F Fe
   0.8304500000000001    0.1161200000000000    0.4693565199718948 T T T Fe
   0.8293800000000001    0.0652400000000000    0.5445367578125410 F F F Fe
   0.8252899999999999    0.2283500000000000    0.5139396003444221 F F F Fe
   0.8366900000000000    0.0547800000000000    0.3495932017587213 T T T Fe
   0.8315300000000000    0.1670100000000000    0.3941668385641289 T T T Fe
   0.8274300000000000    0.3301300000000000    0.3635696810960101 T T T Fe
   0.8263600000000000    0.2792400000000000    0.4387499189366562 T T T Fe
   0.8222699999999999    0.4423600000000000    0.4081527614685375 T T T Fe
   0.8181899999999999    0.6054900000000000    0.3775461604332989 T T T Fe
   0.8212000000000000    0.3914800000000000    0.4833329993091836 F F F Fe
   0.8171000000000000    0.5546000000000000    0.4527263982739450 T T T Fe
   0.8130200000000001    0.7177200000000000    0.4221292408058263 T T T Fe
   0.8089300000000000    0.8808500000000000    0.3915226397705877 T T T Fe
   0.8283100000000001    0.0143500000000000    0.6197264392203068 F F F Fe
   0.8242200000000000    0.1774700000000000    0.5891292817521880 F F F Fe
   0.8201200000000000    0.3405900000000000    0.5585132371498296 F F F Fe
   0.8149600000000001    0.4528200000000000    0.6031057610894768 F F F Fe
   0.8160300000000000    0.5037100000000000    0.5279160796817109 F F F Fe
   0.8119400000000000    0.6668300000000000    0.4973189222135922 F F F Fe
   0.8078600000000001    0.8299600000000000    0.4667028776112339 T T T Fe
   0.8030800000000000    0.0063900000000000    0.4241596077365811 T T T Fe
   0.8108699999999999    0.6159500000000000    0.5724897164871185 F F F Fe
   0.8067699999999999    0.7790700000000000    0.5418925590189997 F F F Fe
   0.8026899999999999    0.9421900000000000    0.5112954015508809 F F F Fe
   0.8057000000000000    0.7281800000000000    0.6170822404267656 F F F Fe
   0.8016100000000000    0.8913000000000000    0.5864756393915270 F F F Fe
   0.3238700000000000    0.9110900000000000    0.3542205496474183 T T T Fe
   0.8118499999999998    0.7695300000000000    0.3469112286967009 T T T Fe
   0.3310199999999999    0.7398700000000000    0.3139815101499941 T T T W
   0.8235800000000000    0.9073300000000000    0.3146331162812596 T T T W
   0.3457900000000000    0.4065500000000000    0.3139815101499941 T T T W
   0.8383500000000002    0.5740100000000000    0.3146331162812596 T T T W
   0.3605600000000000    0.0732200000000000    0.3139815101499941 T T T W
   0.8531199999999999    0.2406800000000000    0.3146331162812596 T T T W
   0.8174800000000000    0.9097300000000000    0.1904484181047997 T T T N
   0.3249200000000000    0.7422700000000000    0.1897873684064144 T T T N
   0.3240800000000000    0.8517600000000000    0.2358153145482696 T T T N
   0.8315899999999999    0.7954300000000000    0.1444110283958247 T T T N
   0.3243000000000000    0.9612600000000000    0.1447415532450173 T T T N
   0.8322500000000002    0.5764100000000000    0.1904484181047997 T T T N
   0.8313700000000001    0.6859400000000000    0.2354847896990770 T T T N
   0.3396900000000000    0.4089500000000000    0.1897873684064144 T T T N
   0.3388500000000000    0.5184400000000000    0.2358153145482696 T T T N
   0.8463600000000001    0.4621100000000000    0.1444110283958247 T T T N
   0.3390700000000000    0.6279400000000001    0.1447415532450174 T T T N
   0.8470199999999999    0.2430900000000000    0.1904484181047997 T T T N
   0.8461400000000000    0.3526200000000000    0.2354847896990770 T T T N
   0.3544600000000000    0.0756300000000000    0.1897873684064144 T T T N
   0.3536200000000000    0.1851200000000000    0.2358153145482696 T T T N
   0.8611300000000000    0.1287900000000000    0.1444110283958247 T T T N
   0.3538400000000000    0.2946200000000000    0.1447415532450174 T T T N
   0.8185500000000000    0.9097400000000000    0.0533467106596923 F F F N
   0.3259899999999999    0.7422800000000001    0.0526856609613070 F F F N
   0.3251400000000000    0.8517700000000000    0.0987136071031622 F F F N
   0.8326499999999999    0.7954400000000000    0.0073093209507173 F F F N
   0.3253600000000000    0.9612700000000000    0.0076398457999099 F F F N
   0.8333199999999999    0.5764200000000000    0.0533467106596923 F F F N
   0.8324300000000000    0.6859400000000000    0.0983830822539695 F F F N
   0.3407600000000001    0.4089600000000000    0.0526856609613070 F F F N
   0.3399100000000000    0.5184500000000000    0.0987136071031622 F F F N
   0.8474200000000001    0.4621200000000000    0.0073093209507173 F F F N
   0.3401300000000000    0.6279400000000001    0.0076398457999099 F F F N
   0.8480899999999999    0.2431000000000000    0.0533467106596923 F F F N
   0.8472000000000000    0.3526200000000000    0.0983830822539695 F F F N
   0.3555300000000000    0.0756400000000000    0.0526856609613070 F F F N
   0.3546799999999999    0.1851300000000000    0.0987136071031622 F F F N
   0.8621900000000001    0.1288000000000000    0.0073093209507173 F F F N
   0.3549000000000000    0.2946200000000000    0.0076398457999099 F F F N
   0.8461400000000000    0.0209600000000000    0.2354847896990770 T T T N
   0.8472000000000000    0.0209600000000000    0.0983830822539695 F F F N
