total_structure
1.0
   2.9630000000000001    0.0000000000000000    0.0000000000000002
   0.0000000000000025   15.3989999999999991    0.0000000000000009
   0.0000000000000000    0.0000000000000000   51.6920000000000002
Cr Fe N
36 52 36
Selective dynamics
direct
   0.3179800000000000    0.8541699999999999    0.1713321210245299 T T T Cr
   0.3171400000000000    0.9636600000000000    0.2184767468853981 T T T Cr
   0.8244300000000000    0.7978400000000000    0.2181285305269673 T T T Cr
   0.3310200000000000    0.7398700000000000    0.2646057417008434 T T T Cr
   0.8235799999999999    0.9073299999999999    0.2652731563878357 T T T Cr
   0.3327500000000000    0.5208500000000000    0.1713321210245299 T T T Cr
   0.3319100000000000    0.6303400000000000    0.2184767468853981 T T T Cr
   0.8252700000000001    0.6883500000000000    0.1709935773427222 T T T Cr
   0.8391900000000002    0.4645200000000000    0.2181285305269674 T T T Cr
   0.3457900000000000    0.4065500000000000    0.2646057417008434 T T T Cr
   0.8383500000000000    0.5740100000000000    0.2652731563878356 T T T Cr
   0.3475200000000000    0.1875300000000000    0.1713321210245299 T T T Cr
   0.3466800000000000    0.2970200000000000    0.2184767468853981 T T T Cr
   0.8400400000000001    0.3550300000000000    0.1709839046660992 T T T Cr
   0.8539600000000001    0.1311900000000000    0.2181285305269674 T T T Cr
   0.3605600000000000    0.0732200000000000    0.2646057417008434 T T T Cr
   0.8531200000000000    0.2406800000000000    0.2652731563878356 T T T Cr
   0.3190500000000000    0.8541799999999999    0.0309042018107251 F F F Cr
   0.3182000000000000    0.9636700000000000    0.0780488276715933 F F F Cr
   0.8254899999999999    0.7978400000000000    0.0777006113131626 F F F Cr
   0.3320900000000001    0.7398700000000000    0.1241778224870386 F F F Cr
   0.8246500000000000    0.9073299999999999    0.1248452371740308 F F F Cr
   0.3338200000000001    0.5208600000000000    0.0309042018107251 F F F Cr
   0.3329700000000000    0.6303500000000000    0.0780488276715933 F F F Cr
   0.8263400000000001    0.6883500000000000    0.0305656581289174 F F F Cr
   0.8402600000000001    0.4645200000000000    0.0777006113131626 F F F Cr
   0.3468600000000001    0.4065500000000000    0.1241778224870386 F F F Cr
   0.8394100000000000    0.5740100000000000    0.1248452371740308 F F F Cr
   0.3485900000000000    0.1875400000000000    0.0309042018107251 F F F Cr
   0.3477400000000000    0.2970300000000000    0.0780488276715933 F F F Cr
   0.8411000000000000    0.3550300000000000    0.0305559854522944 F F F Cr
   0.8550300000000001    0.1312000000000000    0.0777006113131626 F F F Cr
   0.3616200000000001    0.0732300000000000    0.1241778224870386 F F F Cr
   0.8541799999999999    0.2406900000000000    0.1248452371740308 F F F Cr
   0.8400400000000001    0.0233600000000000    0.1709839046660992 T T T Cr
   0.8411000000000001    0.0233700000000000    0.0305559854522944 F F F Cr
   0.3530400000000001    0.0451600000000000    0.3869747736593671 T T T Fe
   0.3478800000000001    0.1587300000000000    0.4323396270215895 T T T Fe
   0.3467900000000000    0.1101100000000000    0.5094792230906137 F F F Fe
   0.3427100000000000    0.2723000000000000    0.4777141530604349 F F F Fe
   0.3457200000000001    0.0614800000000000    0.5866188191596379 F F F Fe
   0.3416300000000000    0.2236700000000000    0.5548537491294592 F F F Fe
   0.3375500000000000    0.3858699999999999    0.5230790064226573 F F F Fe
   0.3489500000000000    0.2073600000000000    0.3552000309525652 T T T Fe
   0.3437800000000000    0.3209400000000000    0.4005745569914108 T T T Fe
   0.3396899999999999    0.4831299999999999    0.3688094869612319 T T T Fe
   0.3386200000000000    0.4344999999999999    0.4459394103536331 T T T Fe
   0.3345300000000000    0.5967000000000000    0.4141743403234543 T T T Fe
   0.3304300000000001    0.7588900000000000    0.3824092702932755 T T T Fe
   0.3334500000000000    0.5480600000000000    0.4913139363924786 F F F Fe
   0.3293600000000000    0.7102600000000000    0.4595488663622998 T T T Fe
   0.3252700000000000    0.8724700000000000    0.4277741236554980 T T T Fe
   0.3405600000000000    0.1750400000000000    0.6319836725218603 F F F Fe
   0.3364600000000000    0.3372400000000000    0.6002186024916816 F F F Fe
   0.3323800000000000    0.4994300000000000    0.5684535324615028 F F F Fe
   0.3272200000000001    0.6130100000000001    0.6138183858237252 F F F Fe
   0.3282900000000001    0.6616400000000000    0.5366787897547010 F F F Fe
   0.3242000000000000    0.8238400000000000    0.5049137197245221 F F F Fe
   0.3201000000000000    0.9860300000000000    0.4731486496943435 F F F Fe
   0.3231200000000000    0.7752000000000000    0.5820533157935465 F F F Fe
   0.3190300000000000    0.9374000000000000    0.5502882457633677 F F F Fe
   0.3179600000000001    0.8887699999999999    0.6274181691557686 F F F Fe
   0.8304500000000001    0.1350900000000000    0.4709626247775285 F F F Fe
   0.8293799999999999    0.0864600000000000    0.5481022208465527 F F F Fe
   0.8252900000000000    0.2486500000000000    0.5163371508163739 F F F Fe
   0.8366899999999999    0.0701500000000000    0.3484581753462819 T T T Fe
   0.8315300000000000    0.1837200000000000    0.3938230287085042 T T T Fe
   0.8274300000000000    0.3459199999999999    0.3620579586783255 T T T Fe
   0.8263600000000001    0.2972799999999999    0.4391975547473497 T T T Fe
   0.8222700000000002    0.4594800000000000    0.4074324847171710 T T T Fe
   0.8181899999999999    0.6216800000000000    0.3756577420103692 T T T Fe
   0.8212000000000000    0.4108500000000000    0.4845624081095721 F F F Fe
   0.8171000000000002    0.5730499999999999    0.4527973380793933 T T T Fe
   0.8130200000000000    0.7352500000000000    0.4210322680492147 T T T Fe
   0.8089300000000000    0.8974500000000000    0.3892575253424128 T T T Fe
   0.8283100000000000    0.0378300000000000    0.6252418169155768 F F F Fe
   0.8242200000000000    0.2000200000000000    0.5934767468853982 F F F Fe
   0.8201199999999998    0.3622300000000000    0.5617020041785963 F F F Fe
   0.8149600000000000    0.4757900000000000    0.6070765302174418 F F F Fe
   0.8160300000000000    0.5244200000000000    0.5299369341484176 F F F Fe
   0.8119400000000001    0.6866200000000000    0.4981718641182388 F F F Fe
   0.8078600000000001    0.8488200000000000    0.4663971214114370 T T T Fe
   0.8037600000000000    0.0110100000000000    0.4346320513812582 T T T Fe
   0.8108700000000001    0.6379899999999999    0.5753017875106400 F F F Fe
   0.8067700000000001    0.8001900000000000    0.5435367174804612 F F F Fe
   0.8026900000000000    0.9623800000000000    0.5117716474502825 F F F Fe
   0.8056999999999999    0.7515500000000001    0.6206763135494854 F F F Fe
   0.8016100000000000    0.9137599999999999    0.5889112435193066 F F F Fe
   0.8174800000000000    0.9097299999999999    0.1950688694575563 T T T N
   0.3249200000000000    0.7422700000000000    0.1943917820939410 T T T N
   0.3240800000000000    0.8517599999999999    0.2415364079548092 T T T N
   0.8315900000000001    0.7954300000000000    0.1479145709200650 T T T N
   0.3243000000000000    0.9612600000000000    0.1482531146018726 T T T N
   0.8322500000000000    0.5764100000000000    0.1950688694575562 T T T N
   0.8313700000000002    0.6859400000000000    0.2411978642730016 T T T N
   0.3396900000000000    0.4089500000000000    0.1943917820939410 T T T N
   0.3388500000000000    0.5184400000000000    0.2415364079548092 T T T N
   0.8463600000000002    0.4621100000000000    0.1479145709200650 T T T N
   0.3390700000000000    0.6279400000000001    0.1482531146018726 T T T N
   0.8470199999999999    0.2430900000000000    0.1950688694575562 T T T N
   0.8461400000000000    0.3526200000000000    0.2411978642730016 T T T N
   0.3544600000000001    0.0756300000000000    0.1943917820939410 T T T N
   0.3536199999999999    0.1851200000000000    0.2415364079548092 T T T N
   0.8611300000000001    0.1287900000000000    0.1479145709200650 T T T N
   0.3538400000000000    0.2946199999999999    0.1482531146018726 T T T N
   0.8185500000000000    0.9097399999999999    0.0546409502437514 F F F N
   0.3259900000000001    0.7422800000000001    0.0539638628801362 F F F N
   0.3251400000000000    0.8517699999999999    0.1011084887410044 F F F N
   0.8326500000000000    0.7954400000000000    0.0074866517062602 F F F N
   0.3253600000000000    0.9612699999999998    0.0078251953880678 F F F N
   0.8333199999999999    0.5764200000000000    0.0546409502437515 F F F N
   0.8324300000000001    0.6859400000000000    0.1007699450591968 F F F N
   0.3407600000000001    0.4089600000000000    0.0539638628801362 F F F N
   0.3399100000000000    0.5184500000000000    0.1011084887410044 F F F N
   0.8474200000000002    0.4621199999999999    0.0074866517062602 F F F N
   0.3401300000000000    0.6279400000000001    0.0078251953880678 F F F N
   0.8480899999999999    0.2431000000000000    0.0546409502437515 F F F N
   0.8472000000000000    0.3526200000000000    0.1007699450591968 F F F N
   0.3555300000000000    0.0756400000000000    0.0539638628801362 F F F N
   0.3546800000000000    0.1851300000000000    0.1011084887410044 F F F N
   0.8621900000000001    0.1288000000000000    0.0074866517062602 F F F N
   0.3549000000000000    0.2946199999999999    0.0078251953880678 F F F N
   0.8461400000000001    0.0209600000000000    0.2411978642730016 T T T N
   0.8472000000000000    0.0209600000000000    0.1007699450591968 F F F N
