substance_top
1.0
   2.9630000000000001    0.0000000000000000    0.0000000000000002
   0.0000000000000025   15.3989999999999991    0.0000000000000009
   0.0000000000000000    0.0000000000000000   51.6920000000000002
Fe
52
Selective dynamics
direct
   0.3530400000000001    0.0451600000000000    0.3869747736593671 T T T Fe
   0.3478800000000001    0.1587300000000000    0.4323396270215895 T T T Fe
   0.3467900000000000    0.1101100000000000    0.5094792230906137 F F F Fe
   0.3427100000000000    0.2723000000000000    0.4777141530604349 F F F Fe
   0.3457200000000001    0.0614800000000000    0.5866188191596379 F F F Fe
   0.3416300000000000    0.2236700000000000    0.5548537491294592 F F F Fe
   0.3375500000000000    0.3858699999999999    0.5230790064226573 F F F Fe
   0.3489500000000000    0.2073600000000000    0.3552000309525652 T T T Fe
   0.3437800000000000    0.3209400000000000    0.4005745569914108 T T T Fe
   0.3396899999999999    0.4831299999999999    0.3688094869612319 T T T Fe
   0.3386200000000000    0.4344999999999999    0.4459394103536331 T T T Fe
   0.3345300000000000    0.5967000000000000    0.4141743403234543 T T T Fe
   0.3304300000000001    0.7588900000000000    0.3824092702932755 T T T Fe
   0.3334500000000000    0.5480600000000000    0.4913139363924786 F F F Fe
   0.3293600000000000    0.7102600000000000    0.4595488663622998 T T T Fe
   0.3252700000000000    0.8724700000000000    0.4277741236554980 T T T Fe
   0.3405600000000000    0.1750400000000000    0.6319836725218603 F F F Fe
   0.3364600000000000    0.3372400000000000    0.6002186024916816 F F F Fe
   0.3323800000000000    0.4994300000000000    0.5684535324615028 F F F Fe
   0.3272200000000001    0.6130100000000001    0.6138183858237252 F F F Fe
   0.3282900000000001    0.6616400000000000    0.5366787897547010 F F F Fe
   0.3242000000000000    0.8238400000000000    0.5049137197245221 F F F Fe
   0.3201000000000000    0.9860300000000000    0.4731486496943435 F F F Fe
   0.3231200000000000    0.7752000000000000    0.5820533157935465 F F F Fe
   0.3190300000000000    0.9374000000000000    0.5502882457633677 F F F Fe
   0.3179600000000001    0.8887699999999999    0.6274181691557686 F F F Fe
   0.8304500000000001    0.1350900000000000    0.4709626247775285 F F F Fe
   0.8293799999999999    0.0864600000000000    0.5481022208465527 F F F Fe
   0.8252900000000000    0.2486500000000000    0.5163371508163739 F F F Fe
   0.8366899999999999    0.0701500000000000    0.3484581753462819 T T T Fe
   0.8315300000000000    0.1837200000000000    0.3938230287085042 T T T Fe
   0.8274300000000000    0.3459199999999999    0.3620579586783255 T T T Fe
   0.8263600000000001    0.2972799999999999    0.4391975547473497 T T T Fe
   0.8222700000000002    0.4594800000000000    0.4074324847171710 T T T Fe
   0.8181899999999999    0.6216800000000000    0.3756577420103692 T T T Fe
   0.8212000000000000    0.4108500000000000    0.4845624081095721 F F F Fe
   0.8171000000000002    0.5730499999999999    0.4527973380793933 T T T Fe
   0.8130200000000000    0.7352500000000000    0.4210322680492147 T T T Fe
   0.8089300000000000    0.8974500000000000    0.3892575253424128 T T T Fe
   0.8283100000000000    0.0378300000000000    0.6252418169155768 F F F Fe
   0.8242200000000000    0.2000200000000000    0.5934767468853982 F F F Fe
   0.8201199999999998    0.3622300000000000    0.5617020041785963 F F F Fe
   0.8149600000000000    0.4757900000000000    0.6070765302174418 F F F Fe
   0.8160300000000000    0.5244200000000000    0.5299369341484176 F F F Fe
   0.8119400000000001    0.6866200000000000    0.4981718641182388 F F F Fe
   0.8078600000000001    0.8488200000000000    0.4663971214114370 T T T Fe
   0.8037600000000000    0.0110100000000000    0.4346320513812582 T T T Fe
   0.8108700000000001    0.6379899999999999    0.5753017875106400 F F F Fe
   0.8067700000000001    0.8001900000000000    0.5435367174804612 F F F Fe
   0.8026900000000000    0.9623800000000000    0.5117716474502825 F F F Fe
   0.8056999999999999    0.7515500000000001    0.6206763135494854 F F F Fe
   0.8016100000000000    0.9137599999999999    0.5889112435193066 F F F Fe
