substance_top
1.0
   3.5062000000000002    0.0000000000000000    0.0000000000000002
   0.0000000000000019   12.0001999999999995    0.0000000000000007
   0.0000000000000000    0.0000000000000000   31.3249410620000006
Cr Fe N
4 36 4
Selective dynamics
direct
   0.6320800000000000    0.3796100000000000    0.9993893034319797 F F F Cr
   0.6320800000000000    0.1296100000000000    0.9993893034319797 F F F Cr
   0.6320800000000000    0.8796100000000000    0.9993893034319797 F F F Cr
   0.6320800000000000    0.6296100000000000    0.9993893034319797 F F F Cr
   0.1418600000000000    0.7213999999999999    0.7993861774053480 F F F Fe
   0.6418599999999999    0.5572600000000000    0.7874313294374364 F F F Fe
   0.6418599999999999    0.7421100000000000    0.7508728121609515 F F F Fe
   0.1418600000000000    0.5779800000000000    0.7389179641930399 F F F Fe
   0.1418600000000000    0.3931299999999999    0.7754764814695249 F F F Fe
   0.6418600000000000    0.2289900000000000    0.7635308864799166 F F F Fe
   0.6418600000000000    0.4138399999999999    0.7269723692034317 F F F Fe
   0.1418600000000000    0.2497100000000000    0.7150175212355201 F F F Fe
   0.1418600000000000    0.0648600000000000    0.7515760385120051 F F F Fe
   0.6418600000000000    0.9007199999999999    0.7396304435223968 F F F Fe
   0.6418600000000000    0.0855700000000000    0.7030719262459120 F F F Fe
   0.1418600000000000    0.9214400000000000    0.6911170782780003 F F F Fe
   0.1418600000000000    0.7628300000000000    0.7023594469165549 F F F Fe
   0.6418600000000000    0.5986900000000001    0.6904045989486433 F F F Fe
   0.6418599999999999    0.7835399999999999    0.6538460816721584 F F F Fe
   0.1418600000000000    0.6194100000000000    0.6419004866825502 F F F Fe
   0.1418600000000000    0.4345600000000000    0.6784590039590351 F F F Fe
   0.6418600000000000    0.2704200000000000    0.6665041559911236 F F F Fe
   0.6418600000000000    0.4552700000000000    0.6299456387146386 F F F Fe
   0.1418600000000000    0.2911400000000000    0.6180000437250305 F F F Fe
   0.1418600000000000    0.1062900000000000    0.6545585610015153 F F F Fe
   0.6418599999999999    0.9421499999999999    0.6426037130336038 F F F Fe
   0.6418600000000000    0.1270000000000000    0.6060451957571188 T T T Fe
   0.1418600000000000    0.9628699999999999    0.5940996007675107 T T T Fe
   0.1418600000000000    0.8042500000000000    0.6053327164277620 T T T Fe
   0.6418600000000000    0.6401200000000000    0.5933871214381536 T T T Fe
   0.6418600000000000    0.8249700000000000    0.5568286041616687 T T T Fe
   0.1418600000000000    0.6608299999999999    0.5448737561937572 T T T Fe
   0.1418600000000000    0.4759800000000000    0.5814322734702422 T T T Fe
   0.6418599999999999    0.3118500000000000    0.5694866784806338 T T T Fe
   0.6418600000000000    0.4966999999999999    0.5329281612041489 T T T Fe
   0.1418600000000000    0.3325600000000000    0.5209733132362374 T T T Fe
   0.1418600000000000    0.1477100000000000    0.5575318305127224 T T T Fe
   0.6418599999999999    0.9835800000000000    0.5455862355231141 T T T Fe
   0.6418600000000000    0.1684300000000000    0.5090277182466291 T T T Fe
   0.1418600000000000    0.0042900000000000    0.4970728702787176 T T T Fe
   0.1320800000000000    0.0046100000000000    0.9993893034319797 F F F N
   0.1320800000000000    0.2546100000000000    0.9993893034319797 F F F N
   0.1320800000000000    0.5046100000000000    0.9993893034319797 F F F N
   0.1320800000000000    0.7546100000000000    0.9993893034319797 F F F N
