Ti66 Cr1
1.0
6.309760 0.000000 0.000000
0.000000 9.464640 0.000000
0.000000 0.000000 18.918326
Ti Cr
66 1
Selective dynamics
direct
0.124630 0.039477 0.500295 F F F Ti
0.626662 0.040931 0.500214 F F F Ti
0.125494 0.041360 0.658891 F F F Ti
0.625888 0.041387 0.658955 F F F Ti
0.125127 0.041646 0.817285 F F F Ti
0.625147 0.041660 0.817299 F F F Ti
0.641067 0.375517 0.502444 F F F Ti
0.125910 0.374983 0.658552 F F F Ti
0.626376 0.375053 0.659073 F F F Ti
0.125104 0.375000 0.817189 F F F Ti
0.625203 0.375012 0.817275 F F F Ti
0.124835 0.710032 0.500247 F F F Ti
0.626208 0.709151 0.500182 F F F Ti
0.125479 0.708555 0.658816 F F F Ti
0.625713 0.708631 0.658920 F F F Ti
0.125089 0.708332 0.817252 F F F Ti
0.625120 0.708333 0.817285 F F F Ti
0.377844 0.207159 0.580209 F F F Ti
0.877461 0.207444 0.579685 F F F Ti
0.375269 0.208300 0.738063 F F F Ti
0.875476 0.208299 0.738007 F F F Ti
0.375033 0.208358 0.896439 F F F Ti
0.875112 0.208353 0.896430 F F F Ti
0.377682 0.542799 0.580147 F F F Ti
0.877579 0.542584 0.579684 F F F Ti
0.375246 0.541702 0.738057 F F F Ti
0.875474 0.541691 0.738005 F F F Ti
0.375023 0.541633 0.896442 F F F Ti
0.875110 0.541632 0.896433 F F F Ti
0.375760 0.875195 0.579537 F F F Ti
0.875036 0.874914 0.579657 F F F Ti
0.375228 0.874995 0.738069 F F F Ti
0.875220 0.874956 0.738094 F F F Ti
0.375055 0.874967 0.896477 F F F Ti
0.875051 0.874964 0.896476 F F F Ti
0.121407 0.628692 0.355625 F F F Ti
0.624947 0.626225 0.356527 F F F Ti
0.124933 0.625058 0.118782 F F F Ti
0.624712 0.625049 0.118755 F F F Ti
0.121210 0.121349 0.355564 F F F Ti
0.625437 0.123945 0.356500 F F F Ti
0.124942 0.124994 0.118765 F F F Ti
0.624730 0.125005 0.118735 F F F Ti
0.124965 0.375010 0.039543 F F F Ti
0.624864 0.375011 0.039519 F F F Ti
0.124971 0.875021 0.039540 F F F Ti
0.624903 0.875018 0.039523 F F F Ti
0.122721 0.375050 0.276588 F F F Ti
0.623055 0.375062 0.277058 F F F Ti
0.124710 0.875211 0.277014 F F F Ti
0.624407 0.875171 0.277246 F F F Ti
0.375033 0.875051 0.158371 F F F Ti
0.874693 0.875036 0.158303 F F F Ti
0.374784 0.375023 0.158409 F F F Ti
0.874348 0.375021 0.158255 F F F Ti
0.862826 0.375072 0.394537 F F F Ti
0.375257 0.875744 0.396395 F F F Ti
0.874072 0.875201 0.396380 F F F Ti
0.374812 0.625144 0.237675 F F F Ti
0.873868 0.625254 0.237374 F F F Ti
0.374965 0.624988 -0.000033 F F F Ti
0.874958 0.624994 -0.000047 F F F Ti
0.374835 0.124974 0.237659 F F F Ti
0.873854 0.124827 0.237345 F F F Ti
0.374963 0.125004 -0.000039 F F F Ti
0.874960 0.125004 -0.000050 F F F Ti
0.258054 0.372788 0.441842 T T T Cr

0.000000 0.000000 0.000000
0.000000 0.000000 0.000000
0.000000 0.000000 0.000000
0.000000 0.000000 0.000000
0.000000 0.000000 0.000000
0.000000 0.000000 0.000000
0.000000 0.000000 0.000000
0.000000 0.000000 0.000000
0.000000 0.000000 0.000000
0.000000 0.000000 0.000000
0.000000 0.000000 0.000000
0.000000 0.000000 0.000000
0.000000 0.000000 0.000000
0.000000 0.000000 0.000000
0.000000 0.000000 0.000000
0.000000 0.000000 0.000000
0.000000 0.000000 0.000000
0.000000 0.000000 0.000000
0.000000 0.000000 0.000000
0.000000 0.000000 0.000000
0.000000 0.000000 0.000000
0.000000 0.000000 0.000000
0.000000 0.000000 0.000000
0.000000 0.000000 0.000000
0.000000 0.000000 0.000000
0.000000 0.000000 0.000000
0.000000 0.000000 0.000000
0.000000 0.000000 0.000000
0.000000 0.000000 0.000000
0.000000 0.000000 0.000000
0.000000 0.000000 0.000000
0.000000 0.000000 0.000000
0.000000 0.000000 0.000000
0.000000 0.000000 0.000000
0.000000 0.000000 0.000000
0.000000 0.000000 0.000000
0.000000 0.000000 0.000000
0.000000 0.000000 0.000000
0.000000 0.000000 0.000000
0.000000 0.000000 0.000000
0.000000 0.000000 0.000000
0.000000 0.000000 0.000000
0.000000 0.000000 0.000000
0.000000 0.000000 0.000000
0.000000 0.000000 0.000000
0.000000 0.000000 0.000000
0.000000 0.000000 0.000000
0.000000 0.000000 0.000000
0.000000 0.000000 0.000000
0.000000 0.000000 0.000000
0.000000 0.000000 0.000000
0.000000 0.000000 0.000000
0.000000 0.000000 0.000000
0.000000 0.000000 0.000000
0.000000 0.000000 0.000000
0.000000 0.000000 0.000000
0.000000 0.000000 0.000000
0.000000 0.000000 0.000000
0.000000 0.000000 0.000000
0.000000 0.000000 0.000000
0.000000 0.000000 0.000000
0.000000 0.000000 0.000000
0.000000 0.000000 0.000000
0.000000 0.000000 0.000000
0.000000 0.000000 0.000000
0.000000 0.000000 0.000000
0.000000 0.000000 0.000000
