total_Ti
1.0
6.391540 0.000000 0.000000
0.000000 9.587310 0.000000
0.000000 0.000000 22.950000
Ti
84
direct
0.125000 0.083333 0.581699 Ti
0.625000 0.083333 0.581699 Ti
0.125000 0.083333 0.712418 Ti
0.625000 0.083333 0.712418 Ti
0.125000 0.083333 0.843137 Ti
0.625000 0.083333 0.843137 Ti
0.125000 0.416667 0.581699 Ti
0.625000 0.416667 0.581699 Ti
0.125000 0.416667 0.712418 Ti
0.625000 0.416667 0.712418 Ti
0.125000 0.416667 0.843137 Ti
0.625000 0.416667 0.843137 Ti
0.125000 0.750000 0.581699 Ti
0.625000 0.750000 0.581699 Ti
0.125000 0.750000 0.712418 Ti
0.625000 0.750000 0.712418 Ti
0.125000 0.750000 0.843137 Ti
0.625000 0.750000 0.843137 Ti
0.375000 0.250000 0.647059 Ti
0.875000 0.250000 0.647059 Ti
0.375000 0.250000 0.777778 Ti
0.875000 0.250000 0.777778 Ti
0.375000 0.250000 0.908497 Ti
0.875000 0.250000 0.908497 Ti
0.375000 0.583333 0.647059 Ti
0.875000 0.583333 0.647059 Ti
0.375000 0.583333 0.777778 Ti
0.875000 0.583333 0.777778 Ti
0.375000 0.583333 0.908497 Ti
0.875000 0.583333 0.908497 Ti
0.375000 0.916667 0.647059 Ti
0.875000 0.916667 0.647059 Ti
0.375000 0.916667 0.777778 Ti
0.875000 0.916667 0.777778 Ti
0.375000 0.916667 0.908497 Ti
0.875000 0.916667 0.908497 Ti
0.125000 0.166667 0.392157 Ti
0.625000 0.166667 0.392157 Ti
0.125000 0.666667 0.392157 Ti
0.625000 0.666667 0.392157 Ti
0.125000 0.166667 -0.000000 Ti
0.625000 0.166667 -0.000000 Ti
0.125000 0.666667 -0.000000 Ti
0.625000 0.666667 -0.000000 Ti
0.125000 0.833333 0.098039 Ti
0.625000 0.833333 0.098039 Ti
0.125000 0.833333 0.490196 Ti
0.625000 0.833333 0.490196 Ti
0.125000 0.333333 0.098039 Ti
0.625000 0.333333 0.098039 Ti
0.125000 0.333333 0.490196 Ti
0.625000 0.333333 0.490196 Ti
0.375000 0.583333 0.490196 Ti
0.875000 0.583333 0.490196 Ti
0.374999 0.583333 0.098039 Ti
0.874999 0.583333 0.098039 Ti
0.375000 0.083333 0.098039 Ti
0.875000 0.083333 0.098039 Ti
0.375000 0.083333 0.490196 Ti
0.875000 0.083333 0.490196 Ti
0.375000 0.416667 0.392157 Ti
0.875000 0.416667 0.392157 Ti
0.375000 0.916667 0.392157 Ti
0.875000 0.916667 0.392157 Ti
0.375000 0.416667 -0.000000 Ti
0.875000 0.416667 -0.000000 Ti
0.375000 0.916667 -0.000000 Ti
0.875000 0.916667 -0.000000 Ti
0.375000 0.083333 0.294118 Ti
0.875000 0.083333 0.294118 Ti
0.125000 0.166667 0.196078 Ti
0.625000 0.166667 0.196078 Ti
0.125000 0.333333 0.294118 Ti
0.625000 0.333333 0.294118 Ti
0.375000 0.416667 0.196078 Ti
0.875000 0.416667 0.196078 Ti
0.374999 0.583333 0.294118 Ti
0.874999 0.583333 0.294118 Ti
0.125000 0.666667 0.196078 Ti
0.625000 0.666667 0.196078 Ti
0.125000 0.833333 0.294118 Ti
0.625000 0.833333 0.294118 Ti
0.375000 0.916667 0.196078 Ti
0.875000 0.916667 0.196078 Ti
