Ti36
1.0
8.805261 0.000000 0.000000
-4.402630 7.625579 0.000000
0.000000 0.000000 17.888801
Ti
36
direct
0.000000 0.000000 0.485887 Ti
1.000000 0.500000 0.485887 Ti
0.500000 0.000000 0.485887 Ti
0.500000 0.500000 0.485887 Ti
0.166667 0.333333 0.847691 Ti
0.166667 0.833333 0.847691 Ti
0.666667 0.333333 0.847691 Ti
0.666667 0.833333 0.847691 Ti
0.333333 0.166667 0.899377 Ti
0.333333 0.666667 0.899377 Ti
0.833333 0.166667 0.899377 Ti
0.833333 0.666667 0.899377 Ti
0.166667 0.333333 0.537573 Ti
0.166667 0.833333 0.537573 Ti
0.666667 0.333333 0.537573 Ti
0.666667 0.833333 0.537573 Ti
0.333333 0.166667 0.589259 Ti
0.333333 0.666667 0.589259 Ti
0.833333 0.166667 0.589259 Ti
0.833333 0.666667 0.589259 Ti
0.000000 0.000000 0.640946 Ti
1.000000 0.500000 0.640946 Ti
0.500000 0.000000 0.640946 Ti
0.500000 0.500000 0.640946 Ti
0.166667 0.333333 0.692632 Ti
0.166667 0.833333 0.692632 Ti
0.666667 0.333333 0.692632 Ti
0.666667 0.833333 0.692632 Ti
0.333333 0.166667 0.744318 Ti
0.333333 0.666667 0.744318 Ti
0.833333 0.166667 0.744318 Ti
0.833333 0.666667 0.744318 Ti
0.000000 0.000000 0.796005 Ti
1.000000 0.500000 0.796005 Ti
0.500000 0.000000 0.796005 Ti
0.500000 0.500000 0.796005 Ti

0.000000 0.000000 0.000000
0.000000 0.000000 0.000000
0.000000 0.000000 0.000000
0.000000 0.000000 0.000000
0.000000 0.000000 0.000000
0.000000 0.000000 0.000000
0.000000 0.000000 0.000000
0.000000 0.000000 0.000000
0.000000 0.000000 0.000000
0.000000 0.000000 0.000000
0.000000 0.000000 0.000000
0.000000 0.000000 0.000000
0.000000 0.000000 0.000000
0.000000 0.000000 0.000000
0.000000 0.000000 0.000000
0.000000 0.000000 0.000000
0.000000 0.000000 0.000000
0.000000 0.000000 0.000000
0.000000 0.000000 0.000000
0.000000 0.000000 0.000000
0.000000 0.000000 0.000000
0.000000 0.000000 0.000000
0.000000 0.000000 0.000000
0.000000 0.000000 0.000000
0.000000 0.000000 0.000000
0.000000 0.000000 0.000000
0.000000 0.000000 0.000000
0.000000 0.000000 0.000000
0.000000 0.000000 0.000000
0.000000 0.000000 0.000000
0.000000 0.000000 0.000000
0.000000 0.000000 0.000000
0.000000 0.000000 0.000000
0.000000 0.000000 0.000000
0.000000 0.000000 0.000000
0.000000 0.000000 0.000000
