Ti66 Cr1
1.0
6.309760 0.000000 0.000000
0.000000 9.464640 0.000000
0.000000 0.000000 18.918326
Ti Cr
66 1
Selective dynamics
direct
0.190165 0.058034 0.456989 T T T Ti
0.623358 0.027227 0.494428 T T T Ti
0.123241 0.054970 0.651623 T T T Ti
0.621745 0.063890 0.644000 T T T Ti
0.124045 0.042613 0.817976 F F F Ti
0.623866 0.042509 0.817798 F F F Ti
0.618118 0.366011 0.486105 T T T Ti
0.122080 0.364222 0.651484 T T T Ti
0.621605 0.365502 0.639882 T T T Ti
0.123950 0.376253 0.818065 F F F Ti
0.623831 0.376469 0.817902 F F F Ti
0.123633 0.697915 0.484335 T T T Ti
0.618209 0.702609 0.492539 T T T Ti
0.122663 0.701008 0.647728 T T T Ti
0.621379 0.712321 0.647784 T T T Ti
0.123956 0.709375 0.817622 F F F Ti
0.623707 0.709485 0.817472 F F F Ti
0.335128 0.213956 0.547640 T T T Ti
0.909955 0.209719 0.548187 T T T Ti
0.374296 0.209622 0.739163 F F F Ti
0.872426 0.209440 0.739176 F F F Ti
0.374682 0.209734 0.896772 F F F Ti
0.874229 0.209697 0.896799 F F F Ti
0.347903 0.524698 0.557687 T T T Ti
0.893665 0.526285 0.558736 T T T Ti
0.373433 0.542401 0.738661 F F F Ti
0.873349 0.542527 0.738756 F F F Ti
0.374464 0.543141 0.896786 F F F Ti
0.874305 0.543180 0.896822 F F F Ti
0.357386 0.877037 0.569855 T T T Ti
0.889453 0.877469 0.569224 T T T Ti
0.373391 0.876008 0.738478 F F F Ti
0.873656 0.875985 0.738365 F F F Ti
0.374576 0.876457 0.896691 F F F Ti
0.874360 0.876459 0.896683 F F F Ti
0.135112 0.615121 0.364047 T T T Ti
0.621825 0.623957 0.367051 T T T Ti
0.127182 0.628985 0.118623 F F F Ti
0.627210 0.628853 0.118614 F F F Ti
0.644487 0.138737 0.370270 T T T Ti
0.128378 0.128912 0.118926 F F F Ti
0.628206 0.128963 0.118933 F F F Ti
0.126548 0.378127 0.039667 F F F Ti
0.626555 0.378015 0.039597 F F F Ti
0.126401 0.878135 0.039660 F F F Ti
0.626261 0.878169 0.039658 F F F Ti
0.131496 0.385869 0.276157 T T T Ti
0.633617 0.382490 0.284968 T T T Ti
0.130111 0.873598 0.283998 T T T Ti
0.632341 0.888368 0.281555 T T T Ti
0.378170 0.879334 0.158398 F F F Ti
0.877217 0.878798 0.158156 F F F Ti
0.379583 0.378956 0.158270 F F F Ti
0.877178 0.379885 0.158036 F F F Ti
0.336636 0.351114 0.399866 T T T Ti
0.909408 0.389939 0.406510 T T T Ti
0.381206 0.879949 0.397462 T T T Ti
0.883487 0.881917 0.400380 T T T Ti
0.388024 0.625830 0.244800 T T T Ti
0.869543 0.627410 0.245259 T T T Ti
0.376004 0.627745 0.000064 F F F Ti
0.875836 0.627861 0.000075 F F F Ti
0.387715 0.131647 0.250925 T T T Ti
0.875419 0.131304 0.249087 T T T Ti
0.376364 0.127547 0.000318 F F F Ti
0.876264 0.127509 0.000336 F F F Ti
0.011002 0.209070 0.386506 T T T Cr

0.000000 0.000000 0.000000
0.000000 0.000000 0.000000
0.000000 0.000000 0.000000
0.000000 0.000000 0.000000
0.000000 0.000000 0.000000
0.000000 0.000000 0.000000
0.000000 0.000000 0.000000
0.000000 0.000000 0.000000
0.000000 0.000000 0.000000
0.000000 0.000000 0.000000
0.000000 0.000000 0.000000
0.000000 0.000000 0.000000
0.000000 0.000000 0.000000
0.000000 0.000000 0.000000
0.000000 0.000000 0.000000
0.000000 0.000000 0.000000
0.000000 0.000000 0.000000
0.000000 0.000000 0.000000
0.000000 0.000000 0.000000
0.000000 0.000000 0.000000
0.000000 0.000000 0.000000
0.000000 0.000000 0.000000
0.000000 0.000000 0.000000
0.000000 0.000000 0.000000
0.000000 0.000000 0.000000
0.000000 0.000000 0.000000
0.000000 0.000000 0.000000
0.000000 0.000000 0.000000
0.000000 0.000000 0.000000
0.000000 0.000000 0.000000
0.000000 0.000000 0.000000
0.000000 0.000000 0.000000
0.000000 0.000000 0.000000
0.000000 0.000000 0.000000
0.000000 0.000000 0.000000
0.000000 0.000000 0.000000
0.000000 0.000000 0.000000
0.000000 0.000000 0.000000
0.000000 0.000000 0.000000
0.000000 0.000000 0.000000
0.000000 0.000000 0.000000
0.000000 0.000000 0.000000
0.000000 0.000000 0.000000
0.000000 0.000000 0.000000
0.000000 0.000000 0.000000
0.000000 0.000000 0.000000
0.000000 0.000000 0.000000
0.000000 0.000000 0.000000
0.000000 0.000000 0.000000
0.000000 0.000000 0.000000
0.000000 0.000000 0.000000
0.000000 0.000000 0.000000
0.000000 0.000000 0.000000
0.000000 0.000000 0.000000
0.000000 0.000000 0.000000
0.000000 0.000000 0.000000
0.000000 0.000000 0.000000
0.000000 0.000000 0.000000
0.000000 0.000000 0.000000
0.000000 0.000000 0.000000
0.000000 0.000000 0.000000
0.000000 0.000000 0.000000
0.000000 0.000000 0.000000
0.000000 0.000000 0.000000
0.000000 0.000000 0.000000
0.000000 0.000000 0.000000
0.000000 0.000000 0.000000
