total_Ti
1.0
9.588310 0.000000 0.000000
0.000000 9.588310 0.000000
0.000000 0.000000 30.000006
Ti
102
direct
0.083333 0.083333 0.500000 Ti
0.083333 0.083333 0.600000 Ti
0.083333 0.083333 0.700000 Ti
0.083333 0.416667 0.500000 Ti
0.083333 0.416667 0.600000 Ti
0.083333 0.416667 0.700000 Ti
0.083333 0.750000 0.500000 Ti
0.083333 0.750000 0.600000 Ti
0.083333 0.750000 0.700000 Ti
0.416667 0.083333 0.500000 Ti
0.416667 0.083333 0.600000 Ti
0.416667 0.083333 0.700000 Ti
0.416667 0.416667 0.500000 Ti
0.416667 0.416667 0.600000 Ti
0.416667 0.416667 0.700000 Ti
0.416667 0.750000 0.500000 Ti
0.416667 0.750000 0.600000 Ti
0.416667 0.750000 0.700000 Ti
0.750000 0.083333 0.500000 Ti
0.750000 0.083333 0.600000 Ti
0.750000 0.083333 0.700000 Ti
0.750000 0.416667 0.500000 Ti
0.750000 0.416667 0.600000 Ti
0.750000 0.416667 0.700000 Ti
0.750000 0.750000 0.500000 Ti
0.750000 0.750000 0.600000 Ti
0.750000 0.750000 0.700000 Ti
0.250000 0.250000 0.550000 Ti
0.250000 0.250000 0.650000 Ti
0.250000 0.250000 0.750000 Ti
0.250000 0.583333 0.550000 Ti
0.250000 0.583333 0.650000 Ti
0.250000 0.583333 0.750000 Ti
0.250000 0.916667 0.550000 Ti
0.250000 0.916667 0.650000 Ti
0.250000 0.916667 0.750000 Ti
0.583333 0.250000 0.550000 Ti
0.583333 0.250000 0.650000 Ti
0.583333 0.250000 0.750000 Ti
0.583333 0.583333 0.550000 Ti
0.583333 0.583333 0.650000 Ti
0.583333 0.583333 0.750000 Ti
0.583333 0.916667 0.550000 Ti
0.583333 0.916667 0.650000 Ti
0.583333 0.916667 0.750000 Ti
0.916667 0.250000 0.550000 Ti
0.916667 0.250000 0.650000 Ti
0.916667 0.250000 0.750000 Ti
0.916667 0.583333 0.550000 Ti
0.916667 0.583333 0.650000 Ti
0.916667 0.583333 0.750000 Ti
0.916667 0.916667 0.550000 Ti
0.916667 0.916667 0.650000 Ti
0.916667 0.916667 0.750000 Ti
0.125000 0.833333 -0.000000 Ti
0.125000 0.333333 -0.000000 Ti
0.625000 0.833333 -0.000000 Ti
0.625000 0.333333 -0.000000 Ti
0.375000 0.666667 -0.000000 Ti
0.375000 0.166667 -0.000000 Ti
0.875000 0.666667 -0.000000 Ti
0.875000 0.166667 -0.000000 Ti
0.875000 0.416667 0.050000 Ti
0.375000 0.416667 0.050000 Ti
0.875000 0.916667 0.050000 Ti
0.375000 0.916667 0.050000 Ti
0.625000 0.083333 0.050000 Ti
0.125000 0.083333 0.050000 Ti
0.625000 0.583333 0.050000 Ti
0.125000 0.583333 0.050000 Ti
0.125000 0.333333 0.100000 Ti
0.625000 0.333333 0.100000 Ti
0.625000 0.833333 0.100000 Ti
0.125000 0.833333 0.100000 Ti
0.875000 0.666667 0.100000 Ti
0.375000 0.166667 0.100000 Ti
0.875000 0.166667 0.100000 Ti
0.375000 0.666667 0.100000 Ti
0.875000 0.416667 0.150000 Ti
0.375000 0.416667 0.150000 Ti
0.875000 0.916667 0.150000 Ti
0.375000 0.916667 0.150000 Ti
0.125000 0.583333 0.150000 Ti
0.625000 0.083333 0.150000 Ti
0.125000 0.083333 0.150000 Ti
0.625000 0.583333 0.150000 Ti
0.625000 0.833333 0.200000 Ti
0.625000 0.333333 0.200000 Ti
0.125000 0.833333 0.200000 Ti
0.125000 0.333333 0.200000 Ti
0.375000 0.166667 0.200000 Ti
0.875000 0.166667 0.200000 Ti
0.375000 0.666667 0.200000 Ti
0.875000 0.666667 0.200000 Ti
0.875000 0.416667 0.250000 Ti
0.375000 0.416667 0.250000 Ti
0.375000 0.916667 0.250000 Ti
0.875000 0.916667 0.250000 Ti
0.625000 0.583333 0.250000 Ti
0.625000 0.083333 0.250000 Ti
0.125000 0.583333 0.250000 Ti
0.125000 0.083333 0.250000 Ti
