substance_bottem
1.0
   3.5061499999999999    0.0000000000000000    0.0000000000000002
   0.0000000000000019   12.0001999999999995    0.0000000000000007
   0.0000000000000000    0.0000000000000000   26.6216049620000028
Cr N
16 16
Selective dynamics
direct
   0.0000000000000000    0.0000000000000000    0.2361360568220124 F F F Cr
  -0.0000000000000000    0.2500000000000000    0.2361360568220124 F F F Cr
   0.5000000000000000    0.1250000000000000    0.1574206709543615 F F F Cr
   0.5000000000000000    0.3750000000000000    0.1574206709543615 F F F Cr
   0.0000000000000000    0.0000000000000000    0.0787153858676509 F F F Cr
  -0.0000000000000000    0.2500000000000000    0.0787153858676509 F F F Cr
   0.5000000000000000    0.1250000000000000   -0.0000000000000000 F F F Cr
   0.5000000000000000    0.3750000000000000   -0.0000000000000000 F F F Cr
  -0.0000000000000000    0.5000000000000000    0.2361360568220124 F F F Cr
  -0.0000000000000000    0.7500000000000000    0.2361360568220124 F F F Cr
   0.5000000000000000    0.6250000000000000    0.1574206709543615 F F F Cr
   0.4999999999999999    0.8749999999999999    0.1574206709543615 F F F Cr
  -0.0000000000000000    0.5000000000000000    0.0787153858676509 F F F Cr
  -0.0000000000000000    0.7500000000000000    0.0787153858676509 F F F Cr
   0.5000000000000000    0.6250000000000000   -0.0000000000000000 F F F Cr
   0.4999999999999999    0.8749999999999999   -0.0000000000000000 F F F Cr
   0.5000000000000000    0.1250000000000000    0.2361360568220124 F F F N
   0.5000000000000000    0.3750000000000000    0.2361360568220124 F F F N
   0.0000000000000000    0.0000000000000000    0.1574206709543615 F F F N
  -0.0000000000000000    0.2500000000000000    0.1574206709543615 F F F N
   0.5000000000000000    0.1250000000000000    0.0787153858676509 F F F N
   0.5000000000000000    0.3750000000000000    0.0787153858676509 F F F N
   0.0000000000000000    0.0000000000000000    0.0000000000000000 F F F N
  -0.0000000000000000    0.2500000000000000   -0.0000000000000000 F F F N
   0.5000000000000000    0.6250000000000000    0.2361360568220124 F F F N
   0.4999999999999999    0.8749999999999999    0.2361360568220124 F F F N
  -0.0000000000000000    0.5000000000000000    0.1574206709543615 F F F N
  -0.0000000000000000    0.7500000000000000    0.1574206709543615 F F F N
   0.5000000000000000    0.6250000000000000    0.0787153858676509 F F F N
   0.4999999999999999    0.8749999999999999    0.0787153858676509 F F F N
  -0.0000000000000000    0.5000000000000000   -0.0000000000000000 F F F N
  -0.0000000000000000    0.7500000000000000   -0.0000000000000000 F F F N
