Ti96 Sn1
1.0
9.513020 0.000000 0.000000
0.000000 9.350860 0.000000
0.000000 0.000000 18.547230
Ti Sn
96 1
Selective dynamics
direct
0.145728 0.383249 0.400861 T T T Ti
0.669165 0.352215 0.379976 T T T Ti
0.145085 0.866203 0.404360 T T T Ti
0.659307 0.854036 0.418907 T T T Ti
0.162711 0.370352 0.238352 T T T Ti
0.651731 0.371269 0.233484 T T T Ti
0.162645 0.874797 0.233986 T T T Ti
0.662344 0.872650 0.232713 T T T Ti
0.166666 0.375000 0.077689 F F F Ti
0.666666 0.375000 0.077689 F F F Ti
0.166666 0.875000 0.077689 F F F Ti
0.666666 0.875000 0.077689 F F F Ti
0.405145 0.406382 0.324098 T T T Ti
0.914926 0.383553 0.315845 T T T Ti
0.397529 0.872382 0.317834 T T T Ti
0.900024 0.872997 0.317004 T T T Ti
0.416667 0.375000 0.155379 F F F Ti
0.916667 0.375000 0.155379 F F F Ti
0.416667 0.875000 0.155379 F F F Ti
0.916667 0.875000 0.155379 F F F Ti
0.416667 0.375000 0.000000 F F F Ti
0.916667 0.375000 0.000000 F F F Ti
0.416667 0.875000 0.000000 F F F Ti
0.916667 0.875000 0.000000 F F F Ti
0.085074 0.116447 0.315844 T T T Ti
0.594855 0.093618 0.324097 T T T Ti
0.099976 0.627003 0.317003 T T T Ti
0.602471 0.627618 0.317833 T T T Ti
0.083333 0.125000 0.155379 F F F Ti
0.583333 0.125000 0.155379 F F F Ti
0.083333 0.625000 0.155379 F F F Ti
0.583333 0.625000 0.155379 F F F Ti
0.083333 0.125000 0.000000 F F F Ti
0.583333 0.125000 0.000000 F F F Ti
0.083333 0.625000 0.000000 F F F Ti
0.583333 0.625000 0.000000 F F F Ti
0.330834 0.147785 0.379976 T T T Ti
0.854271 0.116751 0.400861 T T T Ti
0.340692 0.645964 0.418907 T T T Ti
0.854914 0.633797 0.404360 T T T Ti
0.348268 0.128731 0.233484 T T T Ti
0.837288 0.129648 0.238352 T T T Ti
0.337655 0.627350 0.232713 T T T Ti
0.837354 0.625203 0.233986 T T T Ti
0.333333 0.125000 0.077689 F F F Ti
0.833333 0.125000 0.077689 F F F Ti
0.333333 0.625000 0.077689 F F F Ti
0.833333 0.625000 0.077689 F F F Ti
0.375000 0.375000 0.823738 F F F Ti
0.875000 0.375000 0.823738 F F F Ti
0.375000 0.875000 0.823738 F F F Ti
0.875000 0.875000 0.823738 F F F Ti
0.125000 0.125000 0.823738 F F F Ti
0.625000 0.125000 0.823738 F F F Ti
0.125000 0.625000 0.823738 F F F Ti
0.625000 0.625000 0.823738 F F F Ti
0.125000 0.375000 0.910084 F F F Ti
0.625000 0.375000 0.910084 F F F Ti
0.125000 0.875000 0.910084 F F F Ti
0.625000 0.875000 0.910084 F F F Ti
0.375000 0.125000 0.910084 F F F Ti
0.875000 0.125000 0.910084 F F F Ti
0.375000 0.625000 0.910084 F F F Ti
0.875000 0.625000 0.910084 F F F Ti
0.377856 0.366933 0.673519 T T T Ti
0.869356 0.406937 0.647560 T T T Ti
0.377309 0.885469 0.666662 T T T Ti
0.907937 0.876848 0.648860 T T T Ti
0.130644 0.093063 0.647560 T T T Ti
0.622144 0.133067 0.673519 T T T Ti
0.092063 0.623152 0.648860 T T T Ti
0.622691 0.614531 0.666662 T T T Ti
0.121274 0.347030 0.575280 T T T Ti
0.622570 0.357774 0.580108 T T T Ti
0.184320 0.844590 0.557990 T T T Ti
0.684114 0.950636 0.575965 T T T Ti
0.377430 0.142226 0.580108 T T T Ti
0.878726 0.152970 0.575280 T T T Ti
0.315886 0.549364 0.575965 T T T Ti
0.815680 0.655410 0.557990 T T T Ti
0.385404 0.350846 0.476713 T T T Ti
0.871591 0.386063 0.488506 T T T Ti
0.395185 0.953145 0.466490 T T T Ti
0.920536 0.892310 0.493362 T T T Ti
0.128409 0.113937 0.488506 T T T Ti
0.614596 0.149154 0.476713 T T T Ti
0.079464 0.607690 0.493362 T T T Ti
0.604815 0.546855 0.466490 T T T Ti
0.125000 0.875000 0.737395 F F F Ti
0.625000 0.875000 0.737395 F F F Ti
0.375000 0.625000 0.737395 F F F Ti
0.875000 0.625000 0.737395 F F F Ti
0.125000 0.375000 0.737395 F F F Ti
0.625000 0.375000 0.737395 F F F Ti
0.375000 0.125000 0.737395 F F F Ti
0.875000 0.125000 0.737395 F F F Ti
0.500000 0.750000 0.549535 T T T Sn

0.000000 0.000000 0.000000
0.000000 0.000000 0.000000
0.000000 0.000000 0.000000
0.000000 0.000000 0.000000
0.000000 0.000000 0.000000
0.000000 0.000000 0.000000
0.000000 0.000000 0.000000
0.000000 0.000000 0.000000
0.000000 0.000000 0.000000
0.000000 0.000000 0.000000
0.000000 0.000000 0.000000
0.000000 0.000000 0.000000
0.000000 0.000000 0.000000
0.000000 0.000000 0.000000
0.000000 0.000000 0.000000
0.000000 0.000000 0.000000
0.000000 0.000000 0.000000
0.000000 0.000000 0.000000
0.000000 0.000000 0.000000
0.000000 0.000000 0.000000
0.000000 0.000000 0.000000
0.000000 0.000000 0.000000
0.000000 0.000000 0.000000
0.000000 0.000000 0.000000
0.000000 0.000000 0.000000
0.000000 0.000000 0.000000
0.000000 0.000000 0.000000
0.000000 0.000000 0.000000
0.000000 0.000000 0.000000
0.000000 0.000000 0.000000
0.000000 0.000000 0.000000
0.000000 0.000000 0.000000
0.000000 0.000000 0.000000
0.000000 0.000000 0.000000
0.000000 0.000000 0.000000
0.000000 0.000000 0.000000
0.000000 0.000000 0.000000
0.000000 0.000000 0.000000
0.000000 0.000000 0.000000
0.000000 0.000000 0.000000
0.000000 0.000000 0.000000
0.000000 0.000000 0.000000
0.000000 0.000000 0.000000
0.000000 0.000000 0.000000
0.000000 0.000000 0.000000
0.000000 0.000000 0.000000
0.000000 0.000000 0.000000
0.000000 0.000000 0.000000
0.000000 0.000000 0.000000
0.000000 0.000000 0.000000
0.000000 0.000000 0.000000
0.000000 0.000000 0.000000
0.000000 0.000000 0.000000
0.000000 0.000000 0.000000
0.000000 0.000000 0.000000
0.000000 0.000000 0.000000
0.000000 0.000000 0.000000
0.000000 0.000000 0.000000
0.000000 0.000000 0.000000
0.000000 0.000000 0.000000
0.000000 0.000000 0.000000
0.000000 0.000000 0.000000
0.000000 0.000000 0.000000
0.000000 0.000000 0.000000
0.000000 0.000000 0.000000
0.000000 0.000000 0.000000
0.000000 0.000000 0.000000
0.000000 0.000000 0.000000
0.000000 0.000000 0.000000
0.000000 0.000000 0.000000
0.000000 0.000000 0.000000
0.000000 0.000000 0.000000
0.000000 0.000000 0.000000
0.000000 0.000000 0.000000
0.000000 0.000000 0.000000
0.000000 0.000000 0.000000
0.000000 0.000000 0.000000
0.000000 0.000000 0.000000
0.000000 0.000000 0.000000
0.000000 0.000000 0.000000
0.000000 0.000000 0.000000
0.000000 0.000000 0.000000
0.000000 0.000000 0.000000
0.000000 0.000000 0.000000
0.000000 0.000000 0.000000
0.000000 0.000000 0.000000
0.000000 0.000000 0.000000
0.000000 0.000000 0.000000
0.000000 0.000000 0.000000
0.000000 0.000000 0.000000
0.000000 0.000000 0.000000
0.000000 0.000000 0.000000
0.000000 0.000000 0.000000
0.000000 0.000000 0.000000
0.000000 0.000000 0.000000
0.000000 0.000000 0.000000
0.000000 0.000000 0.000000
