total_Ti
1.0
4.756510 0.000000 0.000000
0.000000 4.675430 0.000000
0.000000 0.000000 23.211761
Ti
24
direct
0.333333 0.750000 0.310385 Ti
0.333333 0.750000 0.186232 Ti
0.333333 0.750000 0.062077 Ti
0.833334 0.750000 0.248309 Ti
0.833334 0.750000 0.124154 Ti
0.833334 0.750000 -0.000000 Ti
0.166666 0.250000 0.248308 Ti
0.166666 0.250000 0.124154 Ti
0.166666 0.250000 -0.000000 Ti
0.666667 0.250000 0.310385 Ti
0.666667 0.250000 0.186232 Ti
0.666667 0.250000 0.062077 Ti
0.750000 0.750000 0.827676 Ti
0.250000 0.250000 0.827676 Ti
0.250000 0.750000 0.758684 Ti
0.750000 0.250000 0.758684 Ti
0.750000 0.750000 0.689690 Ti
0.250000 0.250000 0.689690 Ti
0.250000 0.750000 0.620698 Ti
0.750000 0.250000 0.620698 Ti
0.750000 0.750000 0.551704 Ti
0.250000 0.250000 0.551704 Ti
0.250000 0.750000 0.482712 Ti
0.750000 0.250000 0.482712 Ti
