Zr1 Ti96
1.0
9.513020 0.000000 0.000000
0.000000 9.350860 0.000000
0.000000 0.000000 18.547230
Ti Zr
96 1
Selective dynamics
direct
0.145774 0.373628 0.404708 T T T Ti
0.641315 0.335441 0.407827 T T T Ti
0.135383 0.848542 0.407219 T T T Ti
0.684554 0.895890 0.405510 T T T Ti
0.151018 0.367647 0.239608 T T T Ti
0.655516 0.364631 0.236380 T T T Ti
0.160038 0.869553 0.232151 T T T Ti
0.673460 0.886360 0.232486 T T T Ti
0.166650 0.375105 0.077441 F F F Ti
0.666753 0.374915 0.077359 F F F Ti
0.166675 0.875017 0.077441 F F F Ti
0.666594 0.874943 0.077519 F F F Ti
0.409324 0.387986 0.319234 T T T Ti
0.894643 0.377782 0.327018 T T T Ti
0.355903 0.925301 0.328583 T T T Ti
0.914702 0.879360 0.314455 T T T Ti
0.416751 0.375222 0.154899 F F F Ti
0.916834 0.374709 0.154926 F F F Ti
0.416598 0.874933 0.155262 F F F Ti
0.916629 0.875160 0.154880 F F F Ti
0.416660 0.375042 -0.000126 F F F Ti
0.916653 0.374967 -0.000156 F F F Ti
0.416655 0.874969 -0.000031 F F F Ti
0.916641 0.874989 -0.000150 F F F Ti
0.105357 0.122219 0.327017 T T T Ti
0.590676 0.112016 0.319233 T T T Ti
0.085298 0.620642 0.314454 T T T Ti
0.644097 0.574701 0.328582 T T T Ti
0.083164 0.125321 0.154923 F F F Ti
0.583249 0.124809 0.154901 F F F Ti
0.083371 0.624871 0.154881 F F F Ti
0.583404 0.625083 0.155261 F F F Ti
0.083348 0.125039 -0.000157 F F F Ti
0.583340 0.124969 -0.000125 F F F Ti
0.083359 0.625021 -0.000149 F F F Ti
0.583347 0.625032 -0.000033 F F F Ti
0.358684 0.164559 0.407827 T T T Ti
0.854225 0.126372 0.404708 T T T Ti
0.315445 0.604111 0.405510 T T T Ti
0.864616 0.651459 0.407219 T T T Ti
0.344483 0.135375 0.236380 T T T Ti
0.848981 0.132359 0.239608 T T T Ti
0.326539 0.613645 0.232486 T T T Ti
0.839961 0.630455 0.232151 T T T Ti
0.333247 0.125109 0.077359 F F F Ti
0.833348 0.124916 0.077443 F F F Ti
0.333405 0.625077 0.077518 F F F Ti
0.833325 0.625006 0.077440 F F F Ti
0.375019 0.375076 0.823852 F F F Ti
0.874957 0.374983 0.823857 F F F Ti
0.375021 0.874944 0.823771 F F F Ti
0.875004 0.874937 0.823756 F F F Ti
0.125044 0.124997 0.823857 F F F Ti
0.624983 0.124907 0.823853 F F F Ti
0.124998 0.625050 0.823757 F F F Ti
0.624983 0.625039 0.823770 F F F Ti
0.125034 0.375107 0.910129 F F F Ti
0.624997 0.375086 0.910168 F F F Ti
0.125061 0.874927 0.910150 F F F Ti
0.624968 0.874899 0.910212 F F F Ti
0.375008 0.124896 0.910170 F F F Ti
0.874972 0.124877 0.910130 F F F Ti
0.375033 0.625077 0.910212 F F F Ti
0.874944 0.625053 0.910150 F F F Ti
0.393541 0.387745 0.655553 T T T Ti
0.896929 0.376450 0.652473 T T T Ti
0.396774 0.888497 0.649343 T T T Ti
0.886500 0.885329 0.663682 T T T Ti
0.103070 0.123546 0.652473 T T T Ti
0.606458 0.112250 0.655553 T T T Ti
0.113498 0.614666 0.663682 T T T Ti
0.603226 0.611499 0.649343 T T T Ti
0.150339 0.372907 0.571908 T T T Ti
0.649774 0.350599 0.576608 T T T Ti
0.135174 0.863715 0.583681 T T T Ti
0.652805 0.860921 0.574395 T T T Ti
0.350226 0.149400 0.576608 T T T Ti
0.849661 0.127092 0.571907 T T T Ti
0.347194 0.639078 0.574395 T T T Ti
0.864826 0.636283 0.583681 T T T Ti
0.406697 0.395361 0.496441 T T T Ti
0.897453 0.371715 0.487327 T T T Ti
0.356703 0.917061 0.493308 T T T Ti
0.911292 0.886097 0.494676 T T T Ti
0.102547 0.128285 0.487327 T T T Ti
0.593303 0.104639 0.496441 T T T Ti
0.088707 0.613902 0.494676 T T T Ti
0.643297 0.582939 0.493308 T T T Ti
0.125003 0.875025 0.737598 F F F Ti
0.624992 0.874957 0.737567 F F F Ti
0.375003 0.625025 0.737566 F F F Ti
0.874993 0.624956 0.737598 F F F Ti
0.124895 0.374970 0.737644 F F F Ti
0.624974 0.374930 0.737704 F F F Ti
0.375017 0.125043 0.737704 F F F Ti
0.875099 0.125008 0.737643 F F F Ti
0.500000 0.750000 0.377721 T T T Zr

0.000000 0.000000 0.000000
0.000000 0.000000 0.000000
0.000000 0.000000 0.000000
0.000000 0.000000 0.000000
0.000000 0.000000 0.000000
0.000000 0.000000 0.000000
0.000000 0.000000 0.000000
0.000000 0.000000 0.000000
0.000000 0.000000 0.000000
0.000000 0.000000 0.000000
0.000000 0.000000 0.000000
0.000000 0.000000 0.000000
0.000000 0.000000 0.000000
0.000000 0.000000 0.000000
0.000000 0.000000 0.000000
0.000000 0.000000 0.000000
0.000000 0.000000 0.000000
0.000000 0.000000 0.000000
0.000000 0.000000 0.000000
0.000000 0.000000 0.000000
0.000000 0.000000 0.000000
0.000000 0.000000 0.000000
0.000000 0.000000 0.000000
0.000000 0.000000 0.000000
0.000000 0.000000 0.000000
0.000000 0.000000 0.000000
0.000000 0.000000 0.000000
0.000000 0.000000 0.000000
0.000000 0.000000 0.000000
0.000000 0.000000 0.000000
0.000000 0.000000 0.000000
0.000000 0.000000 0.000000
0.000000 0.000000 0.000000
0.000000 0.000000 0.000000
0.000000 0.000000 0.000000
0.000000 0.000000 0.000000
0.000000 0.000000 0.000000
0.000000 0.000000 0.000000
0.000000 0.000000 0.000000
0.000000 0.000000 0.000000
0.000000 0.000000 0.000000
0.000000 0.000000 0.000000
0.000000 0.000000 0.000000
0.000000 0.000000 0.000000
0.000000 0.000000 0.000000
0.000000 0.000000 0.000000
0.000000 0.000000 0.000000
0.000000 0.000000 0.000000
0.000000 0.000000 0.000000
0.000000 0.000000 0.000000
0.000000 0.000000 0.000000
0.000000 0.000000 0.000000
0.000000 0.000000 0.000000
0.000000 0.000000 0.000000
0.000000 0.000000 0.000000
0.000000 0.000000 0.000000
0.000000 0.000000 0.000000
0.000000 0.000000 0.000000
0.000000 0.000000 0.000000
0.000000 0.000000 0.000000
0.000000 0.000000 0.000000
0.000000 0.000000 0.000000
0.000000 0.000000 0.000000
0.000000 0.000000 0.000000
0.000000 0.000000 0.000000
0.000000 0.000000 0.000000
0.000000 0.000000 0.000000
0.000000 0.000000 0.000000
0.000000 0.000000 0.000000
0.000000 0.000000 0.000000
0.000000 0.000000 0.000000
0.000000 0.000000 0.000000
0.000000 0.000000 0.000000
0.000000 0.000000 0.000000
0.000000 0.000000 0.000000
0.000000 0.000000 0.000000
0.000000 0.000000 0.000000
0.000000 0.000000 0.000000
0.000000 0.000000 0.000000
0.000000 0.000000 0.000000
0.000000 0.000000 0.000000
0.000000 0.000000 0.000000
0.000000 0.000000 0.000000
0.000000 0.000000 0.000000
0.000000 0.000000 0.000000
0.000000 0.000000 0.000000
0.000000 0.000000 0.000000
0.000000 0.000000 0.000000
0.000000 0.000000 0.000000
0.000000 0.000000 0.000000
0.000000 0.000000 0.000000
0.000000 0.000000 0.000000
0.000000 0.000000 0.000000
0.000000 0.000000 0.000000
0.000000 0.000000 0.000000
0.000000 0.000000 0.000000
0.000000 0.000000 0.000000
