beta_Ti
1.0
9.445957 0.000000 0.000000
0.000000 9.093951 0.000000
0.000000 0.000000 17.471864
Ti
48
direct
0.375000 0.375000 0.843664 Ti
0.875000 0.375000 0.843664 Ti
0.375000 0.875000 0.843664 Ti
0.875000 0.875000 0.843664 Ti
0.125000 0.125000 0.843664 Ti
0.625000 0.125000 0.843664 Ti
0.125000 0.625000 0.843664 Ti
0.625000 0.625000 0.843664 Ti
0.125000 0.375000 0.935324 Ti
0.625000 0.375000 0.935324 Ti
0.125000 0.875000 0.935324 Ti
0.625000 0.875000 0.935324 Ti
0.375000 0.125000 0.935324 Ti
0.875000 0.125000 0.935324 Ti
0.375000 0.625000 0.935324 Ti
0.875000 0.625000 0.935324 Ti
0.375000 0.375000 0.660347 Ti
0.875000 0.375000 0.660347 Ti
0.375000 0.875000 0.660347 Ti
0.875000 0.875000 0.660347 Ti
0.125000 0.125000 0.660347 Ti
0.625000 0.125000 0.660347 Ti
0.125000 0.625000 0.660347 Ti
0.625000 0.625000 0.660347 Ti
0.125000 0.375000 0.568688 Ti
0.625000 0.375000 0.568688 Ti
0.125000 0.875000 0.568688 Ti
0.625000 0.875000 0.568688 Ti
0.375000 0.125000 0.568688 Ti
0.875000 0.125000 0.568688 Ti
0.375000 0.625000 0.568688 Ti
0.875000 0.625000 0.568688 Ti
0.375000 0.375000 0.477029 Ti
0.875000 0.375000 0.477029 Ti
0.375000 0.875000 0.477029 Ti
0.875000 0.875000 0.477029 Ti
0.125000 0.125000 0.477029 Ti
0.625000 0.125000 0.477029 Ti
0.125000 0.625000 0.477029 Ti
0.625000 0.625000 0.477029 Ti
0.125000 0.875000 0.752006 Ti
0.625000 0.875000 0.752006 Ti
0.375000 0.625000 0.752006 Ti
0.875000 0.625000 0.752006 Ti
0.125000 0.375000 0.752006 Ti
0.625000 0.375000 0.752006 Ti
0.375000 0.125000 0.752006 Ti
0.875000 0.125000 0.752006 Ti
