alpha_Ti
1.0
8.805261 0.000000 0.000000
-4.402630 7.625580 0.000000
0.000000 0.000000 15.288801
Ti
36
direct
0.111111 0.888889 -0.000000 Ti
0.111111 0.888889 0.300522 Ti
0.111111 0.555556 -0.000000 Ti
0.222222 0.777778 0.150261 Ti
0.111111 0.555556 0.300522 Ti
0.444444 0.888889 -0.000000 Ti
0.111111 0.222222 -0.000000 Ti
0.222222 0.777778 0.450783 Ti
0.222222 0.444444 0.150261 Ti
0.444444 0.888889 0.300522 Ti
0.111111 0.222222 0.300522 Ti
0.444444 0.555556 -0.000000 Ti
0.222222 0.444444 0.450783 Ti
0.555556 0.777778 0.150261 Ti
0.222222 0.111111 0.150261 Ti
0.444444 0.555556 0.300522 Ti
0.777778 0.888889 -0.000000 Ti
0.444444 0.222222 -0.000000 Ti
0.555556 0.777778 0.450783 Ti
0.222222 0.111111 0.450783 Ti
0.555556 0.444444 0.150261 Ti
0.777778 0.888889 0.300522 Ti
0.444444 0.222222 0.300522 Ti
0.777778 0.555556 -0.000000 Ti
0.555556 0.444444 0.450783 Ti
0.888889 0.777778 0.150261 Ti
0.555556 0.111111 0.150261 Ti
0.777778 0.555556 0.300522 Ti
0.777778 0.222222 -0.000000 Ti
0.888889 0.777778 0.450783 Ti
0.555556 0.111111 0.450783 Ti
0.888889 0.444444 0.150261 Ti
0.777778 0.222222 0.300522 Ti
0.888889 0.444444 0.450783 Ti
0.888889 0.111111 0.150261 Ti
0.888889 0.111111 0.450783 Ti
