total_Ti
1.0
8.805261 0.000000 0.000000
-4.402631 7.625580 0.000000
0.000000 0.000000 26.883422
Ti
90
direct
0.222214 0.944436 0.576063 Ti
0.222214 0.444436 0.576063 Ti
0.722214 0.944436 0.576063 Ti
0.722214 0.444436 0.576063 Ti
0.388880 0.277769 0.816816 Ti
0.388880 0.777769 0.816816 Ti
0.888880 0.277769 0.816816 Ti
0.888880 0.777769 0.816816 Ti
0.555547 0.111102 0.851209 Ti
0.555547 0.611102 0.851209 Ti
0.055556 0.111102 0.851209 Ti
0.055556 0.611102 0.851209 Ti
0.388880 0.277769 0.610456 Ti
0.388880 0.777769 0.610456 Ti
0.888880 0.277769 0.610456 Ti
0.888880 0.777769 0.610456 Ti
0.555547 0.111102 0.644850 Ti
0.555547 0.611102 0.644850 Ti
0.055556 0.111102 0.644850 Ti
0.055556 0.611102 0.644850 Ti
0.222214 0.944436 0.679243 Ti
0.222214 0.444436 0.679243 Ti
0.722214 0.944436 0.679243 Ti
0.722214 0.444436 0.679243 Ti
0.388880 0.277769 0.713636 Ti
0.388880 0.777769 0.713636 Ti
0.888880 0.277769 0.713636 Ti
0.888880 0.777769 0.713636 Ti
0.555547 0.111102 0.748029 Ti
0.555547 0.611102 0.748029 Ti
0.055556 0.111102 0.748029 Ti
0.055556 0.611102 0.748029 Ti
0.222214 0.944436 0.782422 Ti
0.222214 0.444436 0.782422 Ti
0.722214 0.944436 0.782422 Ti
0.722214 0.444436 0.782422 Ti
0.166666 0.833342 -0.000000 Ti
0.166666 0.833342 0.341818 Ti
0.166666 0.500009 -0.000000 Ti
0.277778 0.722231 0.085455 Ti
0.166666 0.500009 0.341818 Ti
0.500000 0.833342 -0.000000 Ti
0.166666 0.166675 -0.000000 Ti
0.277778 0.722231 0.427273 Ti
0.277778 0.388897 0.085455 Ti
0.500000 0.833342 0.341818 Ti
0.166666 0.166675 0.341818 Ti
0.500000 0.500009 -0.000000 Ti
0.277778 0.388897 0.427273 Ti
0.611111 0.722231 0.085455 Ti
0.277778 0.055564 0.085455 Ti
0.500000 0.500009 0.341818 Ti
0.833333 0.833342 -0.000000 Ti
0.500000 0.166675 -0.000000 Ti
0.611111 0.722231 0.427273 Ti
0.277778 0.055564 0.427273 Ti
0.611111 0.388897 0.085455 Ti
0.833333 0.833342 0.341818 Ti
0.500000 0.166675 0.341818 Ti
0.833333 0.500009 -0.000000 Ti
0.611111 0.388897 0.427273 Ti
0.944444 0.722231 0.085455 Ti
0.611111 0.055564 0.085455 Ti
0.833333 0.500009 0.341818 Ti
0.833333 0.166675 -0.000000 Ti
0.944444 0.722231 0.427273 Ti
0.611111 0.055564 0.427273 Ti
0.944444 0.388897 0.085455 Ti
0.833333 0.166675 0.341818 Ti
0.944444 0.388897 0.427273 Ti
0.944445 0.055564 0.085455 Ti
0.944445 0.055564 0.427273 Ti
0.166666 0.833342 0.170909 Ti
0.166666 0.500009 0.170909 Ti
0.277778 0.722231 0.256364 Ti
0.500000 0.833342 0.170909 Ti
0.166666 0.166675 0.170909 Ti
0.277778 0.388897 0.256364 Ti
0.500000 0.500009 0.170909 Ti
0.611111 0.722231 0.256364 Ti
0.277778 0.055564 0.256364 Ti
0.833333 0.833342 0.170909 Ti
0.500000 0.166675 0.170909 Ti
0.611111 0.388897 0.256364 Ti
0.833333 0.500009 0.170909 Ti
0.944444 0.722231 0.256364 Ti
0.611111 0.055564 0.256364 Ti
0.833333 0.166675 0.170909 Ti
0.944444 0.388897 0.256364 Ti
0.944445 0.055564 0.256364 Ti
