Ti96 Mo1
1.0
9.513020 0.000000 0.000000
0.000000 9.350860 0.000000
0.000000 0.000000 18.547230
Ti Mo
96 1
Selective dynamics
direct
0.148445 0.374474 0.403896 T T T Ti
0.655999 0.347222 0.396198 T T T Ti
0.136035 0.861036 0.396601 T T T Ti
0.663056 0.859365 0.404214 T T T Ti
0.162773 0.370371 0.235866 T T T Ti
0.657669 0.374429 0.234947 T T T Ti
0.163148 0.873890 0.235252 T T T Ti
0.657493 0.871875 0.235560 T T T Ti
0.166669 0.375028 0.077680 F F F Ti
0.666673 0.375009 0.077668 F F F Ti
0.166668 0.874984 0.077703 F F F Ti
0.666675 0.874978 0.077685 F F F Ti
0.405773 0.386500 0.317733 T T T Ti
0.906438 0.376260 0.318532 T T T Ti
0.402486 0.884462 0.324403 T T T Ti
0.906533 0.881206 0.312556 T T T Ti
0.416679 0.374988 0.155291 F F F Ti
0.916677 0.374991 0.155284 F F F Ti
0.416662 0.874997 0.155324 F F F Ti
0.916685 0.874963 0.155309 F F F Ti
0.416663 0.375023 -0.000010 F F F Ti
0.916645 0.375016 -0.000006 F F F Ti
0.416663 0.874983 -0.000021 F F F Ti
0.916656 0.874984 -0.000009 F F F Ti
0.093562 0.123740 0.318531 T T T Ti
0.594227 0.113501 0.317732 T T T Ti
0.093467 0.618795 0.312555 T T T Ti
0.597514 0.615538 0.324402 T T T Ti
0.083323 0.125015 0.155284 F F F Ti
0.583321 0.125017 0.155292 F F F Ti
0.083315 0.625043 0.155309 F F F Ti
0.583338 0.625008 0.155324 F F F Ti
0.083356 0.124989 -0.000005 F F F Ti
0.583338 0.124983 -0.000009 F F F Ti
0.083344 0.625023 -0.000009 F F F Ti
0.583337 0.625024 -0.000020 F F F Ti
0.344000 0.152778 0.396198 T T T Ti
0.851554 0.125526 0.403896 T T T Ti
0.336943 0.640635 0.404214 T T T Ti
0.863964 0.638964 0.396601 T T T Ti
0.342331 0.125572 0.234947 T T T Ti
0.837226 0.129630 0.235866 T T T Ti
0.342506 0.628126 0.235560 T T T Ti
0.836851 0.626111 0.235252 T T T Ti
0.333326 0.124995 0.077668 F F F Ti
0.833331 0.124977 0.077680 F F F Ti
0.333324 0.625028 0.077685 F F F Ti
0.833331 0.625020 0.077703 F F F Ti
0.375002 0.375028 0.823876 F F F Ti
0.874978 0.374955 0.823863 F F F Ti
0.375033 0.874942 0.823779 F F F Ti
0.875039 0.874969 0.823825 F F F Ti
0.125025 0.125040 0.823863 F F F Ti
0.625004 0.124975 0.823876 F F F Ti
0.124964 0.625032 0.823826 F F F Ti
0.624969 0.625052 0.823780 F F F Ti
0.124981 0.375023 0.910148 F F F Ti
0.625006 0.375011 0.910150 F F F Ti
0.125015 0.874970 0.910125 F F F Ti
0.624992 0.874960 0.910122 F F F Ti
0.374997 0.124989 0.910150 F F F Ti
0.875024 0.124977 0.910148 F F F Ti
0.375011 0.625041 0.910122 F F F Ti
0.874988 0.625031 0.910125 F F F Ti
0.385694 0.375999 0.666118 T T T Ti
0.884394 0.383985 0.646914 T T T Ti
0.384402 0.891177 0.653365 T T T Ti
0.896385 0.882593 0.659632 T T T Ti
0.115605 0.116013 0.646914 T T T Ti
0.614305 0.123998 0.666118 T T T Ti
0.103613 0.617404 0.659632 T T T Ti
0.615597 0.608820 0.653365 T T T Ti
0.142546 0.365256 0.570292 T T T Ti
0.633163 0.348061 0.574194 T T T Ti
0.146657 0.853196 0.573227 T T T Ti
0.668012 0.901503 0.576458 T T T Ti
0.366836 0.151938 0.574194 T T T Ti
0.857454 0.134743 0.570292 T T T Ti
0.331988 0.598496 0.576457 T T T Ti
0.853343 0.646803 0.573228 T T T Ti
0.403888 0.389058 0.481495 T T T Ti
0.891231 0.379704 0.488987 T T T Ti
0.354374 -0.073155 0.480273 T T T Ti
0.912271 0.883946 0.487862 T T T Ti
0.108769 0.120295 0.488987 T T T Ti
0.596111 0.110941 0.481495 T T T Ti
0.087729 0.616053 0.487862 T T T Ti
0.645626 0.573155 0.480274 T T T Ti
0.125381 0.875030 0.737641 F F F Ti
0.625052 0.874783 0.737637 F F F Ti
0.374940 0.625204 0.737634 F F F Ti
0.874612 0.624958 0.737645 F F F Ti
0.124826 0.374836 0.737646 F F F Ti
0.625106 0.374774 0.737693 F F F Ti
0.374886 0.125209 0.737692 F F F Ti
0.875169 0.125150 0.737642 F F F Ti
0.500000 0.750000 0.525168 T T T Mo

0.000000 0.000000 0.000000
0.000000 0.000000 0.000000
0.000000 0.000000 0.000000
0.000000 0.000000 0.000000
0.000000 0.000000 0.000000
0.000000 0.000000 0.000000
0.000000 0.000000 0.000000
0.000000 0.000000 0.000000
0.000000 0.000000 0.000000
0.000000 0.000000 0.000000
0.000000 0.000000 0.000000
0.000000 0.000000 0.000000
0.000000 0.000000 0.000000
0.000000 0.000000 0.000000
0.000000 0.000000 0.000000
0.000000 0.000000 0.000000
0.000000 0.000000 0.000000
0.000000 0.000000 0.000000
0.000000 0.000000 0.000000
0.000000 0.000000 0.000000
0.000000 0.000000 0.000000
0.000000 0.000000 0.000000
0.000000 0.000000 0.000000
0.000000 0.000000 0.000000
0.000000 0.000000 0.000000
0.000000 0.000000 0.000000
0.000000 0.000000 0.000000
0.000000 0.000000 0.000000
0.000000 0.000000 0.000000
0.000000 0.000000 0.000000
0.000000 0.000000 0.000000
0.000000 0.000000 0.000000
0.000000 0.000000 0.000000
0.000000 0.000000 0.000000
0.000000 0.000000 0.000000
0.000000 0.000000 0.000000
0.000000 0.000000 0.000000
0.000000 0.000000 0.000000
0.000000 0.000000 0.000000
0.000000 0.000000 0.000000
0.000000 0.000000 0.000000
0.000000 0.000000 0.000000
0.000000 0.000000 0.000000
0.000000 0.000000 0.000000
0.000000 0.000000 0.000000
0.000000 0.000000 0.000000
0.000000 0.000000 0.000000
0.000000 0.000000 0.000000
0.000000 0.000000 0.000000
0.000000 0.000000 0.000000
0.000000 0.000000 0.000000
0.000000 0.000000 0.000000
0.000000 0.000000 0.000000
0.000000 0.000000 0.000000
0.000000 0.000000 0.000000
0.000000 0.000000 0.000000
0.000000 0.000000 0.000000
0.000000 0.000000 0.000000
0.000000 0.000000 0.000000
0.000000 0.000000 0.000000
0.000000 0.000000 0.000000
0.000000 0.000000 0.000000
0.000000 0.000000 0.000000
0.000000 0.000000 0.000000
0.000000 0.000000 0.000000
0.000000 0.000000 0.000000
0.000000 0.000000 0.000000
0.000000 0.000000 0.000000
0.000000 0.000000 0.000000
0.000000 0.000000 0.000000
0.000000 0.000000 0.000000
0.000000 0.000000 0.000000
0.000000 0.000000 0.000000
0.000000 0.000000 0.000000
0.000000 0.000000 0.000000
0.000000 0.000000 0.000000
0.000000 0.000000 0.000000
0.000000 0.000000 0.000000
0.000000 0.000000 0.000000
0.000000 0.000000 0.000000
0.000000 0.000000 0.000000
0.000000 0.000000 0.000000
0.000000 0.000000 0.000000
0.000000 0.000000 0.000000
0.000000 0.000000 0.000000
0.000000 0.000000 0.000000
0.000000 0.000000 0.000000
0.000000 0.000000 0.000000
0.000000 0.000000 0.000000
0.000000 0.000000 0.000000
0.000000 0.000000 0.000000
0.000000 0.000000 0.000000
0.000000 0.000000 0.000000
0.000000 0.000000 0.000000
0.000000 0.000000 0.000000
0.000000 0.000000 0.000000
0.000000 0.000000 0.000000
