Ti96 Nb1
1.0
9.513020 0.000000 0.000000
0.000000 9.350860 0.000000
0.000000 0.000000 18.547230
Ti Nb
96 1
Selective dynamics
direct
0.140417 0.378491 0.407007 T T T Ti
0.647656 0.361386 0.408294 T T T Ti
0.168478 0.884393 0.401159 T T T Ti
0.627515 0.939303 0.417723 T T T Ti
0.158905 0.378543 0.235833 T T T Ti
0.659637 0.373931 0.231856 T T T Ti
0.164552 0.876264 0.236645 T T T Ti
0.654000 0.887898 0.232235 T T T Ti
0.166649 0.375000 0.077452 F F F Ti
0.666704 0.375014 0.077511 F F F Ti
0.166680 0.874993 0.077451 F F F Ti
0.666662 0.875016 0.077613 F F F Ti
0.391663 0.361240 0.321018 T T T Ti
0.904603 0.362478 0.315125 T T T Ti
0.416269 0.860989 0.321265 T T T Ti
0.929606 0.910467 0.322021 T T T Ti
0.416673 0.375020 0.155003 F F F Ti
0.916741 0.375005 0.155083 F F F Ti
0.416734 0.875125 0.155119 F F F Ti
0.916563 0.874943 0.155121 F F F Ti
0.416677 0.375012 -0.000131 F F F Ti
0.916626 0.375006 -0.000097 F F F Ti
0.416713 0.875010 -0.000088 F F F Ti
0.916600 0.874984 -0.000070 F F F Ti
0.108337 0.138761 0.321017 T T T Ti
0.595397 0.137524 0.315124 T T T Ti
0.083731 0.639012 0.321264 T T T Ti
0.570394 0.589535 0.322021 T T T Ti
0.083333 0.125004 0.155003 F F F Ti
0.583256 0.125015 0.155083 F F F Ti
0.083269 0.624893 0.155120 F F F Ti
0.583434 0.625077 0.155120 F F F Ti
0.083327 0.124996 -0.000131 F F F Ti
0.583369 0.125000 -0.000096 F F F Ti
0.083291 0.624994 -0.000089 F F F Ti
0.583397 0.625021 -0.000071 F F F Ti
0.359582 0.121510 0.407007 T T T Ti
0.852343 0.138614 0.408294 T T T Ti
0.331521 0.615607 0.401159 T T T Ti
0.872484 0.560698 0.417723 T T T Ti
0.341094 0.121462 0.235833 T T T Ti
0.840362 0.126074 0.231856 T T T Ti
0.335447 0.623741 0.236645 T T T Ti
0.845999 0.612107 0.232235 T T T Ti
0.333350 0.125018 0.077452 F F F Ti
0.833295 0.125002 0.077511 F F F Ti
0.333318 0.625026 0.077451 F F F Ti
0.833338 0.624997 0.077613 F F F Ti
0.374955 0.375032 0.823812 F F F Ti
0.874968 0.375009 0.823832 F F F Ti
0.375053 0.874962 0.823823 F F F Ti
0.875029 0.874928 0.823702 F F F Ti
0.125046 0.124956 0.823812 F F F Ti
0.625034 0.124978 0.823833 F F F Ti
0.124950 0.625022 0.823822 F F F Ti
0.624977 0.625061 0.823702 F F F Ti
0.124928 0.375036 0.910091 F F F Ti
0.625047 0.375085 0.910104 F F F Ti
0.124912 0.874960 0.910100 F F F Ti
0.625093 0.874938 0.910130 F F F Ti
0.375076 0.124953 0.910092 F F F Ti
0.874956 0.124903 0.910105 F F F Ti
0.375091 0.625026 0.910099 F F F Ti
0.874910 0.625048 0.910128 F F F Ti
0.396816 0.363976 0.648487 T T T Ti
0.892548 0.363650 0.658504 T T T Ti
0.383179 0.866409 0.663952 T T T Ti
0.887248 0.866564 0.662064 T T T Ti
0.103183 0.136019 0.648487 T T T Ti
0.607451 0.136345 0.658504 T T T Ti
0.116819 0.633586 0.663952 T T T Ti
0.612751 0.633431 0.662064 T T T Ti
0.151008 0.391448 0.573632 T T T Ti
0.653488 0.398665 0.576076 T T T Ti
0.140852 0.879436 0.577889 T T T Ti
0.630038 0.882929 0.580190 T T T Ti
0.348991 0.108551 0.573632 T T T Ti
0.846511 0.101333 0.576076 T T T Ti
0.359148 0.620562 0.577889 T T T Ti
0.869961 0.617070 0.580190 T T T Ti
0.392809 0.369802 0.491648 T T T Ti
0.905779 0.348854 0.502584 T T T Ti
0.391554 0.854849 0.490336 T T T Ti
0.911161 0.876024 0.481372 T T T Ti
0.107191 0.130197 0.491648 T T T Ti
0.594221 0.151145 0.502584 T T T Ti
0.108445 0.645151 0.490336 T T T Ti
0.588839 0.623976 0.481372 T T T Ti
0.125177 0.874986 0.737536 F F F Ti
0.625124 0.874983 0.737504 F F F Ti
0.374818 0.624996 0.737537 F F F Ti
0.874871 0.625002 0.737505 F F F Ti
0.125018 0.374992 0.737578 F F F Ti
0.624795 0.375247 0.737566 F F F Ti
0.374977 0.124988 0.737579 F F F Ti
0.875199 0.124734 0.737568 F F F Ti
0.750000 0.750000 0.374348 T T T Nb

0.000000 0.000000 0.000000
0.000000 0.000000 0.000000
0.000000 0.000000 0.000000
0.000000 0.000000 0.000000
0.000000 0.000000 0.000000
0.000000 0.000000 0.000000
0.000000 0.000000 0.000000
0.000000 0.000000 0.000000
0.000000 0.000000 0.000000
0.000000 0.000000 0.000000
0.000000 0.000000 0.000000
0.000000 0.000000 0.000000
0.000000 0.000000 0.000000
0.000000 0.000000 0.000000
0.000000 0.000000 0.000000
0.000000 0.000000 0.000000
0.000000 0.000000 0.000000
0.000000 0.000000 0.000000
0.000000 0.000000 0.000000
0.000000 0.000000 0.000000
0.000000 0.000000 0.000000
0.000000 0.000000 0.000000
0.000000 0.000000 0.000000
0.000000 0.000000 0.000000
0.000000 0.000000 0.000000
0.000000 0.000000 0.000000
0.000000 0.000000 0.000000
0.000000 0.000000 0.000000
0.000000 0.000000 0.000000
0.000000 0.000000 0.000000
0.000000 0.000000 0.000000
0.000000 0.000000 0.000000
0.000000 0.000000 0.000000
0.000000 0.000000 0.000000
0.000000 0.000000 0.000000
0.000000 0.000000 0.000000
0.000000 0.000000 0.000000
0.000000 0.000000 0.000000
0.000000 0.000000 0.000000
0.000000 0.000000 0.000000
0.000000 0.000000 0.000000
0.000000 0.000000 0.000000
0.000000 0.000000 0.000000
0.000000 0.000000 0.000000
0.000000 0.000000 0.000000
0.000000 0.000000 0.000000
0.000000 0.000000 0.000000
0.000000 0.000000 0.000000
0.000000 0.000000 0.000000
0.000000 0.000000 0.000000
0.000000 0.000000 0.000000
0.000000 0.000000 0.000000
0.000000 0.000000 0.000000
0.000000 0.000000 0.000000
0.000000 0.000000 0.000000
0.000000 0.000000 0.000000
0.000000 0.000000 0.000000
0.000000 0.000000 0.000000
0.000000 0.000000 0.000000
0.000000 0.000000 0.000000
0.000000 0.000000 0.000000
0.000000 0.000000 0.000000
0.000000 0.000000 0.000000
0.000000 0.000000 0.000000
0.000000 0.000000 0.000000
0.000000 0.000000 0.000000
0.000000 0.000000 0.000000
0.000000 0.000000 0.000000
0.000000 0.000000 0.000000
0.000000 0.000000 0.000000
0.000000 0.000000 0.000000
0.000000 0.000000 0.000000
0.000000 0.000000 0.000000
0.000000 0.000000 0.000000
0.000000 0.000000 0.000000
0.000000 0.000000 0.000000
0.000000 0.000000 0.000000
0.000000 0.000000 0.000000
0.000000 0.000000 0.000000
0.000000 0.000000 0.000000
0.000000 0.000000 0.000000
0.000000 0.000000 0.000000
0.000000 0.000000 0.000000
0.000000 0.000000 0.000000
0.000000 0.000000 0.000000
0.000000 0.000000 0.000000
0.000000 0.000000 0.000000
0.000000 0.000000 0.000000
0.000000 0.000000 0.000000
0.000000 0.000000 0.000000
0.000000 0.000000 0.000000
0.000000 0.000000 0.000000
0.000000 0.000000 0.000000
0.000000 0.000000 0.000000
0.000000 0.000000 0.000000
0.000000 0.000000 0.000000
0.000000 0.000000 0.000000
