total_Ti
1.0
8.805261 0.000000 0.000000
-4.402631 7.625580 0.000000
0.000000 0.000000 38.883422
Ti
90
direct
0.083333 0.916670 0.552589 Ti
0.083333 0.416670 0.552589 Ti
0.583333 0.916670 0.552589 Ti
0.583333 0.416670 0.552589 Ti
0.250000 0.250004 0.719042 Ti
0.250000 0.750004 0.719042 Ti
0.750000 0.250004 0.719042 Ti
0.750000 0.750004 0.719042 Ti
0.416667 0.083337 0.742821 Ti
0.416667 0.583337 0.742821 Ti
0.916667 0.083337 0.742821 Ti
0.916667 0.583337 0.742821 Ti
0.250000 0.250004 0.576368 Ti
0.250000 0.750004 0.576368 Ti
0.750000 0.250004 0.576368 Ti
0.750000 0.750004 0.576368 Ti
0.416667 0.083337 0.600147 Ti
0.416667 0.583337 0.600147 Ti
0.916667 0.083337 0.600147 Ti
0.916667 0.583337 0.600147 Ti
0.083333 0.916670 0.623926 Ti
0.083333 0.416670 0.623926 Ti
0.583333 0.916670 0.623926 Ti
0.583333 0.416670 0.623926 Ti
0.250000 0.250004 0.647705 Ti
0.250000 0.750004 0.647705 Ti
0.750000 0.250004 0.647705 Ti
0.750000 0.750004 0.647705 Ti
0.416667 0.083337 0.671484 Ti
0.416667 0.583337 0.671484 Ti
0.916667 0.083337 0.671484 Ti
0.916667 0.583337 0.671484 Ti
0.083333 0.916670 0.695263 Ti
0.083333 0.416670 0.695263 Ti
0.583333 0.916670 0.695263 Ti
0.583333 0.416670 0.695263 Ti
0.138888 0.861108 -0.000000 Ti
0.138888 0.861108 0.236328 Ti
0.138888 0.527774 -0.000000 Ti
0.249999 0.749996 0.059082 Ti
0.138888 0.527774 0.236328 Ti
0.472221 0.861108 -0.000000 Ti
0.138888 0.194441 -0.000000 Ti
0.249999 0.749996 0.295410 Ti
0.250000 0.416663 0.059082 Ti
0.472221 0.861108 0.236328 Ti
0.138888 0.194441 0.236328 Ti
0.472222 0.527774 -0.000000 Ti
0.250000 0.416663 0.295410 Ti
0.583333 0.749996 0.059082 Ti
0.250000 0.083330 0.059082 Ti
0.472222 0.527774 0.236328 Ti
0.805555 0.861108 -0.000000 Ti
0.472222 0.194441 -0.000000 Ti
0.583333 0.749996 0.295410 Ti
0.250000 0.083330 0.295410 Ti
0.583333 0.416663 0.059082 Ti
0.805555 0.861108 0.236328 Ti
0.472222 0.194441 0.236328 Ti
0.805555 0.527774 -0.000000 Ti
0.583333 0.416663 0.295410 Ti
0.916666 0.749996 0.059082 Ti
0.583333 0.083330 0.059082 Ti
0.805555 0.527774 0.236328 Ti
0.805555 0.194441 -0.000000 Ti
0.916666 0.749996 0.295410 Ti
0.583333 0.083330 0.295410 Ti
0.916666 0.416663 0.059082 Ti
0.805555 0.194441 0.236328 Ti
0.916666 0.416663 0.295410 Ti
0.916666 0.083330 0.059082 Ti
0.916666 0.083330 0.295410 Ti
0.138888 0.861108 0.118164 Ti
0.138888 0.527774 0.118164 Ti
0.249999 0.749996 0.177246 Ti
0.472221 0.861108 0.118164 Ti
0.138888 0.194441 0.118164 Ti
0.250000 0.416663 0.177246 Ti
0.472222 0.527774 0.118164 Ti
0.583333 0.749996 0.177246 Ti
0.250000 0.083330 0.177246 Ti
0.805555 0.861108 0.118164 Ti
0.472222 0.194441 0.118164 Ti
0.583333 0.416663 0.177246 Ti
0.805555 0.527774 0.118164 Ti
0.916666 0.749996 0.177246 Ti
0.583333 0.083330 0.177246 Ti
0.805555 0.194441 0.118164 Ti
0.916666 0.416663 0.177246 Ti
0.916666 0.083330 0.177246 Ti
