VASP @ Device Studio
# Basic setup:
 ISPIN = 1
 ICHARG = 2

#Basis Set 
 LSORBIT = .FALSE.
 LDAU = .FALSE.

# Accuracy controls:
 PREC = Normal
 LREAL= Auto
 ENCUT= 380

# Electronic loop controls:
 ALGO = Normal
 EDIFF = 5e-08
 NELM = 300
 ISMEAR = 1
 SIGMA = 0.05

# Relaxation control:
 ISIF = 2
 IBRION = 2
 NSW = 400
 EDIFFG=-0.005
 
# Properties:
 LCHARG = .TRUE.
 LWAVE = .FALSE. 
 LELF = .FALSE.
 LVTOT = .FALSE.
 LVHAR = .FALSE.
 LORBIT = 0
 KPAR = 2
 NCORE = 8
 GGA = PS
