Ti66 Al1
1.0
6.309760 0.000000 0.000000
0.000000 9.464640 0.000000
0.000000 0.000000 18.918326
Ti Al
66 1
Selective dynamics
direct
0.625702 0.023643 0.479831 T T T Ti
0.124917 0.037337 0.653037 T T T Ti
0.625014 0.044659 0.637164 T T T Ti
0.124985 0.041670 0.817242 F F F Ti
0.624999 0.041679 0.817258 F F F Ti
0.125004 0.386481 0.489511 T T T Ti
0.625018 0.367385 0.509291 T T T Ti
0.124943 0.336642 0.639008 T T T Ti
0.624951 0.344237 0.650417 T T T Ti
0.124962 0.374954 0.817170 F F F Ti
0.624975 0.374957 0.817195 F F F Ti
0.125031 0.668604 0.486200 T T T Ti
0.624960 0.682852 0.492119 T T T Ti
0.124948 0.724748 0.651474 T T T Ti
0.624925 0.734891 0.645369 T T T Ti
0.124969 0.708338 0.817218 F F F Ti
0.624980 0.708331 0.817235 F F F Ti
0.335132 0.166223 0.535788 T T T Ti
0.915009 0.166288 0.535843 T T T Ti
0.375013 0.208356 0.738065 F F F Ti
0.874964 0.208362 0.738069 F F F Ti
0.374989 0.208347 0.896473 F F F Ti
0.874998 0.208346 0.896473 F F F Ti
0.377793 0.535822 0.587452 T T T Ti
0.872192 0.535831 0.587454 T T T Ti
0.375035 0.541782 0.737955 F F F Ti
0.874944 0.541782 0.737955 F F F Ti
0.374996 0.541665 0.896441 F F F Ti
0.874988 0.541665 0.896441 F F F Ti
0.339704 0.876135 0.553009 T T T Ti
0.910386 0.876075 0.553033 T T T Ti
0.375082 0.875049 0.738009 F F F Ti
0.874895 0.875042 0.738012 F F F Ti
0.375003 0.874986 0.896479 F F F Ti
0.874989 0.874986 0.896480 F F F Ti
0.124910 0.631947 0.358862 T T T Ti
0.624634 0.644102 0.359823 T T T Ti
0.124962 0.624908 0.118843 F F F Ti
0.624985 0.624892 0.118864 F F F Ti
0.626294 0.136468 0.365702 T T T Ti
0.125031 0.124873 0.118796 F F F Ti
0.625016 0.124872 0.118802 F F F Ti
0.124959 0.374936 0.039582 F F F Ti
0.624994 0.374915 0.039599 F F F Ti
0.125002 0.874936 0.039631 F F F Ti
0.624995 0.874933 0.039644 F F F Ti
0.124710 0.380160 0.282625 T T T Ti
0.624734 0.396269 0.273728 T T T Ti
0.125238 0.896019 0.282417 T T T Ti
0.625025 0.890904 0.282343 T T T Ti
0.374812 0.874777 0.158468 F F F Ti
0.875206 0.874771 0.158469 F F F Ti
0.374813 0.374740 0.158375 F F F Ti
0.875144 0.374753 0.158371 F F F Ti
0.409053 0.394582 0.392536 T T T Ti
0.840873 0.394747 0.392542 T T T Ti
0.349143 0.879830 0.403244 T T T Ti
0.900961 0.879639 0.403225 T T T Ti
0.362550 0.633000 0.244013 T T T Ti
0.887365 0.633016 0.244021 T T T Ti
0.375003 0.624964 -0.000014 F F F Ti
0.874980 0.624968 -0.000016 F F F Ti
0.378742 0.136543 0.247960 T T T Ti
0.871321 0.136525 0.247889 T T T Ti
0.374991 0.124947 -0.000022 F F F Ti
0.875001 0.124944 -0.000023 F F F Ti
0.124154 0.139877 0.388594 T T T Al

0.000000 0.000000 0.000000
0.000000 0.000000 0.000000
0.000000 0.000000 0.000000
0.000000 0.000000 0.000000
0.000000 0.000000 0.000000
0.000000 0.000000 0.000000
0.000000 0.000000 0.000000
0.000000 0.000000 0.000000
0.000000 0.000000 0.000000
0.000000 0.000000 0.000000
0.000000 0.000000 0.000000
0.000000 0.000000 0.000000
0.000000 0.000000 0.000000
0.000000 0.000000 0.000000
0.000000 0.000000 0.000000
0.000000 0.000000 0.000000
0.000000 0.000000 0.000000
0.000000 0.000000 0.000000
0.000000 0.000000 0.000000
0.000000 0.000000 0.000000
0.000000 0.000000 0.000000
0.000000 0.000000 0.000000
0.000000 0.000000 0.000000
0.000000 0.000000 0.000000
0.000000 0.000000 0.000000
0.000000 0.000000 0.000000
0.000000 0.000000 0.000000
0.000000 0.000000 0.000000
0.000000 0.000000 0.000000
0.000000 0.000000 0.000000
0.000000 0.000000 0.000000
0.000000 0.000000 0.000000
0.000000 0.000000 0.000000
0.000000 0.000000 0.000000
0.000000 0.000000 0.000000
0.000000 0.000000 0.000000
0.000000 0.000000 0.000000
0.000000 0.000000 0.000000
0.000000 0.000000 0.000000
0.000000 0.000000 0.000000
0.000000 0.000000 0.000000
0.000000 0.000000 0.000000
0.000000 0.000000 0.000000
0.000000 0.000000 0.000000
0.000000 0.000000 0.000000
0.000000 0.000000 0.000000
0.000000 0.000000 0.000000
0.000000 0.000000 0.000000
0.000000 0.000000 0.000000
0.000000 0.000000 0.000000
0.000000 0.000000 0.000000
0.000000 0.000000 0.000000
0.000000 0.000000 0.000000
0.000000 0.000000 0.000000
0.000000 0.000000 0.000000
0.000000 0.000000 0.000000
0.000000 0.000000 0.000000
0.000000 0.000000 0.000000
0.000000 0.000000 0.000000
0.000000 0.000000 0.000000
0.000000 0.000000 0.000000
0.000000 0.000000 0.000000
0.000000 0.000000 0.000000
0.000000 0.000000 0.000000
0.000000 0.000000 0.000000
0.000000 0.000000 0.000000
0.000000 0.000000 0.000000
