beta_Ti
1.0
8.805261 0.000000 0.000000
-4.402631 7.625580 0.000000
0.000000 0.000000 23.883422
Ti
36
direct
0.083333 0.916670 0.585618 Ti
0.083333 0.416670 0.585618 Ti
0.583333 0.916670 0.585618 Ti
0.583333 0.416670 0.585618 Ti
0.250000 0.250004 0.856611 Ti
0.250000 0.750004 0.856611 Ti
0.750000 0.250004 0.856611 Ti
0.750000 0.750004 0.856611 Ti
0.416667 0.083337 0.895324 Ti
0.416667 0.583337 0.895324 Ti
0.916667 0.083337 0.895324 Ti
0.916667 0.583337 0.895324 Ti
0.250000 0.250004 0.624331 Ti
0.250000 0.750004 0.624331 Ti
0.750000 0.250004 0.624331 Ti
0.750000 0.750004 0.624331 Ti
0.416667 0.083337 0.663044 Ti
0.416667 0.583337 0.663044 Ti
0.916667 0.083337 0.663044 Ti
0.916667 0.583337 0.663044 Ti
0.083333 0.916670 0.701757 Ti
0.083333 0.416670 0.701757 Ti
0.583333 0.916670 0.701757 Ti
0.583333 0.416670 0.701757 Ti
0.250000 0.250004 0.740471 Ti
0.250000 0.750004 0.740471 Ti
0.750000 0.250004 0.740471 Ti
0.750000 0.750004 0.740471 Ti
0.416667 0.083337 0.779184 Ti
0.416667 0.583337 0.779184 Ti
0.916667 0.083337 0.779184 Ti
0.916667 0.583337 0.779184 Ti
0.083333 0.916670 0.817897 Ti
0.083333 0.416670 0.817897 Ti
0.583333 0.916670 0.817897 Ti
0.583333 0.416670 0.817897 Ti
