Ti82 Al1
1.0
6.391540 0.000000 0.000000
0.000000 9.587310 0.000000
0.000000 0.000000 23.271695
Ti Al
82 1
Selective dynamics
direct
0.122622 0.083433 0.580954 F F F Ti
0.623498 0.083541 0.580688 F F F Ti
0.124826 0.083366 0.709556 F F F Ti
0.624723 0.083373 0.709529 F F F Ti
0.124982 0.083344 0.838415 F F F Ti
0.624957 0.083344 0.838413 F F F Ti
0.124589 0.417490 0.581090 F F F Ti
0.624931 0.417029 0.580681 F F F Ti
0.124919 0.416749 0.709604 F F F Ti
0.624820 0.416736 0.709563 F F F Ti
0.124985 0.416676 0.838428 F F F Ti
0.624960 0.416675 0.838424 F F F Ti
0.124672 0.750024 0.580771 F F F Ti
0.624713 0.750096 0.580649 F F F Ti
0.124929 0.750081 0.709573 F F F Ti
0.624801 0.750084 0.709563 F F F Ti
0.124984 0.750022 0.838426 F F F Ti
0.624956 0.750024 0.838425 F F F Ti
0.374667 0.250134 0.645056 F F F Ti
0.874327 0.250164 0.645190 F F F Ti
0.374947 0.250010 0.773969 F F F Ti
0.874897 0.250012 0.773993 F F F Ti
0.374992 0.249993 0.902844 F F F Ti
0.874997 0.249993 0.902849 F F F Ti
0.375087 0.583566 0.645154 F F F Ti
0.874616 0.583573 0.645223 F F F Ti
0.374971 0.583379 0.773997 F F F Ti
0.874920 0.583377 0.774009 F F F Ti
0.374987 0.583330 0.902851 F F F Ti
0.874989 0.583331 0.902853 F F F Ti
0.374653 0.916761 0.645023 F F F Ti
0.874380 0.916633 0.645148 F F F Ti
0.374933 0.916700 0.773964 F F F Ti
0.874904 0.916689 0.773985 F F F Ti
0.374983 0.916677 0.902841 F F F Ti
0.874993 0.916675 0.902844 F F F Ti
0.632670 0.167752 0.385377 F F F Ti
0.124396 0.666062 0.386527 F F F Ti
0.626093 0.665792 0.386511 F F F Ti
0.125011 0.166667 -0.000029 F F F Ti
0.624998 0.166664 -0.000033 F F F Ti
0.125011 0.666662 -0.000039 F F F Ti
0.625003 0.666657 -0.000041 F F F Ti
0.125026 0.833323 0.096596 F F F Ti
0.625028 0.833319 0.096587 F F F Ti
0.122135 0.831027 0.483445 F F F Ti
0.624889 0.832503 0.483356 F F F Ti
0.125039 0.333316 0.096626 F F F Ti
0.625015 0.333339 0.096612 F F F Ti
0.117808 0.339386 0.484056 F F F Ti
0.627093 0.335459 0.483333 F F F Ti
0.375252 0.584011 0.483439 F F F Ti
0.873636 0.584407 0.483490 F F F Ti
0.375006 0.583303 0.096597 F F F Ti
0.875075 0.583299 0.096589 F F F Ti
0.375010 0.083341 0.096618 F F F Ti
0.875078 0.083349 0.096608 F F F Ti
0.866558 0.083019 0.483958 F F F Ti
0.375615 0.417669 0.386526 F F F Ti
0.875033 0.417333 0.386477 F F F Ti
0.378550 0.911112 0.384883 F F F Ti
0.874210 0.915971 0.386583 F F F Ti
0.374986 0.416657 -0.000032 F F F Ti
0.875005 0.416655 -0.000033 F F F Ti
0.374994 0.916667 -0.000033 F F F Ti
0.875002 0.916667 -0.000033 F F F Ti
0.375635 0.083212 0.289793 F F F Ti
0.876021 0.083050 0.289785 F F F Ti
0.125122 0.166671 0.193295 F F F Ti
0.625160 0.166645 0.193214 F F F Ti
0.125262 0.333148 0.290054 F F F Ti
0.625324 0.333649 0.289685 F F F Ti
0.374919 0.416621 0.193257 F F F Ti
0.875215 0.416604 0.193240 F F F Ti
0.375047 0.583227 0.289814 F F F Ti
0.875417 0.583203 0.289794 F F F Ti
0.125033 0.666551 0.193200 F F F Ti
0.625102 0.666491 0.193160 F F F Ti
0.124548 0.833024 0.289755 F F F Ti
0.626253 0.832802 0.289544 F F F Ti
0.375018 0.916593 0.193211 F F F Ti
0.875087 0.916639 0.193184 F F F Ti
0.307720 0.106869 0.457106 T T T Al

0.000000 0.000000 0.000000
0.000000 0.000000 0.000000
0.000000 0.000000 0.000000
0.000000 0.000000 0.000000
0.000000 0.000000 0.000000
0.000000 0.000000 0.000000
0.000000 0.000000 0.000000
0.000000 0.000000 0.000000
0.000000 0.000000 0.000000
0.000000 0.000000 0.000000
0.000000 0.000000 0.000000
0.000000 0.000000 0.000000
0.000000 0.000000 0.000000
0.000000 0.000000 0.000000
0.000000 0.000000 0.000000
0.000000 0.000000 0.000000
0.000000 0.000000 0.000000
0.000000 0.000000 0.000000
0.000000 0.000000 0.000000
0.000000 0.000000 0.000000
0.000000 0.000000 0.000000
0.000000 0.000000 0.000000
0.000000 0.000000 0.000000
0.000000 0.000000 0.000000
0.000000 0.000000 0.000000
0.000000 0.000000 0.000000
0.000000 0.000000 0.000000
0.000000 0.000000 0.000000
0.000000 0.000000 0.000000
0.000000 0.000000 0.000000
0.000000 0.000000 0.000000
0.000000 0.000000 0.000000
0.000000 0.000000 0.000000
0.000000 0.000000 0.000000
0.000000 0.000000 0.000000
0.000000 0.000000 0.000000
0.000000 0.000000 0.000000
0.000000 0.000000 0.000000
0.000000 0.000000 0.000000
0.000000 0.000000 0.000000
0.000000 0.000000 0.000000
0.000000 0.000000 0.000000
0.000000 0.000000 0.000000
0.000000 0.000000 0.000000
0.000000 0.000000 0.000000
0.000000 0.000000 0.000000
0.000000 0.000000 0.000000
0.000000 0.000000 0.000000
0.000000 0.000000 0.000000
0.000000 0.000000 0.000000
0.000000 0.000000 0.000000
0.000000 0.000000 0.000000
0.000000 0.000000 0.000000
0.000000 0.000000 0.000000
0.000000 0.000000 0.000000
0.000000 0.000000 0.000000
0.000000 0.000000 0.000000
0.000000 0.000000 0.000000
0.000000 0.000000 0.000000
0.000000 0.000000 0.000000
0.000000 0.000000 0.000000
0.000000 0.000000 0.000000
0.000000 0.000000 0.000000
0.000000 0.000000 0.000000
0.000000 0.000000 0.000000
0.000000 0.000000 0.000000
0.000000 0.000000 0.000000
0.000000 0.000000 0.000000
0.000000 0.000000 0.000000
0.000000 0.000000 0.000000
0.000000 0.000000 0.000000
0.000000 0.000000 0.000000
0.000000 0.000000 0.000000
0.000000 0.000000 0.000000
0.000000 0.000000 0.000000
0.000000 0.000000 0.000000
0.000000 0.000000 0.000000
0.000000 0.000000 0.000000
0.000000 0.000000 0.000000
0.000000 0.000000 0.000000
0.000000 0.000000 0.000000
0.000000 0.000000 0.000000
0.000000 0.000000 0.000000
