Ti36
1.0
8.805261 0.000000 0.000000
-4.402630 7.625580 0.000000
0.000000 0.000000 30.288801
Ti
36
direct
0.967272 0.027818 0.491665 Ti
0.967272 0.527818 0.491665 Ti
0.467272 0.027818 0.491665 Ti
0.467272 0.527818 0.491665 Ti
0.133938 0.361151 0.705349 Ti
0.133938 0.861151 0.705349 Ti
0.633938 0.361151 0.705349 Ti
0.633938 0.861151 0.705349 Ti
0.300605 0.194485 0.735875 Ti
0.300605 0.694485 0.735875 Ti
0.800605 0.194485 0.735875 Ti
0.800605 0.694485 0.735875 Ti
0.133938 0.361151 0.522191 Ti
0.133938 0.861151 0.522191 Ti
0.633938 0.361151 0.522191 Ti
0.633938 0.861151 0.522191 Ti
0.300605 0.194485 0.552717 Ti
0.300605 0.694485 0.552717 Ti
0.800605 0.194485 0.552717 Ti
0.800605 0.694485 0.552717 Ti
0.967272 0.027818 0.583244 Ti
0.967272 0.527818 0.583244 Ti
0.467272 0.027818 0.583244 Ti
0.467272 0.527818 0.583244 Ti
0.133938 0.361151 0.613770 Ti
0.133938 0.861151 0.613770 Ti
0.633938 0.361151 0.613770 Ti
0.633938 0.861151 0.613770 Ti
0.300605 0.194485 0.644296 Ti
0.300605 0.694485 0.644296 Ti
0.800605 0.194485 0.644296 Ti
0.800605 0.694485 0.644296 Ti
0.967272 0.027818 0.674823 Ti
0.967272 0.527818 0.674823 Ti
0.467272 0.027818 0.674823 Ti
0.467272 0.527818 0.674823 Ti
