Zr1 Ti96
1.0
9.513020 0.000000 0.000000
0.000000 9.350860 0.000000
0.000000 0.000000 18.547230
Ti Zr
96 1
Selective dynamics
direct
0.147871 0.372312 0.402125 T T T Ti
0.657020 0.356199 0.391263 T T T Ti
0.150013 0.865801 0.396607 T T T Ti
0.664365 0.869530 0.405006 T T T Ti
0.161610 0.371160 0.236590 T T T Ti
0.659199 0.373742 0.234195 T T T Ti
0.161722 0.874376 0.235042 T T T Ti
0.662487 0.872791 0.234424 T T T Ti
0.166666 0.375028 0.077676 F F F Ti
0.666668 0.375008 0.077670 F F F Ti
0.166686 0.875014 0.077659 F F F Ti
0.666659 0.874995 0.077644 F F F Ti
0.407626 0.384176 0.315493 T T T Ti
0.909611 0.378182 0.317942 T T T Ti
0.406216 0.876419 0.316814 T T T Ti
0.907117 0.877785 0.315619 T T T Ti
0.416675 0.375016 0.155291 F F F Ti
0.916653 0.374989 0.155310 F F F Ti
0.416678 0.875020 0.155293 F F F Ti
0.916693 0.874991 0.155252 F F F Ti
0.416663 0.375035 -0.000008 F F F Ti
0.916632 0.375017 0.000008 F F F Ti
0.416664 0.874999 -0.000056 F F F Ti
0.916643 0.874994 -0.000036 F F F Ti
0.090389 0.121819 0.317941 T T T Ti
0.592374 0.115825 0.315492 T T T Ti
0.092883 0.622216 0.315618 T T T Ti
0.593784 0.623581 0.316813 T T T Ti
0.083347 0.125017 0.155310 F F F Ti
0.583325 0.124990 0.155291 F F F Ti
0.083307 0.625020 0.155252 F F F Ti
0.583323 0.624989 0.155293 F F F Ti
0.083369 0.124988 0.000007 F F F Ti
0.583338 0.124972 -0.000009 F F F Ti
0.083357 0.625020 -0.000035 F F F Ti
0.583338 0.625014 -0.000055 F F F Ti
0.342979 0.143801 0.391263 T T T Ti
0.852128 0.127688 0.402125 T T T Ti
0.335634 0.630470 0.405006 T T T Ti
0.849986 0.634199 0.396607 T T T Ti
0.340800 0.126260 0.234195 T T T Ti
0.838389 0.128841 0.236590 T T T Ti
0.337512 0.627211 0.234424 T T T Ti
0.838277 0.625626 0.235042 T T T Ti
0.333331 0.124999 0.077669 F F F Ti
0.833333 0.124979 0.077675 F F F Ti
0.333341 0.625016 0.077645 F F F Ti
0.833314 0.624996 0.077660 F F F Ti
0.374982 0.375007 0.823911 F F F Ti
0.874992 0.374900 0.823909 F F F Ti
0.375031 0.875102 0.823805 F F F Ti
0.875121 0.875004 0.823835 F F F Ti
0.125016 0.125092 0.823907 F F F Ti
0.625025 0.124992 0.823910 F F F Ti
0.124879 0.625000 0.823837 F F F Ti
0.624973 0.624888 0.823808 F F F Ti
0.124956 0.375031 0.910163 F F F Ti
0.625013 0.374983 0.910171 F F F Ti
0.125009 0.875007 0.910111 F F F Ti
0.625004 0.874994 0.910101 F F F Ti
0.374990 0.125014 0.910170 F F F Ti
0.875050 0.124967 0.910161 F F F Ti
0.375000 0.625009 0.910102 F F F Ti
0.874997 0.624995 0.910112 F F F Ti
0.383800 0.372297 0.666706 T T T Ti
0.882134 0.387241 0.648714 T T T Ti
0.372061 0.891407 0.663727 T T T Ti
0.901941 0.878106 0.654719 T T T Ti
0.117865 0.112757 0.648714 T T T Ti
0.616197 0.127699 0.666705 T T T Ti
0.098057 0.621889 0.654719 T T T Ti
0.627938 0.608587 0.663728 T T T Ti
0.136032 0.361633 0.571476 T T T Ti
0.634878 0.358782 0.576805 T T T Ti
0.155017 0.855464 0.565769 T T T Ti
0.680635 0.920789 0.572548 T T T Ti
0.365121 0.141218 0.576804 T T T Ti
0.863967 0.138366 0.571475 T T T Ti
0.319364 0.579210 0.572548 T T T Ti
0.844983 0.644534 0.565770 T T T Ti
0.399168 0.370452 0.481669 T T T Ti
0.886621 0.381014 0.488734 T T T Ti
0.370793 -0.069486 0.475597 T T T Ti
0.915337 0.883670 0.483393 T T T Ti
0.113379 0.118986 0.488734 T T T Ti
0.600832 0.129547 0.481668 T T T Ti
0.084662 0.616329 0.483393 T T T Ti
0.629206 0.569485 0.475597 T T T Ti
0.125299 0.875246 0.737666 F F F Ti
0.625072 0.875119 0.737643 F F F Ti
0.374919 0.624864 0.737647 F F F Ti
0.874694 0.624737 0.737673 F F F Ti
0.124722 0.374872 0.737682 F F F Ti
0.625119 0.374714 0.737721 F F F Ti
0.374870 0.125264 0.737717 F F F Ti
0.875270 0.125108 0.737676 F F F Ti
0.500000 0.749999 0.542584 T T T Zr

0.000000 0.000000 0.000000
0.000000 0.000000 0.000000
0.000000 0.000000 0.000000
0.000000 0.000000 0.000000
0.000000 0.000000 0.000000
0.000000 0.000000 0.000000
0.000000 0.000000 0.000000
0.000000 0.000000 0.000000
0.000000 0.000000 0.000000
0.000000 0.000000 0.000000
0.000000 0.000000 0.000000
0.000000 0.000000 0.000000
0.000000 0.000000 0.000000
0.000000 0.000000 0.000000
0.000000 0.000000 0.000000
0.000000 0.000000 0.000000
0.000000 0.000000 0.000000
0.000000 0.000000 0.000000
0.000000 0.000000 0.000000
0.000000 0.000000 0.000000
0.000000 0.000000 0.000000
0.000000 0.000000 0.000000
0.000000 0.000000 0.000000
0.000000 0.000000 0.000000
0.000000 0.000000 0.000000
0.000000 0.000000 0.000000
0.000000 0.000000 0.000000
0.000000 0.000000 0.000000
0.000000 0.000000 0.000000
0.000000 0.000000 0.000000
0.000000 0.000000 0.000000
0.000000 0.000000 0.000000
0.000000 0.000000 0.000000
0.000000 0.000000 0.000000
0.000000 0.000000 0.000000
0.000000 0.000000 0.000000
0.000000 0.000000 0.000000
0.000000 0.000000 0.000000
0.000000 0.000000 0.000000
0.000000 0.000000 0.000000
0.000000 0.000000 0.000000
0.000000 0.000000 0.000000
0.000000 0.000000 0.000000
0.000000 0.000000 0.000000
0.000000 0.000000 0.000000
0.000000 0.000000 0.000000
0.000000 0.000000 0.000000
0.000000 0.000000 0.000000
0.000000 0.000000 0.000000
0.000000 0.000000 0.000000
0.000000 0.000000 0.000000
0.000000 0.000000 0.000000
0.000000 0.000000 0.000000
0.000000 0.000000 0.000000
0.000000 0.000000 0.000000
0.000000 0.000000 0.000000
0.000000 0.000000 0.000000
0.000000 0.000000 0.000000
0.000000 0.000000 0.000000
0.000000 0.000000 0.000000
0.000000 0.000000 0.000000
0.000000 0.000000 0.000000
0.000000 0.000000 0.000000
0.000000 0.000000 0.000000
0.000000 0.000000 0.000000
0.000000 0.000000 0.000000
0.000000 0.000000 0.000000
0.000000 0.000000 0.000000
0.000000 0.000000 0.000000
0.000000 0.000000 0.000000
0.000000 0.000000 0.000000
0.000000 0.000000 0.000000
0.000000 0.000000 0.000000
0.000000 0.000000 0.000000
0.000000 0.000000 0.000000
0.000000 0.000000 0.000000
0.000000 0.000000 0.000000
0.000000 0.000000 0.000000
0.000000 0.000000 0.000000
0.000000 0.000000 0.000000
0.000000 0.000000 0.000000
0.000000 0.000000 0.000000
0.000000 0.000000 0.000000
0.000000 0.000000 0.000000
0.000000 0.000000 0.000000
0.000000 0.000000 0.000000
0.000000 0.000000 0.000000
0.000000 0.000000 0.000000
0.000000 0.000000 0.000000
0.000000 0.000000 0.000000
0.000000 0.000000 0.000000
0.000000 0.000000 0.000000
0.000000 0.000000 0.000000
0.000000 0.000000 0.000000
0.000000 0.000000 0.000000
0.000000 0.000000 0.000000
0.000000 0.000000 0.000000
