Optimistic_Structure                    
   1.00000000000000     
     6.3097599999999998    0.0000000000000000    0.0000000000000000
     0.0000000000000000    9.4646399999999993    0.0000000000000000
     0.0000000000000000    0.0000000000000000   18.9183260000000004
   Ti   Mo
    66     1
Selective dynamics
Direct
  0.6250000000000000  0.0857291117768896  0.4698225652614604   T   T   T
  0.1250000000000000  0.0478705058523588  0.6557112492264762   T   T   T
  0.6250000000000000  0.0530657449063571  0.6377162140974980   T   T   T
  0.1250000000000000  0.0416669999999968  0.8171529999999976   F   F   F
  0.6250000000000000  0.0416669999999968  0.8171529999999976   F   F   F
  0.1250000000000000  0.4194806586864398  0.4929838126881113   T   T   T
  0.6250000000000000  0.4005406900566320  0.4931626525823305   T   T   T
  0.1250000000000000  0.3643992519974838  0.6470305114925590   T   T   T
  0.6250000000000000  0.3520826633881227  0.6465773007009462   T   T   T
  0.1250000000000000  0.3750000000000000  0.8171529999999976   F   F   F
  0.6250000000000000  0.3750000000000000  0.8171529999999976   F   F   F
  0.1250000000000000  0.7038447839696523  0.4935272199282636   T   T   T
  0.6250000000000000  0.7334406220400908  0.4967154019384195   T   T   T
  0.1250000000000000  0.7345097349540400  0.6446051955499156   T   T   T
  0.6250000000000000  0.7471993255670879  0.6458116788829721   T   T   T
  0.1250000000000000  0.7083330000000032  0.8171529999999976   F   F   F
  0.6250000000000000  0.7083330000000032  0.8171529999999976   F   F   F
  0.3403136681018420  0.2040601664197373  0.5456674029256842   T   T   T
  0.9096863318981581  0.2040601664197373  0.5456674029256842   T   T   T
  0.3750000000000000  0.2083330000000032  0.7378649999999993   F   F   F
  0.8750000000000000  0.2083330000000032  0.7378649999999993   F   F   F
  0.3750000000000000  0.2083330000000032  0.8964410000000029   F   F   F
  0.8750000000000000  0.2083330000000032  0.8964410000000029   F   F   F
  0.3901932641981369  0.5496967714705533  0.5867565636830121   T   T   T
  0.8598067358018630  0.5496967714705533  0.5867565636830121   T   T   T
  0.3750000000000000  0.5416669999999968  0.7378649999999993   F   F   F
  0.8750000000000000  0.5416669999999968  0.7378649999999993   F   F   F
  0.3750000000000000  0.5416669999999968  0.8964410000000029   F   F   F
  0.8750000000000000  0.5416669999999968  0.8964410000000029   F   F   F
  0.3409368327953642  0.9170295165701389  0.5492335205414661   T   T   T
  0.9090631672046354  0.9170295165701389  0.5492335205414661   T   T   T
  0.3750000000000000  0.8750000000000000  0.7378649999999993   F   F   F
  0.8750000000000000  0.8750000000000000  0.7378649999999993   F   F   F
  0.3750000000000000  0.8750000000000000  0.8964410000000029   F   F   F
  0.8750000000000000  0.8750000000000000  0.8964410000000029   F   F   F
  0.1250000000000000  0.6065623495603714  0.3659567471921302   T   T   T
  0.6250000000000000  0.6034232478011410  0.3708619804949102   T   T   T
  0.1250000000000000  0.6250000000000000  0.1189320000000009   F   F   F
  0.6250000000000000  0.6250000000000000  0.1189320000000009   F   F   F
  0.6250000000000000  0.0820959334279986  0.3502052003873223   T   T   T
  0.1250000000000000  0.1250000000000000  0.1189320000000009   F   F   F
  0.6250000000000000  0.1250000000000000  0.1189320000000009   F   F   F
  0.1250000000000000  0.3750000000000000  0.0396440000000027   F   F   F
  0.6250000000000000  0.3750000000000000  0.0396440000000027   F   F   F
  0.1250000000000000  0.8750000000000000  0.0396440000000027   F   F   F
  0.6250000000000000  0.8750000000000000  0.0396440000000027   F   F   F
  0.1250000000000000  0.3850260175716395  0.2766283314771892   T   T   T
  0.6250000000000000  0.3776735326606421  0.2796278426008229   T   T   T
  0.1250000000000000  0.8785779331531307  0.2814812495009373   T   T   T
  0.6250000000000000  0.8583869504457913  0.2731902793284378   T   T   T
  0.3750000000000000  0.8750000000000000  0.1585759999999965   F   F   F
  0.8750000000000000  0.8750000000000000  0.1585759999999965   F   F   F
  0.3749990000000025  0.3750000000000000  0.1585759999999965   F   F   F
  0.8749990000000025  0.3750000000000000  0.1585759999999965   F   F   F
  0.3674654013691721  0.3043040650753654  0.3898550077123075   T   T   T
  0.8825345986308284  0.3043040650753654  0.3898550077123075   T   T   T
  0.3667607647128546  0.8670924629159446  0.3995511115599255   T   T   T
  0.8832392352871453  0.8670924629159446  0.3995511115599255   T   T   T
  0.3696946041702787  0.6260070510481127  0.2468533350132441   T   T   T
  0.8803053958297210  0.6260070510481127  0.2468533350132441   T   T   T
  0.3750000000000000  0.6250000000000000  0.0000000000000000   F   F   F
  0.8750000000000000  0.6250000000000000  0.0000000000000000   F   F   F
  0.3686877443117529  0.1269881375820577  0.2490171998024077   T   T   T
  0.8813122556882471  0.1269881375820577  0.2490171998024077   T   T   T
  0.3750000000000000  0.1250000000000000  0.0000000000000000   F   F   F
  0.8750000000000000  0.1250000000000000  0.0000000000000000   F   F   F
  0.1250000000000000  0.0925881173281199  0.4080940504375603   T   T   T
 
  0.00000000E+00  0.00000000E+00  0.00000000E+00
  0.00000000E+00  0.00000000E+00  0.00000000E+00
  0.00000000E+00  0.00000000E+00  0.00000000E+00
  0.00000000E+00  0.00000000E+00  0.00000000E+00
  0.00000000E+00  0.00000000E+00  0.00000000E+00
  0.00000000E+00  0.00000000E+00  0.00000000E+00
  0.00000000E+00  0.00000000E+00  0.00000000E+00
  0.00000000E+00  0.00000000E+00  0.00000000E+00
  0.00000000E+00  0.00000000E+00  0.00000000E+00
  0.00000000E+00  0.00000000E+00  0.00000000E+00
  0.00000000E+00  0.00000000E+00  0.00000000E+00
  0.00000000E+00  0.00000000E+00  0.00000000E+00
  0.00000000E+00  0.00000000E+00  0.00000000E+00
  0.00000000E+00  0.00000000E+00  0.00000000E+00
  0.00000000E+00  0.00000000E+00  0.00000000E+00
  0.00000000E+00  0.00000000E+00  0.00000000E+00
  0.00000000E+00  0.00000000E+00  0.00000000E+00
  0.00000000E+00  0.00000000E+00  0.00000000E+00
  0.00000000E+00  0.00000000E+00  0.00000000E+00
  0.00000000E+00  0.00000000E+00  0.00000000E+00
  0.00000000E+00  0.00000000E+00  0.00000000E+00
  0.00000000E+00  0.00000000E+00  0.00000000E+00
  0.00000000E+00  0.00000000E+00  0.00000000E+00
  0.00000000E+00  0.00000000E+00  0.00000000E+00
  0.00000000E+00  0.00000000E+00  0.00000000E+00
  0.00000000E+00  0.00000000E+00  0.00000000E+00
  0.00000000E+00  0.00000000E+00  0.00000000E+00
  0.00000000E+00  0.00000000E+00  0.00000000E+00
  0.00000000E+00  0.00000000E+00  0.00000000E+00
  0.00000000E+00  0.00000000E+00  0.00000000E+00
  0.00000000E+00  0.00000000E+00  0.00000000E+00
  0.00000000E+00  0.00000000E+00  0.00000000E+00
  0.00000000E+00  0.00000000E+00  0.00000000E+00
  0.00000000E+00  0.00000000E+00  0.00000000E+00
  0.00000000E+00  0.00000000E+00  0.00000000E+00
  0.00000000E+00  0.00000000E+00  0.00000000E+00
  0.00000000E+00  0.00000000E+00  0.00000000E+00
  0.00000000E+00  0.00000000E+00  0.00000000E+00
  0.00000000E+00  0.00000000E+00  0.00000000E+00
  0.00000000E+00  0.00000000E+00  0.00000000E+00
  0.00000000E+00  0.00000000E+00  0.00000000E+00
  0.00000000E+00  0.00000000E+00  0.00000000E+00
  0.00000000E+00  0.00000000E+00  0.00000000E+00
  0.00000000E+00  0.00000000E+00  0.00000000E+00
  0.00000000E+00  0.00000000E+00  0.00000000E+00
  0.00000000E+00  0.00000000E+00  0.00000000E+00
  0.00000000E+00  0.00000000E+00  0.00000000E+00
  0.00000000E+00  0.00000000E+00  0.00000000E+00
  0.00000000E+00  0.00000000E+00  0.00000000E+00
  0.00000000E+00  0.00000000E+00  0.00000000E+00
  0.00000000E+00  0.00000000E+00  0.00000000E+00
  0.00000000E+00  0.00000000E+00  0.00000000E+00
  0.00000000E+00  0.00000000E+00  0.00000000E+00
  0.00000000E+00  0.00000000E+00  0.00000000E+00
  0.00000000E+00  0.00000000E+00  0.00000000E+00
  0.00000000E+00  0.00000000E+00  0.00000000E+00
  0.00000000E+00  0.00000000E+00  0.00000000E+00
  0.00000000E+00  0.00000000E+00  0.00000000E+00
  0.00000000E+00  0.00000000E+00  0.00000000E+00
  0.00000000E+00  0.00000000E+00  0.00000000E+00
  0.00000000E+00  0.00000000E+00  0.00000000E+00
  0.00000000E+00  0.00000000E+00  0.00000000E+00
  0.00000000E+00  0.00000000E+00  0.00000000E+00
  0.00000000E+00  0.00000000E+00  0.00000000E+00
  0.00000000E+00  0.00000000E+00  0.00000000E+00
  0.00000000E+00  0.00000000E+00  0.00000000E+00
  0.00000000E+00  0.00000000E+00  0.00000000E+00
