Ti66 Al1
1.0
6.309760 0.000000 0.000000
0.000000 9.464640 0.000000
0.000000 0.000000 18.918326
Ti Al
66 1
Selective dynamics
direct
0.123497 0.039592 0.501409 F F F Ti
0.626614 0.040711 0.500385 F F F Ti
0.124765 0.041259 0.658898 F F F Ti
0.624820 0.041276 0.658823 F F F Ti
0.124962 0.041549 0.817231 F F F Ti
0.624952 0.041554 0.817228 F F F Ti
0.119020 0.377200 0.502157 F F F Ti
0.624437 0.374806 0.500793 F F F Ti
0.124575 0.374966 0.659044 F F F Ti
0.624639 0.374897 0.658971 F F F Ti
0.124943 0.374989 0.817261 F F F Ti
0.624911 0.374982 0.817264 F F F Ti
0.125487 0.706578 0.499777 F F F Ti
0.623510 0.707292 0.499847 F F F Ti
0.124977 0.708073 0.658694 F F F Ti
0.624402 0.708202 0.658760 F F F Ti
0.124967 0.708309 0.817202 F F F Ti
0.624872 0.708327 0.817215 F F F Ti
0.374716 0.208001 0.579843 F F F Ti
0.873753 0.207918 0.579938 F F F Ti
0.374939 0.208174 0.738057 F F F Ti
0.874756 0.208173 0.738097 F F F Ti
0.374998 0.208300 0.896383 F F F Ti
0.874951 0.208310 0.896379 F F F Ti
0.374924 0.541518 0.579668 F F F Ti
0.873345 0.542247 0.579901 F F F Ti
0.374942 0.541630 0.738051 F F F Ti
0.874755 0.541698 0.738090 F F F Ti
0.374985 0.541685 0.896399 F F F Ti
0.874921 0.541690 0.896392 F F F Ti
0.375170 0.874307 0.579489 F F F Ti
0.874531 0.873903 0.579561 F F F Ti
0.374917 0.874835 0.737999 F F F Ti
0.874845 0.874773 0.738004 F F F Ti
0.375018 0.874978 0.896410 F F F Ti
0.874952 0.874972 0.896404 F F F Ti
0.124283 0.625659 0.356533 F F F Ti
0.623533 0.625242 0.356515 F F F Ti
0.124978 0.625412 0.118591 F F F Ti
0.624906 0.625307 0.118606 F F F Ti
0.641505 0.121549 0.355668 F F F Ti
0.125319 0.125092 0.118572 F F F Ti
0.625600 0.124928 0.118441 F F F Ti
0.125084 0.375099 0.039323 F F F Ti
0.624838 0.375090 0.039234 F F F Ti
0.125034 0.875117 0.039448 F F F Ti
0.625065 0.875030 0.039424 F F F Ti
0.118238 0.379863 0.274332 F F F Ti
0.626250 0.375192 0.276669 F F F Ti
0.125727 0.875591 0.277428 F F F Ti
0.625962 0.874395 0.277173 F F F Ti
0.375203 0.874905 0.158313 F F F Ti
0.875368 0.875149 0.158292 F F F Ti
0.375473 0.375299 0.158018 F F F Ti
0.873538 0.375430 0.157559 F F F Ti
0.865898 0.379185 0.396765 F F F Ti
0.376246 0.874445 0.396474 F F F Ti
0.876358 0.873832 0.396606 F F F Ti
0.375096 0.625506 0.237559 F F F Ti
0.873803 0.626237 0.237389 F F F Ti
0.374963 0.625172 -0.000153 F F F Ti
0.874920 0.625174 -0.000172 F F F Ti
0.377842 0.124525 0.236723 F F F Ti
0.876596 0.125162 0.236988 F F F Ti
0.375058 0.124920 -0.000166 F F F Ti
0.875069 0.124926 -0.000185 F F F Ti
0.255957 0.243514 0.378952 T T T Al

0.000000 0.000000 0.000000
0.000000 0.000000 0.000000
0.000000 0.000000 0.000000
0.000000 0.000000 0.000000
0.000000 0.000000 0.000000
0.000000 0.000000 0.000000
0.000000 0.000000 0.000000
0.000000 0.000000 0.000000
0.000000 0.000000 0.000000
0.000000 0.000000 0.000000
0.000000 0.000000 0.000000
0.000000 0.000000 0.000000
0.000000 0.000000 0.000000
0.000000 0.000000 0.000000
0.000000 0.000000 0.000000
0.000000 0.000000 0.000000
0.000000 0.000000 0.000000
0.000000 0.000000 0.000000
0.000000 0.000000 0.000000
0.000000 0.000000 0.000000
0.000000 0.000000 0.000000
0.000000 0.000000 0.000000
0.000000 0.000000 0.000000
0.000000 0.000000 0.000000
0.000000 0.000000 0.000000
0.000000 0.000000 0.000000
0.000000 0.000000 0.000000
0.000000 0.000000 0.000000
0.000000 0.000000 0.000000
0.000000 0.000000 0.000000
0.000000 0.000000 0.000000
0.000000 0.000000 0.000000
0.000000 0.000000 0.000000
0.000000 0.000000 0.000000
0.000000 0.000000 0.000000
0.000000 0.000000 0.000000
0.000000 0.000000 0.000000
0.000000 0.000000 0.000000
0.000000 0.000000 0.000000
0.000000 0.000000 0.000000
0.000000 0.000000 0.000000
0.000000 0.000000 0.000000
0.000000 0.000000 0.000000
0.000000 0.000000 0.000000
0.000000 0.000000 0.000000
0.000000 0.000000 0.000000
0.000000 0.000000 0.000000
0.000000 0.000000 0.000000
0.000000 0.000000 0.000000
0.000000 0.000000 0.000000
0.000000 0.000000 0.000000
0.000000 0.000000 0.000000
0.000000 0.000000 0.000000
0.000000 0.000000 0.000000
0.000000 0.000000 0.000000
0.000000 0.000000 0.000000
0.000000 0.000000 0.000000
0.000000 0.000000 0.000000
0.000000 0.000000 0.000000
0.000000 0.000000 0.000000
0.000000 0.000000 0.000000
0.000000 0.000000 0.000000
0.000000 0.000000 0.000000
0.000000 0.000000 0.000000
0.000000 0.000000 0.000000
0.000000 0.000000 0.000000
0.000000 0.000000 0.000000
