substance_top
1.0
   2.9630000000000001    0.0000000000000000    0.0000000000000002
   0.0000000000000025   15.3989999999999991    0.0000000000000009
   0.0000000000000000    0.0000000000000000   47.6920000000000002
Fe
52
Selective dynamics
direct
   0.3530400000000001    0.0451600000000000    0.3355594229640192 T T T Fe
   0.3478800000000001    0.1587300000000000    0.3847290950264197 T T T Fe
   0.3467900000000000    0.1101100000000000    0.4683385054097124 F F F Fe
   0.3427100000000000    0.2723000000000000    0.4339092510274261 F F F Fe
   0.3457200000000001    0.0614800000000000    0.5519479157930052 F F F Fe
   0.3416300000000000    0.2236700000000000    0.5175186614107189 F F F Fe
   0.3375500000000000    0.3858699999999999    0.4830789230898264 F F F Fe
   0.3489500000000000    0.2073600000000000    0.3011196846431268 T T T Fe
   0.3437800000000000    0.3209400000000000    0.3502998406441333 T T T Fe
   0.3396899999999999    0.4831299999999999    0.3158705862618469 T T T Fe
   0.3386200000000000    0.4344999999999999    0.3994695127065337 T T T Fe
   0.3345300000000000    0.5967000000000000    0.3650402583242473 T T T Fe
   0.3304300000000001    0.7588900000000000    0.3306110039419610 T T T Fe
   0.3334500000000000    0.5480600000000000    0.4486496687075402 F F F Fe
   0.3293600000000000    0.7102600000000000    0.4142204143252538 T T T Fe
   0.3252700000000000    0.8724700000000000    0.3797806760043614 T T T Fe
   0.3405600000000000    0.1750400000000000    0.6011175878554057 F F F Fe
   0.3364600000000000    0.3372400000000000    0.5666883334731193 F F F Fe
   0.3323800000000000    0.4994300000000000    0.5322590790908329 F F F Fe
   0.3272200000000001    0.6130100000000001    0.5814287511532333 F F F Fe
   0.3282900000000001    0.6616400000000000    0.4978193407699406 F F F Fe
   0.3242000000000000    0.8238400000000000    0.4633900863876542 F F F Fe
   0.3201000000000000    0.9860300000000000    0.4289608320053679 F F F Fe
   0.3231200000000000    0.7752000000000000    0.5469994967709471 F F F Fe
   0.3190300000000000    0.9374000000000000    0.5125702423886608 F F F Fe
   0.3179600000000001    0.8887699999999999    0.5961691688333474 F F F Fe
   0.8304500000000001    0.1350900000000000    0.4265914618803994 F F F Fe
   0.8293799999999999    0.0864600000000000    0.5102008722636922 F F F Fe
   0.8252900000000000    0.2486500000000000    0.4757716178814058 F F F Fe
   0.8366899999999999    0.0701500000000000    0.2938123794347061 T T T Fe
   0.8315300000000000    0.1837200000000000    0.3429820514971065 T T T Fe
   0.8274300000000000    0.3459199999999999    0.3085527971148201 T T T Fe
   0.8263600000000001    0.2972799999999999    0.3921622074981130 T T T Fe
   0.8222700000000002    0.4594800000000000    0.3577329531158266 T T T Fe
   0.8181899999999999    0.6216800000000000    0.3232932147949343 T T T Fe
   0.8212000000000000    0.4108500000000000    0.4413318795605133 F F F Fe
   0.8171000000000002    0.5730499999999999    0.4069026251782270 T T T Fe
   0.8130200000000000    0.7352500000000000    0.3724733707959408 T T T Fe
   0.8089300000000000    0.8974500000000000    0.3380336324750483 T T T Fe
   0.8283100000000000    0.0378300000000000    0.5938102826469849 F F F Fe
   0.8242200000000000    0.2000200000000000    0.5593810282646986 F F F Fe
   0.8201199999999998    0.3622300000000000    0.5249412899438062 F F F Fe
   0.8149600000000000    0.4757900000000000    0.5741214459448126 F F F Fe
   0.8160300000000000    0.5244200000000000    0.4905120355615198 F F F Fe
   0.8119400000000001    0.6866200000000000    0.4560827811792335 F F F Fe
   0.8078600000000001    0.8488200000000000    0.4216430428583411 T T T Fe
   0.8037600000000000    0.0110100000000000    0.3872137884760548 T T T Fe
   0.8108700000000001    0.6379899999999999    0.5396817076239203 F F F Fe
   0.8067700000000001    0.8001900000000000    0.5052524532416339 F F F Fe
   0.8026900000000000    0.9623800000000000    0.4708231988593476 F F F Fe
   0.8056999999999999    0.7515500000000001    0.5888618636249268 F F F Fe
   0.8016100000000000    0.9137599999999999    0.5544326092426403 F F F Fe
