total_structure
1.0
   3.0750000000000002    0.0000000000000000    0.0000000000000002
   0.0000000000000026   16.0000000000000000    0.0000000000000010
   0.0000000000000000    0.0000000000000000   51.0109925000000004
Cr Fe W N
30 54 6 36
Selective dynamics
direct
   0.3179800000000000    0.8541700000000000    0.1803905991439002 T T T Cr
   0.3171399999999999    0.9636600000000000    0.2300278023408386 T T T Cr
   0.8244299999999999    0.7978400000000000    0.2296611754809514 T T T Cr
   0.3327500000000000    0.5208500000000000    0.1803905991439002 T T T Cr
   0.3319100000000000    0.6303400000000000    0.2300278023408386 T T T Cr
   0.8252700000000001    0.6883500000000000    0.1800341563634544 T T T Cr
   0.8391900000000000    0.4645200000000000    0.2296611754809515 T T T Cr
   0.3475200000000000    0.1875300000000000    0.1803905991439002 T T T Cr
   0.3466800000000000    0.2970200000000000    0.2300278023408386 T T T Cr
   0.8400400000000000    0.3550300000000000    0.1800239722840131 T T T Cr
   0.8539600000000002    0.1311900000000000    0.2296611754809515 T T T Cr
   0.3190500000000000    0.8541800000000001    0.0325381338149811 F F F Cr
   0.3182000000000000    0.9636700000000000    0.0821753370119195 F F F Cr
   0.8254899999999999    0.7978400000000000    0.0818087101520324 F F F Cr
   0.3320899999999999    0.7398700000000000    0.1307432118675205 F F F Cr
   0.8246500000000000    0.9073300000000000    0.1314459133489708 F F F Cr
   0.3338200000000000    0.5208600000000000    0.0325381338149811 F F F Cr
   0.3329700000000000    0.6303500000000000    0.0821753370119195 F F F Cr
   0.8263400000000001    0.6883500000000000    0.0321816910345354 F F F Cr
   0.8402600000000000    0.4645200000000000    0.0818087101520324 F F F Cr
   0.3468600000000001    0.4065500000000000    0.1307432118675205 F F F Cr
   0.8394100000000000    0.5740100000000000    0.1314459133489708 F F F Cr
   0.3485900000000000    0.1875400000000000    0.0325381338149811 F F F Cr
   0.3477400000000000    0.2970300000000000    0.0821753370119195 F F F Cr
   0.8411000000000000    0.3550300000000000    0.0321715069550940 F F F Cr
   0.8550300000000000    0.1312000000000000    0.0818087101520324 F F F Cr
   0.3616200000000000    0.0732300000000000    0.1307432118675205 F F F Cr
   0.8541800000000001    0.2406900000000000    0.1314459133489708 F F F Cr
   0.8400400000000000    0.0233600000000000    0.1800239722840131 T T T Cr
   0.8411000000000000    0.0233700000000000    0.0321715069550940 F F F Cr
   0.3530400000000000    0.0286600000000000    0.3390736124179509 T T T Fe
   0.3478800000000001    0.1409000000000000    0.3871424673809277 T T T Fe
   0.3467900000000000    0.0900100000000000    0.4682281078926273 F F F Fe
   0.3427100000000000    0.2531300000000000    0.4352215064233458 T T T Fe
   0.3457200000000000    0.0391300000000000    0.5493035643248855 F F F Fe
   0.3416299999999999    0.2022400000000000    0.5163071469350454 F F F Fe
   0.3375500000000000    0.3653700000000000    0.4833005454657641 F F F Fe
   0.3489500000000000    0.1917800000000000    0.3060670109486696 T T T Fe
   0.3437799999999999    0.3040200000000000    0.3541460499910877 T T T Fe
   0.3396900000000000    0.4671400000000000    0.3211496326012476 T T T Fe
   0.3386200000000000    0.4162500000000000    0.4022149049540646 T T T Fe
   0.3345300000000000    0.5793800000000000    0.3692184875642245 T T T Fe
   0.3304300000000000    0.7425000000000000    0.3362220701743845 T T T Fe
   0.3334500000000000    0.5284799999999999    0.4503041280759240 F F F Fe
   0.3293600000000000    0.6916099999999999    0.4172975266066427 T T T Fe
   0.3252700000000000    0.8547400000000001    0.3842909251373613 T T T Fe
   0.3405600000000000    0.1513600000000000    0.5973826033673036 F F F Fe
   0.3364600000000000    0.3144800000000000    0.5643760018980223 F F F Fe
   0.3323800000000000    0.4776000000000000    0.5313795845081822 F F F Fe
   0.3272200000000001    0.5898400000000000    0.5794586235506004 F F F Fe
   0.3282900000000000    0.6407200000000000    0.4983729830389009 F F F Fe
   0.3242000000000000    0.8038500000000000    0.4653765656490608 F F F Fe
   0.3200999999999999    0.9669700000000000    0.4323699641797794 T T T Fe
   0.3231200000000000    0.7529500000000000    0.5464520220813190 F F F Fe
   0.3190300000000000    0.9160800000000000    0.5134556046914790 F F F Fe
   0.3179600000000000    0.8652000000000000    0.5945310611237372 F F F Fe
   0.8304500000000001    0.1161200000000000    0.4277463921134253 T T T Fe
   0.8293800000000001    0.0652400000000000    0.5088218485456837 F F F Fe
   0.8252899999999999    0.2283500000000000    0.4758254311558435 F F F Fe
   0.8366900000000000    0.0547800000000000    0.2985918966387490 T T T Fe
   0.8315300000000000    0.1670100000000000    0.3466607516017259 T T T Fe
   0.8274300000000000    0.3301300000000000    0.3136643342118858 T T T Fe
   0.8263600000000000    0.2792400000000000    0.3947397906441439 T T T Fe
   0.8222699999999999    0.4423600000000000    0.3617433732543040 T T T Fe
   0.8181899999999999    0.6054900000000000    0.3287367717850226 T T T Fe
   0.8212000000000000    0.3914800000000000    0.4428188296865622 F F F Fe
   0.8171000000000000    0.5546000000000000    0.4098122282172808 T T T Fe
   0.8130200000000001    0.7177200000000000    0.3768158108274408 T T T Fe
   0.8089300000000000    0.8808500000000000    0.3438092093581593 T T T Fe
   0.8283100000000001    0.0143500000000000    0.5899074890573831 F F F Fe
   0.8242200000000000    0.1774700000000000    0.5569110716675431 F F F Fe
   0.8201200000000000    0.3405900000000000    0.5238942861188203 F F F Fe
   0.8149600000000001    0.4528200000000000    0.5719835092406798 F F F Fe
   0.8160300000000000    0.5037100000000000    0.4908978687289803 F F F Fe
   0.8119400000000000    0.6668300000000000    0.4579014513391403 F F F Fe
   0.8078600000000001    0.8299600000000000    0.4248846657904177 T T T Fe
   0.8030800000000000    0.0063900000000000    0.3790053879073222 T T T Fe
   0.8108699999999999    0.6159500000000000    0.5389667236919571 F F F Fe
   0.8067699999999999    0.7790700000000000    0.5059703063021170 F F F Fe
   0.8026899999999999    0.9421900000000000    0.4729738889122770 F F F Fe
   0.8057000000000000    0.7281800000000000    0.5870559468138167 F F F Fe
   0.8016100000000000    0.8913000000000000    0.5540493453445352 F F F Fe
   0.3238700000000000    0.9110900000000000    0.3035820955649903 T T T Fe
   0.8118499999999998    0.7695300000000000    0.2956996180774173 T T T Fe
   0.3310199999999999    0.7398700000000000    0.2601877330655741 T T T W
   0.8235800000000000    0.9073300000000000    0.2608904345470244 T T T W
   0.3457900000000000    0.4065500000000000    0.2601877330655741 T T T W
   0.8383500000000002    0.5740100000000000    0.2608904345470243 T T T W
   0.3605600000000000    0.0732200000000000    0.2601877330655741 T T T W
   0.8531199999999999    0.2406800000000000    0.2608904345470243 T T T W
   0.8174800000000000    0.9097300000000000    0.2053823300928717 T T T N
   0.3249200000000000    0.7422700000000000    0.2046694445319800 T T T N
   0.3240800000000000    0.8517600000000000    0.2543066477289184 T T T N
   0.8315899999999999    0.7954300000000000    0.1557349428164919 T T T N
   0.3243000000000000    0.9612600000000000    0.1560913855969377 T T T N
   0.8322500000000002    0.5764100000000000    0.2053823300928716 T T T N
   0.8313700000000001    0.6859400000000000    0.2539502049484726 T T T N
   0.3396900000000000    0.4089500000000000    0.2046694445319800 T T T N
   0.3388500000000000    0.5184400000000000    0.2543066477289184 T T T N
   0.8463600000000001    0.4621100000000000    0.1557349428164920 T T T N
   0.3390700000000000    0.6279400000000001    0.1560913855969377 T T T N
   0.8470199999999999    0.2430900000000000    0.2053823300928716 T T T N
   0.8461400000000000    0.3526200000000000    0.2539502049484726 T T T N
   0.3544600000000000    0.0756300000000000    0.2046694445319800 T T T N
   0.3536200000000000    0.1851200000000000    0.2543066477289184 T T T N
   0.8611300000000000    0.1287900000000000    0.1557349428164919 T T T N
   0.3538400000000000    0.2946200000000000    0.1560913855969377 T T T N
   0.8185500000000000    0.9097400000000000    0.0575298647639526 F F F N
   0.3259899999999999    0.7422800000000001    0.0568169792030610 F F F N
   0.3251400000000000    0.8517700000000000    0.1064541823999994 F F F N
   0.8326499999999999    0.7954400000000000    0.0078824774875729 F F F N
   0.3253600000000000    0.9612700000000000    0.0082389202680187 F F F N
   0.8333199999999999    0.5764200000000000    0.0575298647639526 F F F N
   0.8324300000000000    0.6859400000000000    0.1060977396195536 F F F N
   0.3407600000000001    0.4089600000000000    0.0568169792030610 F F F N
   0.3399100000000000    0.5184500000000000    0.1064541823999994 F F F N
   0.8474200000000001    0.4621200000000000    0.0078824774875729 F F F N
   0.3401300000000000    0.6279400000000001    0.0082389202680187 F F F N
   0.8480899999999999    0.2431000000000000    0.0575298647639526 F F F N
   0.8472000000000000    0.3526200000000000    0.1060977396195536 F F F N
   0.3555300000000000    0.0756400000000000    0.0568169792030610 F F F N
   0.3546799999999999    0.1851300000000000    0.1064541823999994 F F F N
   0.8621900000000001    0.1288000000000000    0.0078824774875729 F F F N
   0.3549000000000000    0.2946200000000000    0.0082389202680187 F F F N
   0.8461400000000000    0.0209600000000000    0.2539502049484726 T T T N
   0.8472000000000000    0.0209600000000000    0.1060977396195536 F F F N
