total_structure
1.0
   3.5062000000000002    0.0000000000000000    0.0000000000000002
   0.0000000000000019   12.0001999999999995    0.0000000000000007
   0.0000000000000000    0.0000000000000000   27.3249410620000006
Cr Fe Mo N
20 36 4 24
Selective dynamics
direct
   0.6482100000000000    0.3787300000000000    0.3481059524123924 T T T Cr
   0.6482100000000000    0.1287300000000000    0.3481059524123924 T T T Cr
   0.1482100000000000    0.0037300000000000    0.2654524014724112 T T T Cr
   0.6482100000000000    0.3787300000000000    0.1827882430438598 F F F Cr
   0.6482100000000000    0.1287300000000000    0.1827882430438598 F F F Cr
   0.1482100000000000    0.2537300000000000    0.2654524014724112 T T T Cr
   0.6482100000000000    0.8787300000000000    0.3481059524123924 T T T Cr
   0.6482100000000000    0.6287300000000000    0.3481059524123924 T T T Cr
   0.1482100000000000    0.5037300000000000    0.2654524014724112 T T T Cr
   0.6482100000000000    0.8787300000000000    0.1827882430438598 F F F Cr
   0.6482100000000000    0.6287300000000000    0.1827882430438598 F F F Cr
   0.1482100000000000    0.7537299999999999    0.2654524014724113 T T T Cr
   0.1317400000000000    0.0053800000000000    0.1002513744781522 F F F Cr
   0.6317400000000001    0.3803800000000000    0.0175872160496007 F F F Cr
   0.6317400000000000    0.1303800000000000    0.0175872160496007 F F F Cr
   0.1317400000000000    0.2553800000000000    0.1002513744781522 F F F Cr
   0.1317400000000000    0.5053800000000001    0.1002513744781522 F F F Cr
   0.6317400000000001    0.8803800000000001    0.0175872160496007 F F F Cr
   0.6317400000000001    0.6303800000000001    0.0175872160496007 F F F Cr
   0.1317400000000000    0.7553800000000001    0.1002513744781522 F F F Cr
   0.1415300000000000    0.7221700000000000    0.7883063506020015 F F F Fe
   0.6415299999999999    0.5580400000000000    0.7746120828577104 F F F Fe
   0.6415299999999999    0.7428899999999999    0.7326912880277816 F F F Fe
   0.1415300000000000    0.5787500000000000    0.7189970202834907 F F F Fe
   0.1415300000000000    0.3939000000000000    0.7609072076248490 F F F Fe
   0.6415300000000000    0.2297700000000000    0.7472129398805580 F F F Fe
   0.6415300000000000    0.4146200000000000    0.7052921450506292 F F F Fe
   0.1415300000000000    0.2504800000000000    0.6915978773063383 F F F Fe
   0.1415300000000000    0.0656300000000000    0.7335080646476967 F F F Fe
   0.6415300000000000    0.9015000000000000    0.7198137969034056 F F F Fe
   0.6415300000000000    0.0863500000000000    0.6778930020734769 F F F Fe
   0.1415300000000000    0.9222099999999999    0.6641987343291857 F F F Fe
   0.1415300000000000    0.7635999999999999    0.6770868329421321 F F F Fe
   0.6415300000000000    0.5994699999999999    0.6633819577092708 F F F Fe
   0.6415299999999999    0.7843100000000000    0.6214717703679122 F F F Fe
   0.1415300000000000    0.6201800000000000    0.6077668951350508 F F F Fe
   0.1415300000000000    0.4353300000000000    0.6496876899649797 F F F Fe
   0.6415300000000000    0.2712000000000000    0.6359828147321184 F F F Fe
   0.6415300000000000    0.4560500000000000    0.5940726273907598 F F F Fe
   0.1415300000000000    0.2919100000000000    0.5803677521578985 F F F Fe
   0.1415300000000000    0.1070600000000000    0.6222885469878274 F F F Fe
   0.6415299999999999    0.9429300000000000    0.6085836717549660 F F F Fe
   0.6415300000000000    0.1277800000000000    0.5666734844136074 T T T Fe
   0.1415300000000000    0.9636399999999999    0.5529686091807461 T T T Fe
   0.1415300000000000    0.8050300000000000    0.5658567077936925 T T T Fe
   0.6415300000000000    0.6408900000000000    0.5521624400494013 T T T Fe
   0.6415300000000000    0.8257400000000000    0.5102416452194726 T T T Fe
   0.1415300000000000    0.6616100000000000    0.4965473774751814 T T T Fe
   0.1415300000000000    0.4767600000000000    0.5384575648165399 T T T Fe
   0.6415299999999999    0.3126200000000000    0.5247632970722490 T T T Fe
   0.6415300000000000    0.4974700000000000    0.4828425022423202 T T T Fe
   0.1415300000000000    0.3333333333333333    0.4691482344980291 T T T Fe
   0.1415300000000000    0.1484900000000000    0.5110584218393875 T T T Fe
   0.6415299999999999    0.9843499999999999    0.4973641540950965 T T T Fe
   0.6415300000000000    0.1692000000000000    0.4554433592651677 T T T Fe
   0.1415300000000000    0.0050700000000000    0.4417490915208767 T T T Fe
   0.1482100000000000    0.0037300000000000    0.4307701108409439 T T T Mo
   0.1482100000000000    0.2537300000000000    0.4307701108409439 T T T Mo
   0.1482100000000000    0.5037300000000000    0.4307701108409439 T T T Mo
   0.1482100000000000    0.7537299999999999    0.4307701108409439 T T T Mo
   0.6482100000000000    0.3787300000000000    0.4307701108409439 T T T N
   0.1482100000000000    0.0037300000000000    0.3481059524123924 T T T N
   0.1482100000000000    0.2537300000000000    0.3481059524123924 T T T N
   0.6482100000000000    0.1287300000000000    0.4307701108409439 T T T N
   0.6482100000000000    0.3787300000000000    0.2654524014724112 T T T N
   0.1482100000000000    0.0037300000000000    0.1827882430438598 F F F N
   0.1482100000000000    0.2537300000000000    0.1827882430438598 F F F N
   0.6482100000000000    0.1287300000000000    0.2654524014724112 T T T N
   0.6482100000000000    0.8787300000000000    0.4307701108409439 T T T N
   0.1482100000000000    0.5037300000000000    0.3481059524123924 T T T N
   0.1482100000000000    0.7537299999999999    0.3481059524123924 T T T N
   0.6482100000000000    0.6287300000000000    0.4307701108409439 T T T N
   0.6482100000000000    0.8787300000000000    0.2654524014724112 T T T N
   0.1482100000000000    0.5037300000000000    0.1827882430438598 F F F N
   0.1482100000000000    0.7537299999999999    0.1827882430438598 F F F N
   0.6482100000000000    0.6287300000000000    0.2654524014724113 T T T N
   0.6317400000000001    0.3803800000000000    0.1002513744781522 F F F N
   0.1317400000000000    0.0053800000000000    0.0175872160496007 F F F N
   0.1317400000000000    0.2553800000000000    0.0175872160496007 F F F N
   0.6317400000000000    0.1303800000000000    0.1002513744781522 F F F N
   0.6317400000000001    0.8803800000000001    0.1002513744781522 F F F N
   0.1317400000000000    0.5053800000000001    0.0175872160496007 F F F N
   0.1317400000000000    0.7553800000000001    0.0175872160496007 F F F N
   0.6317400000000001    0.6303800000000001    0.1002513744781522 F F F N
