substance_top
1.0
   3.0750000000000002    0.0000000000000000    0.0000000000000002
   0.0000000000000026   16.0000000000000000    0.0000000000000010
   0.0000000000000000    0.0000000000000000   51.0109925000000004
Fe W
54 6
Selective dynamics
direct
   0.3530400000000000    0.0286600000000000    0.3390736124179509 T T T Fe
   0.3478800000000001    0.1409000000000000    0.3871424673809277 T T T Fe
   0.3467900000000000    0.0900100000000000    0.4682281078926273 F F F Fe
   0.3427100000000000    0.2531300000000000    0.4352215064233458 T T T Fe
   0.3457200000000000    0.0391300000000000    0.5493035643248855 F F F Fe
   0.3416299999999999    0.2022400000000000    0.5163071469350454 F F F Fe
   0.3375500000000000    0.3653700000000000    0.4833005454657641 F F F Fe
   0.3489500000000000    0.1917800000000000    0.3060670109486696 T T T Fe
   0.3437799999999999    0.3040200000000000    0.3541460499910877 T T T Fe
   0.3396900000000000    0.4671400000000000    0.3211496326012476 T T T Fe
   0.3386200000000000    0.4162500000000000    0.4022149049540646 T T T Fe
   0.3345300000000000    0.5793800000000000    0.3692184875642245 T T T Fe
   0.3304300000000000    0.7425000000000000    0.3362220701743845 T T T Fe
   0.3334500000000000    0.5284799999999999    0.4503041280759240 F F F Fe
   0.3293600000000000    0.6916099999999999    0.4172975266066427 T T T Fe
   0.3252700000000000    0.8547400000000001    0.3842909251373613 T T T Fe
   0.3405600000000000    0.1513600000000000    0.5973826033673036 F F F Fe
   0.3364600000000000    0.3144800000000000    0.5643760018980223 F F F Fe
   0.3323800000000000    0.4776000000000000    0.5313795845081822 F F F Fe
   0.3272200000000001    0.5898400000000000    0.5794586235506004 F F F Fe
   0.3282900000000000    0.6407200000000000    0.4983729830389009 F F F Fe
   0.3242000000000000    0.8038500000000000    0.4653765656490608 F F F Fe
   0.3200999999999999    0.9669700000000000    0.4323699641797794 T T T Fe
   0.3231200000000000    0.7529500000000000    0.5464520220813190 F F F Fe
   0.3190300000000000    0.9160800000000000    0.5134556046914790 F F F Fe
   0.3179600000000000    0.8652000000000000    0.5945310611237372 F F F Fe
   0.8304500000000001    0.1161200000000000    0.4277463921134253 T T T Fe
   0.8293800000000001    0.0652400000000000    0.5088218485456837 F F F Fe
   0.8252899999999999    0.2283500000000000    0.4758254311558435 F F F Fe
   0.8366900000000000    0.0547800000000000    0.2985918966387490 T T T Fe
   0.8315300000000000    0.1670100000000000    0.3466607516017259 T T T Fe
   0.8274300000000000    0.3301300000000000    0.3136643342118858 T T T Fe
   0.8263600000000000    0.2792400000000000    0.3947397906441439 T T T Fe
   0.8222699999999999    0.4423600000000000    0.3617433732543040 T T T Fe
   0.8181899999999999    0.6054900000000000    0.3287367717850226 T T T Fe
   0.8212000000000000    0.3914800000000000    0.4428188296865622 F F F Fe
   0.8171000000000000    0.5546000000000000    0.4098122282172808 T T T Fe
   0.8130200000000001    0.7177200000000000    0.3768158108274408 T T T Fe
   0.8089300000000000    0.8808500000000000    0.3438092093581593 T T T Fe
   0.8283100000000001    0.0143500000000000    0.5899074890573831 F F F Fe
   0.8242200000000000    0.1774700000000000    0.5569110716675431 F F F Fe
   0.8201200000000000    0.3405900000000000    0.5238942861188203 F F F Fe
   0.8149600000000001    0.4528200000000000    0.5719835092406798 F F F Fe
   0.8160300000000000    0.5037100000000000    0.4908978687289803 F F F Fe
   0.8119400000000000    0.6668300000000000    0.4579014513391403 F F F Fe
   0.8078600000000001    0.8299600000000000    0.4248846657904177 T T T Fe
   0.8030800000000000    0.0063900000000000    0.3790053879073222 T T T Fe
   0.8108699999999999    0.6159500000000000    0.5389667236919571 F F F Fe
   0.8067699999999999    0.7790700000000000    0.5059703063021170 F F F Fe
   0.8026899999999999    0.9421900000000000    0.4729738889122770 F F F Fe
   0.8057000000000000    0.7281800000000000    0.5870559468138167 F F F Fe
   0.8016100000000000    0.8913000000000000    0.5540493453445352 F F F Fe
   0.3238700000000000    0.9110900000000000    0.3035820955649903 T T T Fe
   0.8118499999999998    0.7695300000000000    0.2956996180774173 T T T Fe
   0.3310199999999999    0.7398700000000000    0.2601877330655741 T T T W
   0.8235800000000000    0.9073300000000000    0.2608904345470244 T T T W
   0.3457900000000000    0.4065500000000000    0.2601877330655741 T T T W
   0.8383500000000002    0.5740100000000000    0.2608904345470243 T T T W
   0.3605600000000000    0.0732200000000000    0.2601877330655741 T T T W
   0.8531199999999999    0.2406800000000000    0.2608904345470243 T T T W
