total_structure
1.0
   3.5062000000000002    0.0000000000000000    0.0000000000000002
   0.0000000000000019   12.0001999999999995    0.0000000000000007
   0.0000000000000000    0.0000000000000000   27.3249410620000006
Cr Fe N
24 36 24
Selective dynamics
direct
   0.1485400000000000    0.0029600000000000    0.4124721930571313 T T T Cr
   0.6485400000000000    0.3779600000000000    0.3298186421171501 T T T Cr
   0.6485400000000000    0.1279600000000000    0.3298186421171501 T T T Cr
   0.1485400000000000    0.2529600000000000    0.4124721930571313 T T T Cr
   0.1485400000000000    0.0029600000000000    0.2471544836885987 F F F Cr
   0.6485400000000000    0.3779600000000000    0.1644903252600472 F F F Cr
   0.6485400000000000    0.1279600000000000    0.1644903252600472 F F F Cr
   0.1485400000000000    0.2529600000000000    0.2471544836885987 F F F Cr
   0.1485400000000000    0.5029600000000000    0.4124721930571313 T T T Cr
   0.6485400000000000    0.8779600000000000    0.3298186421171501 T T T Cr
   0.6485400000000000    0.6279599999999999    0.3298186421171501 T T T Cr
   0.1485400000000000    0.7529599999999999    0.4124721930571313 T T T Cr
   0.1485400000000000    0.5029600000000000    0.2471544836885987 F F F Cr
   0.6485400000000000    0.8779600000000000    0.1644903252600472 F F F Cr
   0.6485400000000000    0.6279599999999999    0.1644903252600472 F F F Cr
   0.1485400000000000    0.7529599999999999    0.2471544836885987 F F F Cr
   0.1320800000000000    0.0046100000000000    0.0819534566943396 F F F Cr
   0.6320800000000000    0.3796100000000000    0.9992999057543585 F F F Cr
   0.6320800000000000    0.1296100000000000    0.9992999057543585 F F F Cr
   0.1320800000000000    0.2546100000000000    0.0819534566943396 F F F Cr
   0.1320800000000000    0.5046100000000000    0.0819534566943396 F F F Cr
   0.6320800000000000    0.8796100000000000    0.9992999057543585 F F F Cr
   0.6320800000000000    0.6296100000000000    0.9992999057543585 F F F Cr
   0.1320800000000000    0.7546100000000000    0.0819534566943396 F F F Cr
   0.1418600000000000    0.7213999999999999    0.7700190403067594 F F F Fe
   0.6418599999999999    0.5572600000000000    0.7563141650738979 F F F Fe
   0.6418599999999999    0.7421100000000000    0.7144039777325394 F F F Fe
   0.1418600000000000    0.5779800000000000    0.7006991024996780 F F F Fe
   0.1418600000000000    0.3931299999999999    0.7426092898410366 F F F Fe
   0.6418600000000000    0.2289900000000000    0.7289150220967455 F F F Fe
   0.6418600000000000    0.4138399999999999    0.6870048347553870 F F F Fe
   0.1418600000000000    0.2497100000000000    0.6732999595225256 F F F Fe
   0.1418600000000000    0.0648600000000000    0.7152101468638842 F F F Fe
   0.6418600000000000    0.9007199999999999    0.7015158791195931 F F F Fe
   0.6418600000000000    0.0855700000000000    0.6596056917782347 F F F Fe
   0.1418600000000000    0.9214400000000000    0.6459008165453732 F F F Fe
   0.1418600000000000    0.7628300000000000    0.6587889151583195 F F F Fe
   0.6418600000000000    0.5986900000000001    0.6450840399254580 F F F Fe
   0.6418599999999999    0.7835399999999999    0.6031738525840997 F F F Fe
   0.1418600000000000    0.6194100000000000    0.5894795848398086 F F F Fe
   0.1418600000000000    0.4345600000000000    0.6313897721811671 F F F Fe
   0.6418600000000000    0.2704200000000000    0.6176848969483058 F F F Fe
   0.6418600000000000    0.4552700000000000    0.5757747096069473 F F F Fe
   0.1418600000000000    0.2911400000000000    0.5620804418626564 F F F Fe
   0.1418600000000000    0.1062900000000000    0.6039906292040147 F F F Fe
   0.6418599999999999    0.9421499999999999    0.5902857539711533 F F F Fe
   0.6418600000000000    0.1270000000000000    0.5483755666297948 T T T Fe
   0.1418600000000000    0.9628699999999999    0.5346812988855039 T T T Fe
   0.1418600000000000    0.8042500000000000    0.5475587900098798 T T T Fe
   0.6418600000000000    0.6401200000000000    0.5338645222655888 T T T Fe
   0.6418600000000000    0.8249700000000000    0.4919543349242302 T T T Fe
   0.1418600000000000    0.6608299999999999    0.4782494596913688 T T T Fe
   0.1418600000000000    0.4759800000000000    0.5201596470327274 T T T Fe
   0.6418599999999999    0.3118500000000000    0.5064653792884364 T T T Fe
   0.6418600000000000    0.4966999999999999    0.4645551919470779 T T T Fe
   0.1418600000000000    0.3325600000000000    0.4508503167142165 T T T Fe
   0.1418600000000000    0.1477100000000000    0.4927605040555750 T T T Fe
   0.6418599999999999    0.9835800000000000    0.4790662363112840 T T T Fe
   0.6418600000000000    0.1684300000000000    0.4371560489699255 T T T Fe
   0.1418600000000000    0.0042900000000000    0.4234511737370641 T T T Fe
   0.6485400000000000    0.3779600000000000    0.4124721930571313 T T T N
   0.1485400000000000    0.0029600000000000    0.3298186421171501 T T T N
   0.1485400000000000    0.2529600000000000    0.3298186421171501 T T T N
   0.6485400000000000    0.1279600000000000    0.4124721930571313 T T T N
   0.6485400000000000    0.3779600000000000    0.2471544836885987 F F F N
   0.1485400000000000    0.0029600000000000    0.1644903252600472 F F F N
   0.1485400000000000    0.2529600000000000    0.1644903252600472 F F F N
   0.6485400000000000    0.1279600000000000    0.2471544836885987 F F F N
   0.6485400000000000    0.8779600000000000    0.4124721930571313 T T T N
   0.1485400000000000    0.5029600000000000    0.3298186421171501 T T T N
   0.1485400000000000    0.7529599999999999    0.3298186421171501 T T T N
   0.6485400000000000    0.6279599999999999    0.4124721930571313 T T T N
   0.6485400000000000    0.8779600000000000    0.2471544836885987 F F F N
   0.1485400000000000    0.5029600000000000    0.1644903252600472 F F F N
   0.1485400000000000    0.7529599999999999    0.1644903252600472 F F F N
   0.6485400000000000    0.6279599999999999    0.2471544836885987 F F F N
   0.6320800000000000    0.3796100000000000    0.0819534566943396 F F F N
   0.1320800000000000    0.0046100000000000    0.9992999057543585 F F F N
   0.1320800000000000    0.2546100000000000    0.9992999057543585 F F F N
   0.6320800000000000    0.1296100000000000    0.0819534566943396 F F F N
   0.6320800000000000    0.8796100000000000    0.0819534566943396 F F F N
   0.1320800000000000    0.5046100000000000    0.9992999057543585 F F F N
   0.1320800000000000    0.7546100000000000    0.9992999057543585 F F F N
   0.6320800000000000    0.6296100000000000    0.0819534566943396 F F F N
