Zr1 Ti96
1.0
9.513020 0.000000 0.000000
0.000000 9.350860 0.000000
0.000000 0.000000 18.547230
Ti Zr
96 1
Selective dynamics
direct
0.144209 0.365165 0.406686 T T T Ti
0.630685 0.345757 0.407134 T T T Ti
0.151351 0.847598 0.390453 T T T Ti
0.684680 0.909200 0.391714 T T T Ti
0.154964 0.371516 0.237207 T T T Ti
0.663496 0.373975 0.233926 T T T Ti
0.163087 0.876550 0.234738 T T T Ti
0.662396 0.870261 0.235165 T T T Ti
0.166666 0.375000 0.077689 F F F Ti
0.666666 0.375000 0.077689 F F F Ti
0.166666 0.875000 0.077689 F F F Ti
0.666666 0.875000 0.077689 F F F Ti
0.405687 0.374288 0.309076 T T T Ti
0.890262 0.379936 0.327463 T T T Ti
0.410408 0.887240 0.320240 T T T Ti
0.917469 0.885619 0.310895 T T T Ti
0.416667 0.375000 0.155379 F F F Ti
0.916667 0.375000 0.155379 F F F Ti
0.416667 0.875000 0.155379 F F F Ti
0.916667 0.875000 0.155379 F F F Ti
0.416667 0.375000 -0.000000 F F F Ti
0.916667 0.375000 -0.000000 F F F Ti
0.416667 0.875000 -0.000000 F F F Ti
0.916667 0.875000 -0.000000 F F F Ti
0.109738 0.120064 0.327462 T T T Ti
0.594313 0.125712 0.309075 T T T Ti
0.082531 0.614381 0.310894 T T T Ti
0.589592 0.612760 0.320239 T T T Ti
0.083333 0.125000 0.155379 F F F Ti
0.583333 0.125000 0.155379 F F F Ti
0.083333 0.625000 0.155379 F F F Ti
0.583333 0.625000 0.155379 F F F Ti
0.083333 0.125000 -0.000000 F F F Ti
0.583333 0.125000 -0.000000 F F F Ti
0.083333 0.625000 -0.000000 F F F Ti
0.583333 0.625000 -0.000000 F F F Ti
0.369314 0.154243 0.407134 T T T Ti
0.855790 0.134835 0.406686 T T T Ti
0.315319 0.590800 0.391714 T T T Ti
0.848648 0.652402 0.390453 T T T Ti
0.336503 0.126025 0.233926 T T T Ti
0.845035 0.128484 0.237207 T T T Ti
0.337603 0.629739 0.235165 T T T Ti
0.836912 0.623450 0.234738 T T T Ti
0.333333 0.125000 0.077689 F F F Ti
0.833333 0.125000 0.077689 F F F Ti
0.333333 0.625000 0.077689 F F F Ti
0.833333 0.625000 0.077689 F F F Ti
0.375000 0.375000 0.823738 F F F Ti
0.875000 0.375000 0.823738 F F F Ti
0.375000 0.875000 0.823738 F F F Ti
0.875000 0.875000 0.823738 F F F Ti
0.125000 0.125000 0.823738 F F F Ti
0.625000 0.125000 0.823738 F F F Ti
0.125000 0.625000 0.823738 F F F Ti
0.625000 0.625000 0.823738 F F F Ti
0.125000 0.375000 0.910084 F F F Ti
0.625000 0.375000 0.910084 F F F Ti
0.125000 0.875000 0.910084 F F F Ti
0.625000 0.875000 0.910084 F F F Ti
0.375000 0.125000 0.910084 F F F Ti
0.875000 0.125000 0.910084 F F F Ti
0.375000 0.625000 0.910084 F F F Ti
0.875000 0.625000 0.910084 F F F Ti
0.391016 0.390440 0.656332 T T T Ti
0.894522 0.365783 0.648257 T T T Ti
0.394263 0.894654 0.644710 T T T Ti
0.880181 0.883259 0.671667 T T T Ti
0.105478 0.134217 0.648257 T T T Ti
0.608984 0.109560 0.656332 T T T Ti
0.119819 0.616741 0.671667 T T T Ti
0.605737 0.605346 0.644710 T T T Ti
0.151008 0.389590 0.566469 T T T Ti
0.647532 0.334864 0.572848 T T T Ti
0.117134 0.862172 0.587789 T T T Ti
0.656857 0.856629 0.577836 T T T Ti
0.352468 0.165136 0.572848 T T T Ti
0.848992 0.110410 0.566469 T T T Ti
0.343143 0.643371 0.577836 T T T Ti
0.882866 0.637828 0.587789 T T T Ti
0.414936 0.411269 0.496013 T T T Ti
0.899914 0.372022 0.488085 T T T Ti
0.312151 0.936004 0.497873 T T T Ti
0.912507 0.873649 0.482638 T T T Ti
0.100086 0.127978 0.488085 T T T Ti
0.585064 0.088731 0.496013 T T T Ti
0.087493 0.626351 0.482638 T T T Ti
0.687849 0.563996 0.497873 T T T Ti
0.125000 0.875000 0.737395 F F F Ti
0.625000 0.875000 0.737395 F F F Ti
0.375000 0.625000 0.737395 F F F Ti
0.875000 0.625000 0.737395 F F F Ti
0.125000 0.375000 0.737395 F F F Ti
0.625000 0.375000 0.737395 F F F Ti
0.375000 0.125000 0.737395 F F F Ti
0.875000 0.125000 0.737395 F F F Ti
0.500000 0.750000 0.457306 T T T Zr

0.000000 0.000000 0.000000
0.000000 0.000000 0.000000
0.000000 0.000000 0.000000
0.000000 0.000000 0.000000
0.000000 0.000000 0.000000
0.000000 0.000000 0.000000
0.000000 0.000000 0.000000
0.000000 0.000000 0.000000
0.000000 0.000000 0.000000
0.000000 0.000000 0.000000
0.000000 0.000000 0.000000
0.000000 0.000000 0.000000
0.000000 0.000000 0.000000
0.000000 0.000000 0.000000
0.000000 0.000000 0.000000
0.000000 0.000000 0.000000
0.000000 0.000000 0.000000
0.000000 0.000000 0.000000
0.000000 0.000000 0.000000
0.000000 0.000000 0.000000
0.000000 0.000000 0.000000
0.000000 0.000000 0.000000
0.000000 0.000000 0.000000
0.000000 0.000000 0.000000
0.000000 0.000000 0.000000
0.000000 0.000000 0.000000
0.000000 0.000000 0.000000
0.000000 0.000000 0.000000
0.000000 0.000000 0.000000
0.000000 0.000000 0.000000
0.000000 0.000000 0.000000
0.000000 0.000000 0.000000
0.000000 0.000000 0.000000
0.000000 0.000000 0.000000
0.000000 0.000000 0.000000
0.000000 0.000000 0.000000
0.000000 0.000000 0.000000
0.000000 0.000000 0.000000
0.000000 0.000000 0.000000
0.000000 0.000000 0.000000
0.000000 0.000000 0.000000
0.000000 0.000000 0.000000
0.000000 0.000000 0.000000
0.000000 0.000000 0.000000
0.000000 0.000000 0.000000
0.000000 0.000000 0.000000
0.000000 0.000000 0.000000
0.000000 0.000000 0.000000
0.000000 0.000000 0.000000
0.000000 0.000000 0.000000
0.000000 0.000000 0.000000
0.000000 0.000000 0.000000
0.000000 0.000000 0.000000
0.000000 0.000000 0.000000
0.000000 0.000000 0.000000
0.000000 0.000000 0.000000
0.000000 0.000000 0.000000
0.000000 0.000000 0.000000
0.000000 0.000000 0.000000
0.000000 0.000000 0.000000
0.000000 0.000000 0.000000
0.000000 0.000000 0.000000
0.000000 0.000000 0.000000
0.000000 0.000000 0.000000
0.000000 0.000000 0.000000
0.000000 0.000000 0.000000
0.000000 0.000000 0.000000
0.000000 0.000000 0.000000
0.000000 0.000000 0.000000
0.000000 0.000000 0.000000
0.000000 0.000000 0.000000
0.000000 0.000000 0.000000
0.000000 0.000000 0.000000
0.000000 0.000000 0.000000
0.000000 0.000000 0.000000
0.000000 0.000000 0.000000
0.000000 0.000000 0.000000
0.000000 0.000000 0.000000
0.000000 0.000000 0.000000
0.000000 0.000000 0.000000
0.000000 0.000000 0.000000
0.000000 0.000000 0.000000
0.000000 0.000000 0.000000
0.000000 0.000000 0.000000
0.000000 0.000000 0.000000
0.000000 0.000000 0.000000
0.000000 0.000000 0.000000
0.000000 0.000000 0.000000
0.000000 0.000000 0.000000
0.000000 0.000000 0.000000
0.000000 0.000000 0.000000
0.000000 0.000000 0.000000
0.000000 0.000000 0.000000
0.000000 0.000000 0.000000
0.000000 0.000000 0.000000
0.000000 0.000000 0.000000
0.000000 0.000000 0.000000
