Ti96 Sn1
1.0
9.513020 0.000000 0.000000
0.000000 9.350860 0.000000
0.000000 0.000000 18.547230
Ti Sn
96 1
Selective dynamics
direct
0.148561 0.375443 0.402618 T T T Ti
0.643521 0.335477 0.406846 T T T Ti
0.116744 0.855505 0.393565 T T T Ti
0.688856 0.872565 0.388651 T T T Ti
0.161965 0.369280 0.234776 T T T Ti
0.658905 0.375928 0.234598 T T T Ti
0.168221 0.874882 0.234982 T T T Ti
0.652440 0.870410 0.236113 T T T Ti
0.166666 0.375000 0.077689 F F F Ti
0.666666 0.375000 0.077689 F F F Ti
0.166666 0.875000 0.077689 F F F Ti
0.666666 0.875000 0.077689 F F F Ti
0.405894 0.382296 0.314101 T T T Ti
0.896083 0.374912 0.321290 T T T Ti
0.398850 0.896518 0.334620 T T T Ti
0.914854 0.887416 0.303798 T T T Ti
0.416667 0.375000 0.155379 F F F Ti
0.916667 0.375000 0.155379 F F F Ti
0.416667 0.875000 0.155379 F F F Ti
0.916667 0.875000 0.155379 F F F Ti
0.416667 0.375000 -0.000000 F F F Ti
0.916667 0.375000 -0.000000 F F F Ti
0.416667 0.875000 -0.000000 F F F Ti
0.916667 0.875000 -0.000000 F F F Ti
0.103917 0.125088 0.321289 T T T Ti
0.594106 0.117704 0.314100 T T T Ti
0.085146 0.612584 0.303797 T T T Ti
0.601150 0.603482 0.334619 T T T Ti
0.083333 0.125000 0.155379 F F F Ti
0.583333 0.125000 0.155379 F F F Ti
0.083333 0.625000 0.155379 F F F Ti
0.583333 0.625000 0.155379 F F F Ti
0.083333 0.125000 -0.000000 F F F Ti
0.583333 0.125000 -0.000000 F F F Ti
0.083333 0.625000 -0.000000 F F F Ti
0.583333 0.625000 -0.000000 F F F Ti
0.356478 0.164523 0.406846 T T T Ti
0.851438 0.124557 0.402618 T T T Ti
0.311143 0.627435 0.388651 T T T Ti
0.883255 0.644495 0.393565 T T T Ti
0.341094 0.124072 0.234598 T T T Ti
0.838034 0.130720 0.234776 T T T Ti
0.347559 0.629590 0.236113 T T T Ti
0.831778 0.625118 0.234982 T T T Ti
0.333333 0.125000 0.077689 F F F Ti
0.833333 0.125000 0.077689 F F F Ti
0.333333 0.625000 0.077689 F F F Ti
0.833333 0.625000 0.077689 F F F Ti
0.375000 0.375000 0.823738 F F F Ti
0.875000 0.375000 0.823738 F F F Ti
0.375000 0.875000 0.823738 F F F Ti
0.875000 0.875000 0.823738 F F F Ti
0.125000 0.125000 0.823738 F F F Ti
0.625000 0.125000 0.823738 F F F Ti
0.125000 0.625000 0.823738 F F F Ti
0.625000 0.625000 0.823738 F F F Ti
0.125000 0.375000 0.910084 F F F Ti
0.625000 0.375000 0.910084 F F F Ti
0.125000 0.875000 0.910084 F F F Ti
0.625000 0.875000 0.910084 F F F Ti
0.375000 0.125000 0.910084 F F F Ti
0.875000 0.125000 0.910084 F F F Ti
0.375000 0.625000 0.910084 F F F Ti
0.875000 0.625000 0.910084 F F F Ti
0.394848 0.384731 0.661354 T T T Ti
0.888814 0.375996 0.644696 T T T Ti
0.387545 0.895269 0.642348 T T T Ti
0.881740 0.885155 0.673224 T T T Ti
0.111186 0.124004 0.644696 T T T Ti
0.605152 0.115269 0.661354 T T T Ti
0.118260 0.614845 0.673224 T T T Ti
0.612455 0.604731 0.642348 T T T Ti
0.155147 0.380142 0.573782 T T T Ti
0.634113 0.334030 0.567781 T T T Ti
0.114472 0.853339 0.586535 T T T Ti
0.663574 0.867499 0.582067 T T T Ti
0.365887 0.165970 0.567781 T T T Ti
0.844853 0.119858 0.573782 T T T Ti
0.336426 0.632501 0.582067 T T T Ti
0.885528 0.646661 0.586535 T T T Ti
0.412501 0.426960 0.483587 T T T Ti
0.903210 0.365562 0.488154 T T T Ti
0.296297 0.934957 0.490617 T T T Ti
0.904974 0.894823 0.490407 T T T Ti
0.096790 0.134438 0.488154 T T T Ti
0.587499 0.073040 0.483587 T T T Ti
0.095026 0.605177 0.490407 T T T Ti
0.703703 0.565043 0.490617 T T T Ti
0.125000 0.875000 0.737395 F F F Ti
0.625000 0.875000 0.737395 F F F Ti
0.375000 0.625000 0.737395 F F F Ti
0.875000 0.625000 0.737395 F F F Ti
0.125000 0.375000 0.737395 F F F Ti
0.625000 0.375000 0.737395 F F F Ti
0.375000 0.125000 0.737395 F F F Ti
0.875000 0.125000 0.737395 F F F Ti
0.500000 0.750000 0.475373 T T T Sn

0.000000 0.000000 0.000000
0.000000 0.000000 0.000000
0.000000 0.000000 0.000000
0.000000 0.000000 0.000000
0.000000 0.000000 0.000000
0.000000 0.000000 0.000000
0.000000 0.000000 0.000000
0.000000 0.000000 0.000000
0.000000 0.000000 0.000000
0.000000 0.000000 0.000000
0.000000 0.000000 0.000000
0.000000 0.000000 0.000000
0.000000 0.000000 0.000000
0.000000 0.000000 0.000000
0.000000 0.000000 0.000000
0.000000 0.000000 0.000000
0.000000 0.000000 0.000000
0.000000 0.000000 0.000000
0.000000 0.000000 0.000000
0.000000 0.000000 0.000000
0.000000 0.000000 0.000000
0.000000 0.000000 0.000000
0.000000 0.000000 0.000000
0.000000 0.000000 0.000000
0.000000 0.000000 0.000000
0.000000 0.000000 0.000000
0.000000 0.000000 0.000000
0.000000 0.000000 0.000000
0.000000 0.000000 0.000000
0.000000 0.000000 0.000000
0.000000 0.000000 0.000000
0.000000 0.000000 0.000000
0.000000 0.000000 0.000000
0.000000 0.000000 0.000000
0.000000 0.000000 0.000000
0.000000 0.000000 0.000000
0.000000 0.000000 0.000000
0.000000 0.000000 0.000000
0.000000 0.000000 0.000000
0.000000 0.000000 0.000000
0.000000 0.000000 0.000000
0.000000 0.000000 0.000000
0.000000 0.000000 0.000000
0.000000 0.000000 0.000000
0.000000 0.000000 0.000000
0.000000 0.000000 0.000000
0.000000 0.000000 0.000000
0.000000 0.000000 0.000000
0.000000 0.000000 0.000000
0.000000 0.000000 0.000000
0.000000 0.000000 0.000000
0.000000 0.000000 0.000000
0.000000 0.000000 0.000000
0.000000 0.000000 0.000000
0.000000 0.000000 0.000000
0.000000 0.000000 0.000000
0.000000 0.000000 0.000000
0.000000 0.000000 0.000000
0.000000 0.000000 0.000000
0.000000 0.000000 0.000000
0.000000 0.000000 0.000000
0.000000 0.000000 0.000000
0.000000 0.000000 0.000000
0.000000 0.000000 0.000000
0.000000 0.000000 0.000000
0.000000 0.000000 0.000000
0.000000 0.000000 0.000000
0.000000 0.000000 0.000000
0.000000 0.000000 0.000000
0.000000 0.000000 0.000000
0.000000 0.000000 0.000000
0.000000 0.000000 0.000000
0.000000 0.000000 0.000000
0.000000 0.000000 0.000000
0.000000 0.000000 0.000000
0.000000 0.000000 0.000000
0.000000 0.000000 0.000000
0.000000 0.000000 0.000000
0.000000 0.000000 0.000000
0.000000 0.000000 0.000000
0.000000 0.000000 0.000000
0.000000 0.000000 0.000000
0.000000 0.000000 0.000000
0.000000 0.000000 0.000000
0.000000 0.000000 0.000000
0.000000 0.000000 0.000000
0.000000 0.000000 0.000000
0.000000 0.000000 0.000000
0.000000 0.000000 0.000000
0.000000 0.000000 0.000000
0.000000 0.000000 0.000000
0.000000 0.000000 0.000000
0.000000 0.000000 0.000000
0.000000 0.000000 0.000000
0.000000 0.000000 0.000000
0.000000 0.000000 0.000000
0.000000 0.000000 0.000000
