Ti96 Al1                                
   1.00000000000000     
     9.5130199999999991    0.0000000000000000    0.0000000000000000
     0.0000000000000000    9.3508600000000008    0.0000000000000000
     0.0000000000000000    0.0000000000000000   18.5472299999999990
   Ti   Al
    96     1
Selective dynamics
Direct
  0.1330581487425735  0.3583853295347999  0.4046497429597074   T   T   T
  0.6504960922396368  0.3662431295008254  0.3990863784954733   T   T   T
  0.1748912224702585  0.8645921612085199  0.3984396666951999   T   T   T
  0.6830136553261501  0.9222350442656794  0.3931050918003199   T   T   T
  0.1605534007168049  0.3790991766602639  0.2378567666265427   T   T   T
  0.6645667648922163  0.3749804050065803  0.2325311025316874   T   T   T
  0.1634133268220333  0.8761533381035621  0.2353283701959584   T   T   T
  0.6637014307960639  0.8730713655803299  0.2368833821251507   T   T   T
  0.1666659999999993  0.3750000000000000  0.0776889999999995   F   F   F
  0.6666659999999993  0.3750000000000000  0.0776889999999995   F   F   F
  0.1666659999999993  0.8750000000000000  0.0776889999999995   F   F   F
  0.6666659999999993  0.8750000000000000  0.0776889999999995   F   F   F
  0.4078323744965104  0.3673026793111079  0.3096742658999470   T   T   T
  0.9055544179880274  0.3741397035590900  0.3154881738425103   T   T   T
  0.4159190241108471  0.8831410253056431  0.3159437664896297   T   T   T
  0.9178630320695623  0.8765763187067115  0.3186811555564406   T   T   T
  0.4166669999999968  0.3750000000000000  0.1553790000000035   F   F   F
  0.9166669999999968  0.3750000000000000  0.1553790000000035   F   F   F
  0.4166669999999968  0.8750000000000000  0.1553790000000035   F   F   F
  0.9166669999999968  0.8750000000000000  0.1553790000000035   F   F   F
  0.4166669999999968  0.3750000000000000  0.0000000000000000   F   F   F
  0.9166669999999968  0.3750000000000000  0.0000000000000000   F   F   F
  0.4166669999999968  0.8750000000000000  0.0000000000000000   F   F   F
  0.9166669999999968  0.8750000000000000  0.0000000000000000   F   F   F
  0.0944455820119729  0.1258602964409101  0.3154871738425057   T   T   T
  0.5921676255034899  0.1326973206888921  0.3096732658999424   T   T   T
  0.0821369679304375  0.6234236812932885  0.3186801555564360   T   T   T
  0.5840809758891530  0.6168589746943569  0.3159427664896252   T   T   T
  0.0833330000000032  0.1250000000000000  0.1553790000000035   F   F   F
  0.5833330000000032  0.1250000000000000  0.1553790000000035   F   F   F
  0.0833330000000032  0.6250000000000000  0.1553790000000035   F   F   F
  0.5833330000000032  0.6250000000000000  0.1553790000000035   F   F   F
  0.0833330000000032  0.1250000000000000  0.0000000000000000   F   F   F
  0.5833330000000032  0.1250000000000000  0.0000000000000000   F   F   F
  0.0833330000000032  0.6250000000000000  0.0000000000000000   F   F   F
  0.5833330000000032  0.6250000000000000  0.0000000000000000   F   F   F
  0.3495029077603660  0.1337568704991747  0.3990863784954733   T   T   T
  0.8669408512574290  0.1416146704652002  0.4046497429597074   T   T   T
  0.3169853446738526  0.5777649557343206  0.3931050918003199   T   T   T
  0.8251077775297438  0.6354078387914801  0.3984396666951999   T   T   T
  0.3354322351077859  0.1250195949934199  0.2325311025316874   T   T   T
  0.8394455992831980  0.1209008233397364  0.2378567666265427   T   T   T
  0.3362975692039386  0.6269286344196701  0.2368833821251507   T   T   T
  0.8365856731779692  0.6238466618964379  0.2353283701959584   T   T   T
  0.3333330000000032  0.1250000000000000  0.0776889999999995   F   F   F
  0.8333330000000032  0.1250000000000000  0.0776889999999995   F   F   F
  0.3333330000000032  0.6250000000000000  0.0776889999999995   F   F   F
  0.8333330000000032  0.6250000000000000  0.0776889999999995   F   F   F
  0.3750000000000000  0.3750000000000000  0.8237379999999987   F   F   F
  0.8750000000000000  0.3750000000000000  0.8237379999999987   F   F   F
  0.3750000000000000  0.8750000000000000  0.8237379999999987   F   F   F
  0.8750000000000000  0.8750000000000000  0.8237379999999987   F   F   F
  0.1250000000000000  0.1250000000000000  0.8237379999999987   F   F   F
  0.6250000000000000  0.1250000000000000  0.8237379999999987   F   F   F
  0.1250000000000000  0.6250000000000000  0.8237379999999987   F   F   F
  0.6250000000000000  0.6250000000000000  0.8237379999999987   F   F   F
  0.1250000000000000  0.3750000000000000  0.9100839999999977   F   F   F
  0.6250000000000000  0.3750000000000000  0.9100839999999977   F   F   F
  0.1250000000000000  0.8750000000000000  0.9100839999999977   F   F   F
  0.6250000000000000  0.8750000000000000  0.9100839999999977   F   F   F
  0.3750000000000000  0.1250000000000000  0.9100839999999977   F   F   F
  0.8750000000000000  0.1250000000000000  0.9100839999999977   F   F   F
  0.3750000000000000  0.6250000000000000  0.9100839999999977   F   F   F
  0.8750000000000000  0.6250000000000000  0.9100839999999977   F   F   F
  0.3928085528479393  0.4074151385251770  0.6499797206988001   T   T   T
  0.9019917452523609  0.3745131917025774  0.6490495381314587   T   T   T
  0.3841147919324256  0.8841731699380583  0.6548147286600299   T   T   T
  0.8780858390544645  0.8827432508347366  0.6653379269441574   T   T   T
  0.0980082547476393  0.1254868082974225  0.6490495381314587   T   T   T
  0.6071914471520607  0.0925848614748227  0.6499797206988001   T   T   T
  0.1219141609455355  0.6172567491652634  0.6653379269441574   T   T   T
  0.6158852080675743  0.6158268300619417  0.6548147286600299   T   T   T
  0.1519469207759626  0.3914537970892136  0.5655357504184496   T   T   T
  0.6507298446879358  0.3406327662580958  0.5854561037005565   T   T   T
  0.1229606479167248  0.8586707529592599  0.5813263585384828   T   T   T
  0.6459003207095909  0.8507579667161982  0.5595444314981370   T   T   T
  0.3492701553120638  0.1593672337419043  0.5854561037005565   T   T   T
  0.8480530792240375  0.1085462029107864  0.5655357504184496   T   T   T
  0.3540996792904094  0.6492420332838018  0.5595444314981370   T   T   T
  0.8770393520832754  0.6413292470407401  0.5813263585384828   T   T   T
  0.4057966426075418  0.3750797281702518  0.4908468270843975   T   T   T
  0.8909189757483419  0.3739988088546615  0.4928852085469559   T   T   T
  0.3581003966249703  0.9339725956781691  0.5055230926997596   T   T   T
  0.9139211155349568  0.8748670947082349  0.4764661341842463   T   T   T
  0.1090810242516583  0.1260011911453386  0.4928852085469559   T   T   T
  0.5942033573924579  0.1249202718297481  0.4908468270843975   T   T   T
  0.0860788844650430  0.6251329052917651  0.4764661341842463   T   T   T
  0.6418996033750302  0.5660274043218309  0.5055230926997596   T   T   T
  0.1250000000000000  0.8750000000000000  0.7373949999999994   F   F   F
  0.6250000000000000  0.8750000000000000  0.7373949999999994   F   F   F
  0.3750000000000000  0.6250000000000000  0.7373949999999994   F   F   F
  0.8750000000000000  0.6250000000000000  0.7373949999999994   F   F   F
  0.1250000000000000  0.3750000000000000  0.7373949999999994   F   F   F
  0.6250000000000000  0.3750000000000000  0.7373949999999994   F   F   F
  0.3750000000000000  0.1250000000000000  0.7373949999999994   F   F   F
  0.8750000000000000  0.1250000000000000  0.7373949999999994   F   F   F
  0.5000000000000000  0.7500000000000000  0.4376052870526719   T   T   T
 
  0.00000000E+00  0.00000000E+00  0.00000000E+00
  0.00000000E+00  0.00000000E+00  0.00000000E+00
  0.00000000E+00  0.00000000E+00  0.00000000E+00
  0.00000000E+00  0.00000000E+00  0.00000000E+00
  0.00000000E+00  0.00000000E+00  0.00000000E+00
  0.00000000E+00  0.00000000E+00  0.00000000E+00
  0.00000000E+00  0.00000000E+00  0.00000000E+00
  0.00000000E+00  0.00000000E+00  0.00000000E+00
  0.00000000E+00  0.00000000E+00  0.00000000E+00
  0.00000000E+00  0.00000000E+00  0.00000000E+00
  0.00000000E+00  0.00000000E+00  0.00000000E+00
  0.00000000E+00  0.00000000E+00  0.00000000E+00
  0.00000000E+00  0.00000000E+00  0.00000000E+00
  0.00000000E+00  0.00000000E+00  0.00000000E+00
  0.00000000E+00  0.00000000E+00  0.00000000E+00
  0.00000000E+00  0.00000000E+00  0.00000000E+00
  0.00000000E+00  0.00000000E+00  0.00000000E+00
  0.00000000E+00  0.00000000E+00  0.00000000E+00
  0.00000000E+00  0.00000000E+00  0.00000000E+00
  0.00000000E+00  0.00000000E+00  0.00000000E+00
  0.00000000E+00  0.00000000E+00  0.00000000E+00
  0.00000000E+00  0.00000000E+00  0.00000000E+00
  0.00000000E+00  0.00000000E+00  0.00000000E+00
  0.00000000E+00  0.00000000E+00  0.00000000E+00
  0.00000000E+00  0.00000000E+00  0.00000000E+00
  0.00000000E+00  0.00000000E+00  0.00000000E+00
  0.00000000E+00  0.00000000E+00  0.00000000E+00
  0.00000000E+00  0.00000000E+00  0.00000000E+00
  0.00000000E+00  0.00000000E+00  0.00000000E+00
  0.00000000E+00  0.00000000E+00  0.00000000E+00
  0.00000000E+00  0.00000000E+00  0.00000000E+00
  0.00000000E+00  0.00000000E+00  0.00000000E+00
  0.00000000E+00  0.00000000E+00  0.00000000E+00
  0.00000000E+00  0.00000000E+00  0.00000000E+00
  0.00000000E+00  0.00000000E+00  0.00000000E+00
  0.00000000E+00  0.00000000E+00  0.00000000E+00
  0.00000000E+00  0.00000000E+00  0.00000000E+00
  0.00000000E+00  0.00000000E+00  0.00000000E+00
  0.00000000E+00  0.00000000E+00  0.00000000E+00
  0.00000000E+00  0.00000000E+00  0.00000000E+00
  0.00000000E+00  0.00000000E+00  0.00000000E+00
  0.00000000E+00  0.00000000E+00  0.00000000E+00
  0.00000000E+00  0.00000000E+00  0.00000000E+00
  0.00000000E+00  0.00000000E+00  0.00000000E+00
  0.00000000E+00  0.00000000E+00  0.00000000E+00
  0.00000000E+00  0.00000000E+00  0.00000000E+00
  0.00000000E+00  0.00000000E+00  0.00000000E+00
  0.00000000E+00  0.00000000E+00  0.00000000E+00
  0.00000000E+00  0.00000000E+00  0.00000000E+00
  0.00000000E+00  0.00000000E+00  0.00000000E+00
  0.00000000E+00  0.00000000E+00  0.00000000E+00
  0.00000000E+00  0.00000000E+00  0.00000000E+00
  0.00000000E+00  0.00000000E+00  0.00000000E+00
  0.00000000E+00  0.00000000E+00  0.00000000E+00
  0.00000000E+00  0.00000000E+00  0.00000000E+00
  0.00000000E+00  0.00000000E+00  0.00000000E+00
  0.00000000E+00  0.00000000E+00  0.00000000E+00
  0.00000000E+00  0.00000000E+00  0.00000000E+00
  0.00000000E+00  0.00000000E+00  0.00000000E+00
  0.00000000E+00  0.00000000E+00  0.00000000E+00
  0.00000000E+00  0.00000000E+00  0.00000000E+00
  0.00000000E+00  0.00000000E+00  0.00000000E+00
  0.00000000E+00  0.00000000E+00  0.00000000E+00
  0.00000000E+00  0.00000000E+00  0.00000000E+00
  0.00000000E+00  0.00000000E+00  0.00000000E+00
  0.00000000E+00  0.00000000E+00  0.00000000E+00
  0.00000000E+00  0.00000000E+00  0.00000000E+00
  0.00000000E+00  0.00000000E+00  0.00000000E+00
  0.00000000E+00  0.00000000E+00  0.00000000E+00
  0.00000000E+00  0.00000000E+00  0.00000000E+00
  0.00000000E+00  0.00000000E+00  0.00000000E+00
  0.00000000E+00  0.00000000E+00  0.00000000E+00
  0.00000000E+00  0.00000000E+00  0.00000000E+00
  0.00000000E+00  0.00000000E+00  0.00000000E+00
  0.00000000E+00  0.00000000E+00  0.00000000E+00
  0.00000000E+00  0.00000000E+00  0.00000000E+00
  0.00000000E+00  0.00000000E+00  0.00000000E+00
  0.00000000E+00  0.00000000E+00  0.00000000E+00
  0.00000000E+00  0.00000000E+00  0.00000000E+00
  0.00000000E+00  0.00000000E+00  0.00000000E+00
  0.00000000E+00  0.00000000E+00  0.00000000E+00
  0.00000000E+00  0.00000000E+00  0.00000000E+00
  0.00000000E+00  0.00000000E+00  0.00000000E+00
  0.00000000E+00  0.00000000E+00  0.00000000E+00
  0.00000000E+00  0.00000000E+00  0.00000000E+00
  0.00000000E+00  0.00000000E+00  0.00000000E+00
  0.00000000E+00  0.00000000E+00  0.00000000E+00
  0.00000000E+00  0.00000000E+00  0.00000000E+00
  0.00000000E+00  0.00000000E+00  0.00000000E+00
  0.00000000E+00  0.00000000E+00  0.00000000E+00
  0.00000000E+00  0.00000000E+00  0.00000000E+00
  0.00000000E+00  0.00000000E+00  0.00000000E+00
  0.00000000E+00  0.00000000E+00  0.00000000E+00
  0.00000000E+00  0.00000000E+00  0.00000000E+00
  0.00000000E+00  0.00000000E+00  0.00000000E+00
  0.00000000E+00  0.00000000E+00  0.00000000E+00
  0.00000000E+00  0.00000000E+00  0.00000000E+00
