total_structure
1.0
   3.5062000000000002    0.0000000000000000    0.0000000000000002
   0.0000000000000019   12.0001999999999995    0.0000000000000007
   0.0000000000000000    0.0000000000000000   31.8249410619999971
Cr Fe N
24 36 24
Selective dynamics
direct
   0.1440500000000000    0.0017200000000000    0.3698507412180043 T T T Cr
   0.6440500000000000    0.3767200000000000    0.2988751735775328 T T T Cr
   0.6440500000000000    0.1267200000000000    0.2988751735775328 T T T Cr
   0.1440500000000000    0.2517200000000000    0.3698507412180043 T T T Cr
   0.1440500000000000    0.0017200000000000    0.2278996059370613 T T T Cr
   0.6440500000000000    0.3767200000000000    0.1569331459018304 F F F Cr
   0.6440500000000000    0.1267200000000000    0.1569331459018304 F F F Cr
   0.1440500000000000    0.2517200000000000    0.2278996059370613 T T T Cr
   0.1440500000000000    0.5017199999999999    0.3698507412180043 T T T Cr
   0.6440500000000000    0.8767200000000001    0.2988751735775328 T T T Cr
   0.6440500000000000    0.6267199999999999    0.2988751735775328 T T T Cr
   0.1440500000000000    0.7517199999999999    0.3698507412180043 T T T Cr
   0.1440500000000000    0.5017199999999999    0.2278996059370613 T T T Cr
   0.6440500000000000    0.8767200000000001    0.1569331459018304 F F F Cr
   0.6440500000000000    0.6267199999999999    0.1569331459018304 F F F Cr
   0.1440500000000000    0.7517199999999999    0.2278996059370613 T T T Cr
   0.1275900000000000    0.0033700000000000    0.0860668695242469 F F F Cr
   0.6275900000000000    0.3783700000000000    0.0150913018837753 F F F Cr
   0.6275900000000000    0.1283700000000000    0.0150913018837753 F F F Cr
   0.1275900000000000    0.2533700000000000    0.0860668695242469 F F F Cr
   0.1275900000000000    0.5033700000000000    0.0860668695242469 F F F Cr
   0.6275900000000000    0.8783700000000000    0.0150913018837753 F F F Cr
   0.6275900000000000    0.6283700000000000    0.0150913018837753 F F F Cr
   0.1275900000000000    0.7533699999999999    0.0860668695242469 F F F Cr
   0.1373800000000000    0.7201700000000000    0.8182304146068871 F F F Fe
   0.6373799999999998    0.5560300000000000    0.8064633886359529 F F F Fe
   0.6373799999999998    0.7408799999999999    0.7704792403301012 F F F Fe
   0.1373800000000000    0.5767400000000000    0.7587213219644077 F F F Fe
   0.1373800000000000    0.3919000000000000    0.7947054702702595 F F F Fe
   0.6373799999999999    0.2277600000000000    0.7829384442993255 F F F Fe
   0.6373799999999999    0.4126100000000000    0.7469542959934736 F F F Fe
   0.1373800000000000    0.2484800000000000    0.7351963776277803 F F F Fe
   0.1373800000000000    0.0636300000000000    0.7711805259336320 F F F Fe
   0.6373799999999999    0.8994900000000000    0.7594134999626980 F F F Fe
   0.6373799999999999    0.0843400000000000    0.7234293516568462 F F F Fe
   0.1373800000000000    0.9202099999999999    0.7116714332911528 F F F Fe
   0.1373800000000000    0.7615900000000000    0.7227280660533152 F F F Fe
   0.6373799999999999    0.5974600000000000    0.7109701476876219 F F F Fe
   0.6373799999999998    0.7823099999999999    0.6749859993817701 F F F Fe
   0.1373800000000000    0.6181700000000000    0.6632189734108360 F F F Fe
   0.1373800000000000    0.4333199999999999    0.6992031217166879 F F F Fe
   0.6373799999999999    0.2691900000000000    0.6874452033509943 F F F Fe
   0.6373799999999999    0.4540399999999999    0.6514610550451427 F F F Fe
   0.1373800000000000    0.2899000000000000    0.6396940290742086 F F F Fe
   0.1373800000000000    0.1050500000000000    0.6756781773800603 F F F Fe
   0.6373799999999998    0.9409200000000000    0.6639202590143670 F F F Fe
   0.6373799999999999    0.1257700000000000    0.6279361107085152 F F F Fe
   0.1373800000000000    0.9616299999999999    0.6161690847375810 T T T Fe
   0.1373800000000000    0.8030199999999998    0.6272348251049843 F F F Fe
   0.6373799999999999    0.6388900000000000    0.6154677991340503 T T T Fe
   0.6373799999999999    0.8237400000000000    0.5794836508281984 T T T Fe
   0.1373800000000000    0.6595999999999999    0.5677257324625050 T T T Fe
   0.1373800000000000    0.4747499999999999    0.6037098807683569 T T T Fe
   0.6373799999999998    0.3106200000000000    0.5919428547974227 T T T Fe
   0.6373799999999999    0.4954700000000000    0.5559587064915710 T T T Fe
   0.1373800000000000    0.3313300000000000    0.5442007881258775 T T T Fe
   0.1373800000000000    0.1464800000000000    0.5801849364317294 T T T Fe
   0.6373799999999998    0.9823499999999998    0.5684179104607952 T T T Fe
   0.6373799999999999    0.1672000000000000    0.5324337621549434 T T T Fe
   0.1373800000000000    0.0030600000000000    0.5206758437892500 T T T Fe
   0.6440500000000000    0.3767200000000000    0.3698507412180043 T T T N
   0.1440500000000000    0.0017200000000000    0.2988751735775328 T T T N
   0.1440500000000000    0.2517200000000000    0.2988751735775328 T T T N
   0.6440500000000000    0.1267200000000000    0.3698507412180043 T T T N
   0.6440500000000000    0.3767200000000000    0.2278996059370613 T T T N
   0.1440500000000000    0.0017200000000000    0.1569331459018304 F F F N
   0.1440500000000000    0.2517200000000000    0.1569331459018304 F F F N
   0.6440500000000000    0.1267200000000000    0.2278996059370613 T T T N
   0.6440500000000000    0.8767200000000001    0.3698507412180043 T T T N
   0.1440500000000000    0.5017199999999999    0.2988751735775328 T T T N
   0.1440500000000000    0.7517199999999999    0.2988751735775328 T T T N
   0.6440500000000000    0.6267199999999999    0.3698507412180043 T T T N
   0.6440500000000000    0.8767200000000001    0.2278996059370613 T T T N
   0.1440500000000000    0.5017199999999999    0.1569331459018304 F F F N
   0.1440500000000000    0.7517199999999999    0.1569331459018304 F F F N
   0.6440500000000000    0.6267199999999999    0.2278996059370613 T T T N
   0.6275900000000000    0.3783700000000000    0.0860668695242469 F F F N
   0.1275900000000000    0.0033700000000000    0.0150913018837753 F F F N
   0.1275900000000000    0.2533700000000000    0.0150913018837753 F F F N
   0.6275900000000000    0.1283700000000000    0.0860668695242468 F F F N
   0.6275900000000000    0.8783700000000000    0.0860668695242469 F F F N
   0.1275900000000000    0.5033700000000000    0.0150913018837753 F F F N
   0.1275900000000000    0.7533699999999999    0.0150913018837753 F F F N
   0.6275900000000000    0.6283700000000000    0.0860668695242469 F F F N
