substance_top
1.0
   3.0750000000000002    0.0000000000000000    0.0000000000000002
   0.0000000000000026   16.0000000000000000    0.0000000000000010
   0.0000000000000000    0.0000000000000000   55.5109925000000004
Fe W
54 6
Selective dynamics
direct
   0.3530400000000000    0.0286600000000000    0.3926516266125129 T T T Fe
   0.3478800000000001    0.1409000000000000    0.4368237786416808 T T T Fe
   0.3467900000000000    0.0900100000000000    0.5113362096705442 F F F Fe
   0.3427100000000000    0.2531300000000000    0.4810052891776345 T T T Fe
   0.3457200000000000    0.0391300000000000    0.5858392821926216 F F F Fe
   0.3416299999999999    0.2022400000000000    0.5555177202064979 F F F Fe
   0.3375500000000000    0.3653700000000000    0.5251867997135884 F F F Fe
   0.3489500000000000    0.1917800000000000    0.3623207061196033 T T T Fe
   0.3437799999999999    0.3040200000000000    0.4065022166555570 T T T Fe
   0.3396900000000000    0.4671400000000000    0.3761806546694333 T T T Fe
   0.3386200000000000    0.4162500000000000    0.4506743686847250 T T T Fe
   0.3345300000000000    0.5793800000000000    0.4203528066986013 T T T Fe
   0.3304300000000000    0.7425000000000000    0.3900312447124775 T T T Fe
   0.3334500000000000    0.5284799999999999    0.4948652377274645 F F F Fe
   0.3293600000000000    0.6916099999999999    0.4645343172345550 T T T Fe
   0.3252700000000000    0.8547400000000001    0.4342033967416454 T T T Fe
   0.3405600000000000    0.1513600000000000    0.6300207927285754 F F F Fe
   0.3364600000000000    0.3144800000000000    0.5996898722356658 F F F Fe
   0.3323800000000000    0.4776000000000000    0.5693683102495422 F F F Fe
   0.3272200000000001    0.5898400000000000    0.6135498207854958 F F F Fe
   0.3282900000000000    0.6407200000000000    0.5390373897566325 F F F Fe
   0.3242000000000000    0.8038500000000000    0.5087158277705087 F F F Fe
   0.3200999999999999    0.9669700000000000    0.4783849072775991 T T T Fe
   0.3231200000000000    0.7529500000000000    0.5832189002925862 F F F Fe
   0.3190300000000000    0.9160800000000000    0.5528973383064625 F F F Fe
   0.3179600000000000    0.8652000000000000    0.6274004108285399 F F F Fe
   0.8304500000000001    0.1161200000000000    0.4741361451968275 T T T Fe
   0.8293800000000001    0.0652400000000000    0.5486392177189051 F F F Fe
   0.8252899999999999    0.2283500000000000    0.5183176557327812 F F F Fe
   0.8366900000000000    0.0547800000000000    0.3554515621387963 T T T Fe
   0.8315300000000000    0.1670100000000000    0.3996237141679642 T T T Fe
   0.8274300000000000    0.3301300000000000    0.3693021521818405 T T T Fe
   0.8263600000000000    0.2792400000000000    0.4438052247039179 T T T Fe
   0.8222699999999999    0.4423600000000000    0.4134836627177942 T T T Fe
   0.8181899999999999    0.6054900000000000    0.3831527422248846 T T T Fe
   0.8212000000000000    0.3914800000000000    0.4879867352398717 F F F Fe
   0.8171000000000000    0.5546000000000000    0.4576558147469621 T T T Fe
   0.8130200000000001    0.7177200000000000    0.4273342527608384 T T T Fe
   0.8089300000000000    0.8808500000000000    0.3970033322679287 T T T Fe
   0.8283100000000001    0.0143500000000000    0.6231516487477683 F F F Fe
   0.8242200000000000    0.1774700000000000    0.5928300867616445 F F F Fe
   0.8201200000000000    0.3405900000000000    0.5624898077619491 F F F Fe
   0.8149600000000001    0.4528200000000000    0.6066806768046886 F F F Fe
   0.8160300000000000    0.5037100000000000    0.5321682457758254 F F F Fe
   0.8119400000000000    0.6668300000000000    0.5018466837897018 F F F Fe
   0.8078600000000001    0.8299600000000000    0.4715064047900063 T T T Fe
   0.8030800000000000    0.0063900000000000    0.4293463317197941 T T T Fe
   0.8108699999999999    0.6159500000000000    0.5763403978049934 F F F Fe
   0.8067699999999999    0.7790700000000000    0.5460188358188696 F F F Fe
   0.8026899999999999    0.9421900000000000    0.5156972738327459 F F F Fe
   0.8057000000000000    0.7281800000000000    0.6205312668477330 F F F Fe
   0.8016100000000000    0.8913000000000000    0.5902003463548233 F F F Fe
   0.3238700000000000    0.9110900000000000    0.3600372304638582 T T T Fe
   0.8118499999999998    0.7695300000000000    0.3527937462116174 T T T Fe
   0.3310199999999999    0.7398700000000000    0.3201606330493911 T T T W
   0.8235800000000000    0.9073300000000000    0.3208063700176141 T T T W
   0.3457900000000000    0.4065500000000000    0.3201606330493911 T T T W
   0.8383500000000002    0.5740100000000000    0.3208063700176141 T T T W
   0.3605600000000000    0.0732200000000000    0.3201606330493911 T T T W
   0.8531199999999999    0.2406800000000000    0.3208063700176141 T T T W
