total_structure
1.0
   3.5062000000000002    0.0000000000000000    0.0000000000000002
   0.0000000000000019   12.0001999999999995    0.0000000000000007
   0.0000000000000000    0.0000000000000000   31.8249410619999971
Cr Fe Mo N
20 36 4 24
Selective dynamics
direct
   0.6482100000000000    0.3787300000000000    0.2988842811827735 T T T Cr
   0.6482100000000000    0.1287300000000000    0.2988842811827735 T T T Cr
   0.1482100000000000    0.0037300000000000    0.2279178211475426 T T T Cr
   0.6482100000000000    0.3787300000000000    0.1569422535070711 F F F Cr
   0.6482100000000000    0.1287300000000000    0.1569422535070711 F F F Cr
   0.1482100000000000    0.2537300000000000    0.2279178211475426 T T T Cr
   0.6482100000000000    0.8787300000000000    0.2988842811827735 T T T Cr
   0.6482100000000000    0.6287300000000000    0.2988842811827735 T T T Cr
   0.1482100000000000    0.5037300000000000    0.2279178211475426 T T T Cr
   0.6482100000000000    0.8787300000000000    0.1569422535070711 F F F Cr
   0.6482100000000000    0.6287300000000000    0.1569422535070711 F F F Cr
   0.1482100000000000    0.7537299999999999    0.2279178211475426 T T T Cr
   0.1317400000000000    0.0053800000000000    0.0860759771294875 F F F Cr
   0.6317400000000001    0.3803800000000000    0.0151004094890160 F F F Cr
   0.6317400000000000    0.1303800000000000    0.0151004094890160 F F F Cr
   0.1317400000000000    0.2553800000000000    0.0860759771294875 F F F Cr
   0.1317400000000000    0.5053800000000001    0.0860759771294875 F F F Cr
   0.6317400000000001    0.8803800000000001    0.0151004094890160 F F F Cr
   0.6317400000000001    0.6303800000000001    0.0151004094890160 F F F Cr
   0.1317400000000000    0.7553800000000001    0.0860759771294875 F F F Cr
   0.1415300000000000    0.7221700000000000    0.8182395222121276 F F F Fe
   0.6415299999999999    0.5580400000000000    0.8064816038464343 F F F Fe
   0.6415299999999999    0.7428899999999999    0.7704883479353417 F F F Fe
   0.1415300000000000    0.5787500000000000    0.7587304295696484 F F F Fe
   0.1415300000000000    0.3939000000000000    0.7947145778755000 F F F Fe
   0.6415300000000000    0.2297700000000000    0.7829566595098068 F F F Fe
   0.6415300000000000    0.4146200000000000    0.7469634035987143 F F F Fe
   0.1415300000000000    0.2504800000000000    0.7352054852330209 F F F Fe
   0.1415300000000000    0.0656300000000000    0.7711896335388727 F F F Fe
   0.6415300000000000    0.9015000000000000    0.7594317151731792 F F F Fe
   0.6415300000000000    0.0863500000000000    0.7234384592620868 F F F Fe
   0.1415300000000000    0.9222099999999999    0.7116805408963934 F F F Fe
   0.1415300000000000    0.7635999999999999    0.7227462812637966 F F F Fe
   0.6415300000000000    0.5994699999999999    0.7109792552928625 F F F Fe
   0.6415299999999999    0.7843100000000000    0.6749951069870108 F F F Fe
   0.1415300000000000    0.6201800000000000    0.6632280810160767 F F F Fe
   0.1415300000000000    0.4353300000000000    0.6992213369271691 F F F Fe
   0.6415300000000000    0.2712000000000000    0.6874543109562351 F F F Fe
   0.6415300000000000    0.4560500000000000    0.6514701626503833 F F F Fe
   0.1415300000000000    0.2919100000000000    0.6397031366794492 F F F Fe
   0.1415300000000000    0.1070600000000000    0.6756963925905417 F F F Fe
   0.6415299999999999    0.9429300000000000    0.6639293666196076 F F F Fe
   0.6415300000000000    0.1277800000000000    0.6279452183137558 T T T Fe
   0.1415300000000000    0.9636399999999999    0.6161781923428218 T T T Fe
   0.1415300000000000    0.8050300000000000    0.6272439327102249 T T T Fe
   0.6415300000000000    0.6408900000000000    0.6154860143445315 T T T Fe
   0.6415300000000000    0.8257400000000000    0.5794927584334392 T T T Fe
   0.1415300000000000    0.6616100000000000    0.5677348400677455 T T T Fe
   0.1415300000000000    0.4767600000000000    0.6037189883735975 T T T Fe
   0.6415299999999999    0.3126200000000000    0.5919610700079041 T T T Fe
   0.6415300000000000    0.4974700000000000    0.5559678140968116 T T T Fe
   0.1415300000000000    0.3333333333333333    0.5442098957311182 T T T Fe
   0.1415300000000000    0.1484900000000000    0.5801940440369699 T T T Fe
   0.6415299999999999    0.9843499999999999    0.5684361256712767 T T T Fe
   0.6415300000000000    0.1692000000000000    0.5324428697601841 T T T Fe
   0.1415300000000000    0.0050700000000000    0.5206849513944908 T T T Fe
   0.1482100000000000    0.0037300000000000    0.3698598488232450 T T T Mo
   0.1482100000000000    0.2537300000000000    0.3698598488232450 T T T Mo
   0.1482100000000000    0.5037300000000000    0.3698598488232450 T T T Mo
   0.1482100000000000    0.7537299999999999    0.3698598488232450 T T T Mo
   0.6482100000000000    0.3787300000000000    0.3698598488232450 T T T N
   0.1482100000000000    0.0037300000000000    0.2988842811827735 T T T N
   0.1482100000000000    0.2537300000000000    0.2988842811827735 T T T N
   0.6482100000000000    0.1287300000000000    0.3698598488232450 T T T N
   0.6482100000000000    0.3787300000000000    0.2279178211475426 T T T N
   0.1482100000000000    0.0037300000000000    0.1569422535070711 F F F N
   0.1482100000000000    0.2537300000000000    0.1569422535070711 F F F N
   0.6482100000000000    0.1287300000000000    0.2279178211475426 T T T N
   0.6482100000000000    0.8787300000000000    0.3698598488232450 T T T N
   0.1482100000000000    0.5037300000000000    0.2988842811827735 T T T N
   0.1482100000000000    0.7537299999999999    0.2988842811827735 T T T N
   0.6482100000000000    0.6287300000000000    0.3698598488232450 T T T N
   0.6482100000000000    0.8787300000000000    0.2279178211475426 T T T N
   0.1482100000000000    0.5037300000000000    0.1569422535070711 F F F N
   0.1482100000000000    0.7537299999999999    0.1569422535070711 F F F N
   0.6482100000000000    0.6287300000000000    0.2279178211475426 T T T N
   0.6317400000000001    0.3803800000000000    0.0860759771294875 F F F N
   0.1317400000000000    0.0053800000000000    0.0151004094890160 F F F N
   0.1317400000000000    0.2553800000000000    0.0151004094890160 F F F N
   0.6317400000000000    0.1303800000000000    0.0860759771294875 F F F N
   0.6317400000000001    0.8803800000000001    0.0860759771294875 F F F N
   0.1317400000000000    0.5053800000000001    0.0151004094890160 F F F N
   0.1317400000000000    0.7553800000000001    0.0151004094890160 F F F N
   0.6317400000000001    0.6303800000000001    0.0860759771294875 F F F N
