total_structure
1.0
   2.9630000000000001    0.0000000000000000    0.0000000000000002
   0.0000000000000025   15.3989999999999991    0.0000000000000009
   0.0000000000000000    0.0000000000000000   52.1920000000000002
Cr Fe N
36 52 36
Selective dynamics
direct
   0.3179800000000000    0.8541699999999999    0.1696907572041692 T T T Cr
   0.3171400000000000    0.9636600000000000    0.2163837369711833 T T T Cr
   0.8244300000000000    0.7978400000000000    0.2160388565297363 T T T Cr
   0.3310200000000000    0.7398700000000000    0.2620708154506438 T T T Cr
   0.8235799999999999    0.9073299999999999    0.2627318362967505 T T T Cr
   0.3327500000000000    0.5208500000000000    0.1696907572041692 T T T Cr
   0.3319100000000000    0.6303400000000000    0.2163837369711833 T T T Cr
   0.8252700000000001    0.6883500000000000    0.1693554567749846 T T T Cr
   0.8391900000000002    0.4645200000000000    0.2160388565297363 T T T Cr
   0.3457900000000000    0.4065500000000000    0.2620708154506438 T T T Cr
   0.8383500000000000    0.5740100000000000    0.2627318362967505 T T T Cr
   0.3475200000000000    0.1875300000000000    0.1696907572041692 T T T Cr
   0.3466800000000000    0.2970200000000000    0.2163837369711833 T T T Cr
   0.8400400000000001    0.3550300000000000    0.1693458767627223 T T T Cr
   0.8539600000000001    0.1311900000000000    0.2160388565297363 T T T Cr
   0.3605600000000000    0.0732200000000000    0.2620708154506438 T T T Cr
   0.8531200000000000    0.2406800000000000    0.2627318362967505 T T T Cr
   0.3190500000000000    0.8541799999999999    0.0306081391784181 F F F Cr
   0.3182000000000000    0.9636700000000000    0.0773011189454322 F F F Cr
   0.8254899999999999    0.7978400000000000    0.0769562385039853 F F F Cr
   0.3320900000000001    0.7398700000000000    0.1229881974248927 F F F Cr
   0.8246500000000000    0.9073299999999999    0.1236492182709994 F F F Cr
   0.3338200000000001    0.5208600000000000    0.0306081391784181 F F F Cr
   0.3329700000000000    0.6303500000000000    0.0773011189454322 F F F Cr
   0.8263400000000001    0.6883500000000000    0.0302728387492336 F F F Cr
   0.8402600000000001    0.4645200000000000    0.0769562385039853 F F F Cr
   0.3468600000000001    0.4065500000000000    0.1229881974248927 F F F Cr
   0.8394100000000000    0.5740100000000000    0.1236492182709994 F F F Cr
   0.3485900000000000    0.1875400000000000    0.0306081391784181 F F F Cr
   0.3477400000000000    0.2970300000000000    0.0773011189454322 F F F Cr
   0.8411000000000000    0.3550300000000000    0.0302632587369712 F F F Cr
   0.8550300000000001    0.1312000000000000    0.0769562385039853 F F F Cr
   0.3616200000000001    0.0732300000000000    0.1229881974248927 F F F Cr
   0.8541799999999999    0.2406900000000000    0.1236492182709994 F F F Cr
   0.8400400000000001    0.0233600000000000    0.1693458767627223 T T T Cr
   0.8411000000000001    0.0233700000000000    0.0302632587369712 F F F Cr
   0.3530400000000001    0.0451600000000000    0.3928475628448805 T T T Fe
   0.3478800000000001    0.1587300000000000    0.4377778203556101 T T T Fe
   0.3467900000000000    0.1101100000000000    0.5141784181483753 F F F Fe
   0.3427100000000000    0.2723000000000000    0.4827176578786021 F F F Fe
   0.3457200000000001    0.0614800000000000    0.5905790159411405 F F F Fe
   0.3416300000000000    0.2236700000000000    0.5591182556713673 F F F Fe
   0.3375500000000000    0.3858699999999999    0.5276479153893318 F F F Fe
   0.3489500000000000    0.2073600000000000    0.3613772225628449 T T T Fe
   0.3437800000000000    0.3209400000000000    0.4063170600858370 T T T Fe
   0.3396899999999999    0.4831299999999999    0.3748562998160638 T T T Fe
   0.3386200000000000    0.4344999999999999    0.4512473175965666 T T T Fe
   0.3345300000000000    0.5967000000000000    0.4197865573267934 T T T Fe
   0.3304300000000001    0.7588900000000000    0.3883257970570202 T T T Fe
   0.3334500000000000    0.5480600000000000    0.4961871551195586 F F F Fe
   0.3293600000000000    0.7102600000000000    0.4647263948497855 T T T Fe
   0.3252700000000000    0.8724700000000000    0.4332560545677499 T T T Fe
   0.3405600000000000    0.1750400000000000    0.6355092734518700 F F F Fe
   0.3364600000000000    0.3372400000000000    0.6040485131820970 F F F Fe
   0.3323800000000000    0.4994300000000000    0.5725877529123238 F F F Fe
   0.3272200000000001    0.6130100000000001    0.6175180104230533 F F F Fe
   0.3282900000000001    0.6616400000000000    0.5411174126302882 F F F Fe
   0.3242000000000000    0.8238400000000000    0.5096566523605151 F F F Fe
   0.3201000000000000    0.9860300000000000    0.4781958920907420 F F F Fe
   0.3231200000000000    0.7752000000000000    0.5860572501532803 F F F Fe
   0.3190300000000000    0.9374000000000000    0.5545964898835072 F F F Fe
   0.3179600000000001    0.8887699999999999    0.6309875076640098 F F F Fe
   0.8304500000000001    0.1350900000000000    0.4760308093194360 F F F Fe
   0.8293799999999999    0.0864600000000000    0.5524314071122012 F F F Fe
   0.8252900000000000    0.2486500000000000    0.5209706468424280 F F F Fe
   0.8366899999999999    0.0701500000000000    0.3546999540159412 T T T Fe
   0.8315300000000000    0.1837200000000000    0.3996302115266708 T T T Fe
   0.8274300000000000    0.3459199999999999    0.3681694512568977 T T T Fe
   0.8263600000000001    0.2972799999999999    0.4445700490496629 T T T Fe
   0.8222700000000002    0.4594800000000000    0.4131092887798897 T T T Fe
   0.8181899999999999    0.6216800000000000    0.3816389484978542 T T T Fe
   0.8212000000000000    0.4108500000000000    0.4895003065603924 F F F Fe
   0.8171000000000002    0.5730499999999999    0.4580395462906193 T T T Fe
   0.8130200000000000    0.7352500000000000    0.4265787860208462 T T T Fe
   0.8089300000000000    0.8974500000000000    0.3951084457388105 T T T Fe
   0.8283100000000000    0.0378300000000000    0.6288320049049663 F F F Fe
   0.8242200000000000    0.2000200000000000    0.5973712446351932 F F F Fe
   0.8201199999999998    0.3622300000000000    0.5659009043531577 F F F Fe
   0.8149600000000000    0.4757900000000000    0.6108407418761497 F F F Fe
   0.8160300000000000    0.5244200000000000    0.5344401440833845 F F F Fe
   0.8119400000000001    0.6866200000000000    0.5029793838136113 F F F Fe
   0.8078600000000001    0.8488200000000000    0.4715090435315758 T T T Fe
   0.8037600000000000    0.0110100000000000    0.4400482832618026 T T T Fe
   0.8108700000000001    0.6379899999999999    0.5793704015941141 F F F Fe
   0.8067700000000001    0.8001900000000000    0.5479096413243409 F F F Fe
   0.8026900000000000    0.9623800000000000    0.5164488810545679 F F F Fe
   0.8056999999999999    0.7515500000000001    0.6243102391171061 F F F Fe
   0.8016100000000000    0.9137599999999999    0.5928494788473330 F F F Fe
   0.8174800000000000    0.9097299999999999    0.1932001072961373 T T T N
   0.3249200000000000    0.7422700000000000    0.1925295064377682 T T T N
   0.3240800000000000    0.8517599999999999    0.2392224862047823 T T T N
   0.8315900000000001    0.7954300000000000    0.1464975475168608 T T T N
   0.3243000000000000    0.9612600000000000    0.1468328479460453 T T T N
   0.8322500000000000    0.5764100000000000    0.1932001072961373 T T T N
   0.8313700000000002    0.6859400000000000    0.2388871857755978 T T T N
   0.3396900000000000    0.4089500000000000    0.1925295064377683 T T T N
   0.3388500000000000    0.5184400000000000    0.2392224862047823 T T T N
   0.8463600000000002    0.4621100000000000    0.1464975475168608 T T T N
   0.3390700000000000    0.6279400000000001    0.1468328479460454 T T T N
   0.8470199999999999    0.2430900000000000    0.1932001072961373 T T T N
   0.8461400000000000    0.3526200000000000    0.2388871857755978 T T T N
   0.3544600000000001    0.0756300000000000    0.1925295064377683 T T T N
   0.3536199999999999    0.1851200000000000    0.2392224862047823 T T T N
   0.8611300000000001    0.1287900000000000    0.1464975475168608 T T T N
   0.3538400000000000    0.2946199999999999    0.1468328479460453 T T T N
   0.8185500000000000    0.9097399999999999    0.0541174892703863 F F F N
   0.3259900000000001    0.7422800000000001    0.0534468884120172 F F F N
   0.3251400000000000    0.8517699999999999    0.1001398681790313 F F F N
   0.8326500000000000    0.7954400000000000    0.0074149294911097 F F F N
   0.3253600000000000    0.9612699999999998    0.0077502299202943 F F F N
   0.8333199999999999    0.5764200000000000    0.0541174892703863 F F F N
   0.8324300000000001    0.6859400000000000    0.0998045677498467 F F F N
   0.3407600000000001    0.4089600000000000    0.0534468884120172 F F F N
   0.3399100000000000    0.5184500000000000    0.1001398681790313 F F F N
   0.8474200000000002    0.4621199999999999    0.0074149294911097 F F F N
   0.3401300000000000    0.6279400000000001    0.0077502299202943 F F F N
   0.8480899999999999    0.2431000000000000    0.0541174892703863 F F F N
   0.8472000000000000    0.3526200000000000    0.0998045677498467 F F F N
   0.3555300000000000    0.0756400000000000    0.0534468884120172 F F F N
   0.3546800000000000    0.1851300000000000    0.1001398681790313 F F F N
   0.8621900000000001    0.1288000000000000    0.0074149294911097 F F F N
   0.3549000000000000    0.2946199999999999    0.0077502299202943 F F F N
   0.8461400000000001    0.0209600000000000    0.2388871857755978 T T T N
   0.8472000000000000    0.0209600000000000    0.0998045677498467 F F F N
