Ti66 Cr1
1.0
6.309760 0.000000 0.000000
0.000000 9.464640 0.000000
0.000000 0.000000 18.918326
Ti Cr
66 1
Selective dynamics
direct
0.124759 0.041133 0.500640 F F F Ti
0.625093 0.041755 0.500144 F F F Ti
0.124972 0.041648 0.658740 F F F Ti
0.624983 0.041689 0.658676 F F F Ti
0.125022 0.041716 0.817115 F F F Ti
0.624977 0.041718 0.817118 F F F Ti
0.123392 0.374967 0.500986 F F F Ti
0.624044 0.375004 0.499943 F F F Ti
0.124935 0.375011 0.658734 F F F Ti
0.624853 0.375018 0.658606 F F F Ti
0.125029 0.375012 0.817081 F F F Ti
0.624933 0.375011 0.817083 F F F Ti
0.124795 0.708909 0.500579 F F F Ti
0.624949 0.708311 0.500106 F F F Ti
0.124978 0.708365 0.658728 F F F Ti
0.624914 0.708331 0.658667 F F F Ti
0.125019 0.708291 0.817114 F F F Ti
0.624949 0.708291 0.817117 F F F Ti
0.375035 0.208273 0.579413 F F F Ti
0.874536 0.208266 0.579462 F F F Ti
0.375044 0.208333 0.737894 F F F Ti
0.874912 0.208342 0.737906 F F F Ti
0.375051 0.208369 0.896398 F F F Ti
0.875043 0.208368 0.896399 F F F Ti
0.375018 0.541744 0.579392 F F F Ti
0.874547 0.541755 0.579440 F F F Ti
0.375038 0.541667 0.737890 F F F Ti
0.874912 0.541660 0.737902 F F F Ti
0.375048 0.541638 0.896401 F F F Ti
0.875034 0.541640 0.896404 F F F Ti
0.375313 0.875042 0.579484 F F F Ti
0.874594 0.874991 0.579541 F F F Ti
0.375054 0.875009 0.737923 F F F Ti
0.874924 0.874995 0.737938 F F F Ti
0.375029 0.875004 0.896386 F F F Ti
0.875013 0.874996 0.896387 F F F Ti
0.119381 0.633536 0.357674 F F F Ti
0.626323 0.625718 0.356636 F F F Ti
0.125596 0.625190 0.118756 F F F Ti
0.626010 0.625047 0.118701 F F F Ti
0.119121 0.116215 0.357863 F F F Ti
0.626941 0.124247 0.356667 F F F Ti
0.125527 0.124863 0.118723 F F F Ti
0.626180 0.124984 0.118664 F F F Ti
0.125514 0.375015 0.039520 F F F Ti
0.625757 0.375016 0.039544 F F F Ti
0.124999 0.875041 0.039470 F F F Ti
0.625244 0.875017 0.039446 F F F Ti
0.638275 0.374965 0.275998 F F F Ti
0.124994 0.875464 0.277068 F F F Ti
0.625411 0.875175 0.277338 F F F Ti
0.375415 0.875133 0.158143 F F F Ti
0.874992 0.874921 0.158378 F F F Ti
0.376944 0.375006 0.158207 F F F Ti
0.878579 0.375025 0.158518 F F F Ti
0.873846 0.375059 0.397004 F F F Ti
0.376320 0.875497 0.396672 F F F Ti
0.872952 0.874985 0.396824 F F F Ti
0.377435 0.627660 0.237201 F F F Ti
0.876998 0.625234 0.237750 F F F Ti
0.375213 0.625006 -0.000084 F F F Ti
0.875270 0.624978 -0.000074 F F F Ti
0.377493 0.122356 0.237177 F F F Ti
0.876972 0.124807 0.237745 F F F Ti
0.375222 0.125029 -0.000084 F F F Ti
0.875274 0.125034 -0.000081 F F F Ti
0.259979 0.373505 0.326738 T T T Cr

0.000000 0.000000 0.000000
0.000000 0.000000 0.000000
0.000000 0.000000 0.000000
0.000000 0.000000 0.000000
0.000000 0.000000 0.000000
0.000000 0.000000 0.000000
0.000000 0.000000 0.000000
0.000000 0.000000 0.000000
0.000000 0.000000 0.000000
0.000000 0.000000 0.000000
0.000000 0.000000 0.000000
0.000000 0.000000 0.000000
0.000000 0.000000 0.000000
0.000000 0.000000 0.000000
0.000000 0.000000 0.000000
0.000000 0.000000 0.000000
0.000000 0.000000 0.000000
0.000000 0.000000 0.000000
0.000000 0.000000 0.000000
0.000000 0.000000 0.000000
0.000000 0.000000 0.000000
0.000000 0.000000 0.000000
0.000000 0.000000 0.000000
0.000000 0.000000 0.000000
0.000000 0.000000 0.000000
0.000000 0.000000 0.000000
0.000000 0.000000 0.000000
0.000000 0.000000 0.000000
0.000000 0.000000 0.000000
0.000000 0.000000 0.000000
0.000000 0.000000 0.000000
0.000000 0.000000 0.000000
0.000000 0.000000 0.000000
0.000000 0.000000 0.000000
0.000000 0.000000 0.000000
0.000000 0.000000 0.000000
0.000000 0.000000 0.000000
0.000000 0.000000 0.000000
0.000000 0.000000 0.000000
0.000000 0.000000 0.000000
0.000000 0.000000 0.000000
0.000000 0.000000 0.000000
0.000000 0.000000 0.000000
0.000000 0.000000 0.000000
0.000000 0.000000 0.000000
0.000000 0.000000 0.000000
0.000000 0.000000 0.000000
0.000000 0.000000 0.000000
0.000000 0.000000 0.000000
0.000000 0.000000 0.000000
0.000000 0.000000 0.000000
0.000000 0.000000 0.000000
0.000000 0.000000 0.000000
0.000000 0.000000 0.000000
0.000000 0.000000 0.000000
0.000000 0.000000 0.000000
0.000000 0.000000 0.000000
0.000000 0.000000 0.000000
0.000000 0.000000 0.000000
0.000000 0.000000 0.000000
0.000000 0.000000 0.000000
0.000000 0.000000 0.000000
0.000000 0.000000 0.000000
0.000000 0.000000 0.000000
0.000000 0.000000 0.000000
0.000000 0.000000 0.000000
0.000000 0.000000 0.000000
