alpha_Ti
1.0
5.745590 0.000000 0.000000
0.000000 9.072750 0.000000
0.000000 0.000000 28.667173
Ti
36
direct
0.041667 0.875000 0.325566 Ti
0.041667 0.375000 0.325566 Ti
0.541667 0.875000 0.325566 Ti
0.541667 0.375000 0.325566 Ti
0.291667 0.625000 0.355164 Ti
0.291667 0.125000 0.355164 Ti
0.791667 0.625000 0.355164 Ti
0.791667 0.125000 0.355164 Ti
0.291667 0.875000 0.236775 Ti
0.291667 0.375000 0.236775 Ti
0.791667 0.875000 0.236775 Ti
0.791667 0.375000 0.236775 Ti
0.041667 0.625000 0.266373 Ti
0.041667 0.125000 0.266373 Ti
0.541667 0.625000 0.266373 Ti
0.541667 0.125000 0.266373 Ti
0.041667 0.875000 0.147985 Ti
0.041667 0.375000 0.147985 Ti
0.541667 0.875000 0.147985 Ti
0.541667 0.375000 0.147985 Ti
0.291667 0.625000 0.177582 Ti
0.291667 0.125000 0.177582 Ti
0.791667 0.625000 0.177582 Ti
0.791667 0.125000 0.177582 Ti
0.291667 0.875000 0.059193 Ti
0.291667 0.375000 0.059193 Ti
0.791667 0.875000 0.059193 Ti
0.791667 0.375000 0.059193 Ti
0.041667 0.625000 0.088791 Ti
0.041667 0.125000 0.088791 Ti
0.541667 0.625000 0.088791 Ti
0.541667 0.125000 0.088791 Ti
0.791667 0.125000 0.000000 Ti
0.291667 0.125000 0.000000 Ti
0.791667 0.625000 -0.000000 Ti
0.291667 0.625000 -0.000000 Ti
