Zr1 Ti66
1.0
6.309760 0.000000 0.000000
0.000000 9.464640 0.000000
0.000000 0.000000 18.918326
Ti Zr
66 1
Selective dynamics
direct
0.120344 0.039076 0.500669 F F F Ti
0.628072 0.040200 0.500532 F F F Ti
0.125739 0.041356 0.659376 F F F Ti
0.623774 0.041580 0.659378 F F F Ti
0.125232 0.041773 0.817767 F F F Ti
0.624797 0.041818 0.817737 F F F Ti
0.094419 0.378238 0.505342 F F F Ti
0.660254 0.383035 0.506835 F F F Ti
0.124609 0.375237 0.659597 F F F Ti
0.624494 0.375536 0.660235 F F F Ti
0.125032 0.375131 0.817743 F F F Ti
0.624661 0.375110 0.817881 F F F Ti
0.125188 0.708073 0.500604 F F F Ti
0.623792 0.709790 0.500664 F F F Ti
0.126532 0.709414 0.659589 F F F Ti
0.622823 0.709741 0.659705 F F F Ti
0.125156 0.708650 0.817834 F F F Ti
0.624614 0.708716 0.817854 F F F Ti
0.873386 0.204992 0.581962 F F F Ti
0.374793 0.208469 0.738360 F F F Ti
0.874942 0.208182 0.738854 F F F Ti
0.375005 0.208392 0.896832 F F F Ti
0.875012 0.208393 0.896880 F F F Ti
0.374413 0.541363 0.579946 F F F Ti
0.875223 0.547660 0.582864 F F F Ti
0.374810 0.541973 0.738588 F F F Ti
0.874884 0.542420 0.739086 F F F Ti
0.374987 0.541751 0.896911 F F F Ti
0.874954 0.541783 0.896965 F F F Ti
0.374831 0.876156 0.579506 F F F Ti
0.874545 0.874552 0.580248 F F F Ti
0.374838 0.875540 0.738535 F F F Ti
0.874965 0.875294 0.738619 F F F Ti
0.375084 0.875136 0.896913 F F F Ti
0.874999 0.875105 0.896915 F F F Ti
0.125277 0.623165 0.357552 F F F Ti
0.624445 0.624750 0.357067 F F F Ti
0.125262 0.624812 0.119202 F F F Ti
0.624863 0.624794 0.119174 F F F Ti
0.117282 0.120556 0.356112 F F F Ti
0.634400 0.118987 0.355117 F F F Ti
0.125157 0.124668 0.118903 F F F Ti
0.624724 0.124676 0.118808 F F F Ti
0.125217 0.374934 0.039868 F F F Ti
0.624829 0.374983 0.039871 F F F Ti
0.125091 0.874897 0.039875 F F F Ti
0.624807 0.874840 0.039850 F F F Ti
0.123370 0.373864 0.277527 F F F Ti
0.626660 0.374263 0.276562 F F F Ti
0.124912 0.873717 0.277600 F F F Ti
0.624705 0.873290 0.277318 F F F Ti
0.374892 0.874489 0.158699 F F F Ti
0.875080 0.874321 0.158533 F F F Ti
0.374728 0.374605 0.158717 F F F Ti
0.875588 0.374857 0.158377 F F F Ti
0.867572 0.374352 0.395864 F F F Ti
0.374595 0.875398 0.396733 F F F Ti
0.875081 0.872492 0.396697 F F F Ti
0.374573 0.624017 0.238276 F F F Ti
0.875242 0.624418 0.238049 F F F Ti
0.374969 0.624896 0.000423 F F F Ti
0.875131 0.624969 0.000417 F F F Ti
0.374671 0.123957 0.237776 F F F Ti
0.874618 0.123994 0.236937 F F F Ti
0.374983 0.124991 0.000295 F F F Ti
0.874894 0.124928 0.000276 F F F Ti
0.386181 0.335993 0.432172 T T T Zr

0.000000 0.000000 0.000000
0.000000 0.000000 0.000000
0.000000 0.000000 0.000000
0.000000 0.000000 0.000000
0.000000 0.000000 0.000000
0.000000 0.000000 0.000000
0.000000 0.000000 0.000000
0.000000 0.000000 0.000000
0.000000 0.000000 0.000000
0.000000 0.000000 0.000000
0.000000 0.000000 0.000000
0.000000 0.000000 0.000000
0.000000 0.000000 0.000000
0.000000 0.000000 0.000000
0.000000 0.000000 0.000000
0.000000 0.000000 0.000000
0.000000 0.000000 0.000000
0.000000 0.000000 0.000000
0.000000 0.000000 0.000000
0.000000 0.000000 0.000000
0.000000 0.000000 0.000000
0.000000 0.000000 0.000000
0.000000 0.000000 0.000000
0.000000 0.000000 0.000000
0.000000 0.000000 0.000000
0.000000 0.000000 0.000000
0.000000 0.000000 0.000000
0.000000 0.000000 0.000000
0.000000 0.000000 0.000000
0.000000 0.000000 0.000000
0.000000 0.000000 0.000000
0.000000 0.000000 0.000000
0.000000 0.000000 0.000000
0.000000 0.000000 0.000000
0.000000 0.000000 0.000000
0.000000 0.000000 0.000000
0.000000 0.000000 0.000000
0.000000 0.000000 0.000000
0.000000 0.000000 0.000000
0.000000 0.000000 0.000000
0.000000 0.000000 0.000000
0.000000 0.000000 0.000000
0.000000 0.000000 0.000000
0.000000 0.000000 0.000000
0.000000 0.000000 0.000000
0.000000 0.000000 0.000000
0.000000 0.000000 0.000000
0.000000 0.000000 0.000000
0.000000 0.000000 0.000000
0.000000 0.000000 0.000000
0.000000 0.000000 0.000000
0.000000 0.000000 0.000000
0.000000 0.000000 0.000000
0.000000 0.000000 0.000000
0.000000 0.000000 0.000000
0.000000 0.000000 0.000000
0.000000 0.000000 0.000000
0.000000 0.000000 0.000000
0.000000 0.000000 0.000000
0.000000 0.000000 0.000000
0.000000 0.000000 0.000000
0.000000 0.000000 0.000000
0.000000 0.000000 0.000000
0.000000 0.000000 0.000000
0.000000 0.000000 0.000000
0.000000 0.000000 0.000000
0.000000 0.000000 0.000000
