Ti66 Cr1
1.0
6.309760 0.000000 0.000000
0.000000 9.464640 0.000000
0.000000 0.000000 18.918326
Ti Cr
66 1
Selective dynamics
direct
0.123025 0.039525 0.501820 F F F Ti
0.627545 0.040559 0.500512 F F F Ti
0.124713 0.041056 0.659006 F F F Ti
0.624797 0.041042 0.658889 F F F Ti
0.124950 0.041435 0.817251 F F F Ti
0.624938 0.041435 0.817242 F F F Ti
0.116919 0.377420 0.502906 F F F Ti
0.625624 0.374880 0.501305 F F F Ti
0.124396 0.374973 0.659262 F F F Ti
0.624601 0.374891 0.659189 F F F Ti
0.124905 0.375027 0.817310 F F F Ti
0.624888 0.375018 0.817320 F F F Ti
0.126418 0.705582 0.499454 F F F Ti
0.622621 0.706837 0.499524 F F F Ti
0.125095 0.708013 0.658653 F F F Ti
0.624173 0.708234 0.658709 F F F Ti
0.124961 0.708341 0.817208 F F F Ti
0.624820 0.708374 0.817219 F F F Ti
0.374777 0.207952 0.580095 F F F Ti
0.873400 0.207708 0.580271 F F F Ti
0.374925 0.208089 0.738149 F F F Ti
0.874660 0.208076 0.738208 F F F Ti
0.375000 0.208278 0.896321 F F F Ti
0.874931 0.208291 0.896322 F F F Ti
0.374956 0.541411 0.579822 F F F Ti
0.873004 0.542567 0.580091 F F F Ti
0.374926 0.541678 0.738121 F F F Ti
0.874652 0.541794 0.738164 F F F Ti
0.374965 0.541794 0.896404 F F F Ti
0.874894 0.541811 0.896401 F F F Ti
0.375149 0.874368 0.579316 F F F Ti
0.874769 0.873526 0.579436 F F F Ti
0.374879 0.874769 0.737980 F F F Ti
0.874837 0.874655 0.737987 F F F Ti
0.375036 0.874960 0.896426 F F F Ti
0.874951 0.874947 0.896420 F F F Ti
0.125989 0.623607 0.356658 F F F Ti
0.620865 0.624111 0.356701 F F F Ti
0.125135 0.625641 0.118641 F F F Ti
0.624730 0.625530 0.118730 F F F Ti
0.651267 0.120058 0.355044 F F F Ti
0.125661 0.125156 0.118296 F F F Ti
0.625961 0.124871 0.118123 F F F Ti
0.125210 0.375206 0.039080 F F F Ti
0.624722 0.375220 0.038972 F F F Ti
0.125153 0.875200 0.039512 F F F Ti
0.625079 0.875029 0.039508 F F F Ti
0.113502 0.381699 0.272458 F F F Ti
0.628437 0.375360 0.276012 F F F Ti
0.127067 0.877649 0.277919 F F F Ti
0.625618 0.874636 0.277420 F F F Ti
0.375245 0.875086 0.158537 F F F Ti
0.876006 0.875278 0.158493 F F F Ti
0.375758 0.375447 0.157656 F F F Ti
0.872840 0.375788 0.156849 F F F Ti
0.864665 0.379356 0.396811 F F F Ti
0.375566 0.878498 0.396360 F F F Ti
0.878848 0.873919 0.396606 F F F Ti
0.374724 0.624915 0.237819 F F F Ti
0.874115 0.626830 0.237630 F F F Ti
0.374935 0.625323 -0.000137 F F F Ti
0.874936 0.625342 -0.000151 F F F Ti
0.379672 0.124685 0.236093 F F F Ti
0.877314 0.125235 0.236311 F F F Ti
0.375157 0.124840 -0.000290 F F F Ti
0.875132 0.124836 -0.000311 F F F Ti
0.275229 0.249321 0.374862 T T T Cr

0.000000 0.000000 0.000000
0.000000 0.000000 0.000000
0.000000 0.000000 0.000000
0.000000 0.000000 0.000000
0.000000 0.000000 0.000000
0.000000 0.000000 0.000000
0.000000 0.000000 0.000000
0.000000 0.000000 0.000000
0.000000 0.000000 0.000000
0.000000 0.000000 0.000000
0.000000 0.000000 0.000000
0.000000 0.000000 0.000000
0.000000 0.000000 0.000000
0.000000 0.000000 0.000000
0.000000 0.000000 0.000000
0.000000 0.000000 0.000000
0.000000 0.000000 0.000000
0.000000 0.000000 0.000000
0.000000 0.000000 0.000000
0.000000 0.000000 0.000000
0.000000 0.000000 0.000000
0.000000 0.000000 0.000000
0.000000 0.000000 0.000000
0.000000 0.000000 0.000000
0.000000 0.000000 0.000000
0.000000 0.000000 0.000000
0.000000 0.000000 0.000000
0.000000 0.000000 0.000000
0.000000 0.000000 0.000000
0.000000 0.000000 0.000000
0.000000 0.000000 0.000000
0.000000 0.000000 0.000000
0.000000 0.000000 0.000000
0.000000 0.000000 0.000000
0.000000 0.000000 0.000000
0.000000 0.000000 0.000000
0.000000 0.000000 0.000000
0.000000 0.000000 0.000000
0.000000 0.000000 0.000000
0.000000 0.000000 0.000000
0.000000 0.000000 0.000000
0.000000 0.000000 0.000000
0.000000 0.000000 0.000000
0.000000 0.000000 0.000000
0.000000 0.000000 0.000000
0.000000 0.000000 0.000000
0.000000 0.000000 0.000000
0.000000 0.000000 0.000000
0.000000 0.000000 0.000000
0.000000 0.000000 0.000000
0.000000 0.000000 0.000000
0.000000 0.000000 0.000000
0.000000 0.000000 0.000000
0.000000 0.000000 0.000000
0.000000 0.000000 0.000000
0.000000 0.000000 0.000000
0.000000 0.000000 0.000000
0.000000 0.000000 0.000000
0.000000 0.000000 0.000000
0.000000 0.000000 0.000000
0.000000 0.000000 0.000000
0.000000 0.000000 0.000000
0.000000 0.000000 0.000000
0.000000 0.000000 0.000000
0.000000 0.000000 0.000000
0.000000 0.000000 0.000000
0.000000 0.000000 0.000000
