total_Ti
1.0
9.588310 0.000000 0.000000
0.000000 9.588310 0.000000
0.000000 0.000000 22.000006
Ti
102
direct
0.083333 0.083333 0.500000 Ti
0.083333 0.083333 0.636364 Ti
0.083333 0.083333 0.772727 Ti
0.083333 0.416667 0.500000 Ti
0.083333 0.416667 0.636364 Ti
0.083333 0.416667 0.772727 Ti
0.083333 0.750000 0.500000 Ti
0.083333 0.750000 0.636364 Ti
0.083333 0.750000 0.772727 Ti
0.416667 0.083333 0.500000 Ti
0.416667 0.083333 0.636364 Ti
0.416667 0.083333 0.772727 Ti
0.416667 0.416667 0.500000 Ti
0.416667 0.416667 0.636364 Ti
0.416667 0.416667 0.772727 Ti
0.416667 0.750000 0.500000 Ti
0.416667 0.750000 0.636364 Ti
0.416667 0.750000 0.772727 Ti
0.750000 0.083333 0.500000 Ti
0.750000 0.083333 0.636364 Ti
0.750000 0.083333 0.772727 Ti
0.750000 0.416667 0.500000 Ti
0.750000 0.416667 0.636364 Ti
0.750000 0.416667 0.772727 Ti
0.750000 0.750000 0.500000 Ti
0.750000 0.750000 0.636364 Ti
0.750000 0.750000 0.772727 Ti
0.250000 0.250000 0.568181 Ti
0.250000 0.250000 0.704545 Ti
0.250000 0.250000 0.840909 Ti
0.250000 0.583333 0.568181 Ti
0.250000 0.583333 0.704545 Ti
0.250000 0.583333 0.840909 Ti
0.250000 0.916667 0.568181 Ti
0.250000 0.916667 0.704545 Ti
0.250000 0.916667 0.840909 Ti
0.583333 0.250000 0.568181 Ti
0.583333 0.250000 0.704545 Ti
0.583333 0.250000 0.840909 Ti
0.583333 0.583333 0.568181 Ti
0.583333 0.583333 0.704545 Ti
0.583333 0.583333 0.840909 Ti
0.583333 0.916667 0.568181 Ti
0.583333 0.916667 0.704545 Ti
0.583333 0.916667 0.840909 Ti
0.916667 0.250000 0.568181 Ti
0.916667 0.250000 0.704545 Ti
0.916667 0.250000 0.840909 Ti
0.916667 0.583333 0.568181 Ti
0.916667 0.583333 0.704545 Ti
0.916667 0.583333 0.840909 Ti
0.916667 0.916667 0.568181 Ti
0.916667 0.916667 0.704545 Ti
0.916667 0.916667 0.840909 Ti
0.125000 0.833333 -0.000000 Ti
0.125000 0.333333 -0.000000 Ti
0.625000 0.833333 -0.000000 Ti
0.625000 0.333333 -0.000000 Ti
0.375000 0.666667 -0.000000 Ti
0.375000 0.166667 -0.000000 Ti
0.875000 0.666667 -0.000000 Ti
0.875000 0.166667 -0.000000 Ti
0.875000 0.416667 0.068181 Ti
0.375000 0.416667 0.068181 Ti
0.875000 0.916667 0.068181 Ti
0.375000 0.916667 0.068181 Ti
0.625000 0.083333 0.068181 Ti
0.125000 0.083333 0.068181 Ti
0.625000 0.583333 0.068181 Ti
0.125000 0.583333 0.068181 Ti
0.125000 0.333333 0.136364 Ti
0.625000 0.333333 0.136364 Ti
0.625000 0.833333 0.136364 Ti
0.125000 0.833333 0.136364 Ti
0.875000 0.666667 0.136364 Ti
0.375000 0.166667 0.136364 Ti
0.875000 0.166667 0.136364 Ti
0.375000 0.666667 0.136364 Ti
0.875000 0.416667 0.204545 Ti
0.375000 0.416667 0.204545 Ti
0.875000 0.916667 0.204545 Ti
0.375000 0.916667 0.204545 Ti
0.125000 0.583333 0.204545 Ti
0.625000 0.083333 0.204545 Ti
0.125000 0.083333 0.204545 Ti
0.625000 0.583333 0.204545 Ti
0.625000 0.833333 0.272727 Ti
0.625000 0.333333 0.272727 Ti
0.125000 0.833333 0.272727 Ti
0.125000 0.333333 0.272727 Ti
0.375000 0.166667 0.272727 Ti
0.875000 0.166667 0.272727 Ti
0.375000 0.666667 0.272727 Ti
0.875000 0.666667 0.272727 Ti
0.875000 0.416667 0.340909 Ti
0.375000 0.416667 0.340909 Ti
0.375000 0.916667 0.340909 Ti
0.875000 0.916667 0.340909 Ti
0.625000 0.583333 0.340909 Ti
0.625000 0.083333 0.340909 Ti
0.125000 0.583333 0.340909 Ti
0.125000 0.083333 0.340909 Ti
