beta_Ti
1.0
8.805261 0.000000 0.000000
-4.402631 7.625580 0.000000
0.000000 0.000000 22.383422
Ti
36
direct
0.055556 0.055556 0.591355 Ti
0.055556 0.555555 0.591355 Ti
0.555556 0.055556 0.591355 Ti
0.555556 0.555555 0.591355 Ti
0.222222 0.388889 0.880509 Ti
0.222222 0.888889 0.880509 Ti
0.722222 0.388889 0.880509 Ti
0.722222 0.888889 0.880509 Ti
0.388889 0.222222 0.921816 Ti
0.388889 0.722222 0.921816 Ti
0.888889 0.222222 0.921816 Ti
0.888889 0.722222 0.921816 Ti
0.222222 0.388889 0.632663 Ti
0.222222 0.888889 0.632663 Ti
0.722222 0.388889 0.632663 Ti
0.722222 0.888889 0.632663 Ti
0.388889 0.222222 0.673970 Ti
0.388889 0.722222 0.673970 Ti
0.888889 0.222222 0.673970 Ti
0.888889 0.722222 0.673970 Ti
0.055556 0.055556 0.715278 Ti
0.055556 0.555555 0.715278 Ti
0.555556 0.055556 0.715278 Ti
0.555556 0.555555 0.715278 Ti
0.222222 0.388889 0.756586 Ti
0.222222 0.888889 0.756586 Ti
0.722222 0.388889 0.756586 Ti
0.722222 0.888889 0.756586 Ti
0.388889 0.222222 0.797893 Ti
0.388889 0.722222 0.797893 Ti
0.888889 0.222222 0.797893 Ti
0.888889 0.722222 0.797893 Ti
0.055556 0.055556 0.839201 Ti
0.055556 0.555555 0.839201 Ti
0.555556 0.055556 0.839201 Ti
0.555556 0.555555 0.839201 Ti
