total_Ti
1.0
8.805261 0.000000 0.000000
-4.402631 7.625580 0.000000
0.000000 0.000000 33.883422
Ti
90
direct
0.222214 0.944436 0.560349 Ti
0.222214 0.444436 0.560349 Ti
0.722214 0.944436 0.560349 Ti
0.722214 0.444436 0.560349 Ti
0.388880 0.277769 0.751364 Ti
0.388880 0.777769 0.751364 Ti
0.888880 0.277769 0.751364 Ti
0.888880 0.777769 0.751364 Ti
0.555547 0.111102 0.778652 Ti
0.555547 0.611102 0.778652 Ti
0.055556 0.111102 0.778652 Ti
0.055556 0.611102 0.778652 Ti
0.388880 0.277769 0.587637 Ti
0.388880 0.777769 0.587637 Ti
0.888880 0.277769 0.587637 Ti
0.888880 0.777769 0.587637 Ti
0.555547 0.111102 0.614925 Ti
0.555547 0.611102 0.614925 Ti
0.055556 0.111102 0.614925 Ti
0.055556 0.611102 0.614925 Ti
0.222214 0.944436 0.642213 Ti
0.222214 0.444436 0.642213 Ti
0.722214 0.944436 0.642213 Ti
0.722214 0.444436 0.642213 Ti
0.388880 0.277769 0.669501 Ti
0.388880 0.777769 0.669501 Ti
0.888880 0.277769 0.669501 Ti
0.888880 0.777769 0.669501 Ti
0.555547 0.111102 0.696789 Ti
0.555547 0.611102 0.696789 Ti
0.055556 0.111102 0.696789 Ti
0.055556 0.611102 0.696789 Ti
0.222214 0.944436 0.724077 Ti
0.222214 0.444436 0.724077 Ti
0.722214 0.944436 0.724077 Ti
0.722214 0.444436 0.724077 Ti
0.166666 0.833342 -0.000000 Ti
0.166666 0.833342 0.271202 Ti
0.166666 0.500009 -0.000000 Ti
0.277778 0.722231 0.067800 Ti
0.166666 0.500009 0.271202 Ti
0.500000 0.833342 -0.000000 Ti
0.166666 0.166675 -0.000000 Ti
0.277778 0.722231 0.339002 Ti
0.277778 0.388897 0.067800 Ti
0.500000 0.833342 0.271202 Ti
0.166666 0.166675 0.271202 Ti
0.500000 0.500009 -0.000000 Ti
0.277778 0.388897 0.339002 Ti
0.611111 0.722231 0.067800 Ti
0.277778 0.055564 0.067800 Ti
0.500000 0.500009 0.271202 Ti
0.833333 0.833342 -0.000000 Ti
0.500000 0.166675 -0.000000 Ti
0.611111 0.722231 0.339002 Ti
0.277778 0.055564 0.339002 Ti
0.611111 0.388897 0.067800 Ti
0.833333 0.833342 0.271202 Ti
0.500000 0.166675 0.271202 Ti
0.833333 0.500009 -0.000000 Ti
0.611111 0.388897 0.339002 Ti
0.944444 0.722231 0.067800 Ti
0.611111 0.055564 0.067800 Ti
0.833333 0.500009 0.271202 Ti
0.833333 0.166675 -0.000000 Ti
0.944444 0.722231 0.339002 Ti
0.611111 0.055564 0.339002 Ti
0.944444 0.388897 0.067800 Ti
0.833333 0.166675 0.271202 Ti
0.944444 0.388897 0.339002 Ti
0.944445 0.055564 0.067800 Ti
0.944445 0.055564 0.339002 Ti
0.166666 0.833342 0.135601 Ti
0.166666 0.500009 0.135601 Ti
0.277778 0.722231 0.203401 Ti
0.500000 0.833342 0.135601 Ti
0.166666 0.166675 0.135601 Ti
0.277778 0.388897 0.203401 Ti
0.500000 0.500009 0.135601 Ti
0.611111 0.722231 0.203401 Ti
0.277778 0.055564 0.203401 Ti
0.833333 0.833342 0.135601 Ti
0.500000 0.166675 0.135601 Ti
0.611111 0.388897 0.203401 Ti
0.833333 0.500009 0.135601 Ti
0.944444 0.722231 0.203401 Ti
0.611111 0.055564 0.203401 Ti
0.833333 0.166675 0.135601 Ti
0.944444 0.388897 0.203401 Ti
0.944445 0.055564 0.203401 Ti
