beta_Ti
1.0
8.805261 0.000000 0.000000
-4.402631 7.625580 0.000000
0.000000 0.000000 20.883422
Ti
36
direct
0.083333 0.916670 0.597917 Ti
0.083333 0.416670 0.597917 Ti
0.583333 0.916670 0.597917 Ti
0.583333 0.416670 0.597917 Ti
0.250000 0.250004 0.907840 Ti
0.250000 0.750004 0.907840 Ti
0.750000 0.250004 0.907840 Ti
0.750000 0.750004 0.907840 Ti
0.416667 0.083337 0.952114 Ti
0.416667 0.583337 0.952114 Ti
0.916667 0.083337 0.952114 Ti
0.916667 0.583337 0.952114 Ti
0.250000 0.250004 0.642192 Ti
0.250000 0.750004 0.642192 Ti
0.750000 0.250004 0.642192 Ti
0.750000 0.750004 0.642192 Ti
0.416667 0.083337 0.686466 Ti
0.416667 0.583337 0.686466 Ti
0.916667 0.083337 0.686466 Ti
0.916667 0.583337 0.686466 Ti
0.083333 0.916670 0.730741 Ti
0.083333 0.416670 0.730741 Ti
0.583333 0.916670 0.730741 Ti
0.583333 0.416670 0.730741 Ti
0.250000 0.250004 0.775015 Ti
0.250000 0.750004 0.775015 Ti
0.750000 0.250004 0.775015 Ti
0.750000 0.750004 0.775015 Ti
0.416667 0.083337 0.819290 Ti
0.416667 0.583337 0.819290 Ti
0.916667 0.083337 0.819290 Ti
0.916667 0.583337 0.819290 Ti
0.083333 0.916670 0.863565 Ti
0.083333 0.416670 0.863565 Ti
0.583333 0.916670 0.863565 Ti
0.583333 0.416670 0.863565 Ti
