beta_Ti
1.0
8.805261 0.000000 0.000000
-4.402631 7.625580 0.000000
0.000000 0.000000 25.883422
Ti
36
direct
0.222214 0.944436 0.579002 Ti
0.222214 0.444436 0.579002 Ti
0.722214 0.944436 0.579002 Ti
0.722214 0.444436 0.579002 Ti
0.388880 0.277769 0.829056 Ti
0.388880 0.777769 0.829056 Ti
0.888880 0.277769 0.829056 Ti
0.888880 0.777769 0.829056 Ti
0.555547 0.111102 0.864778 Ti
0.555547 0.611102 0.864778 Ti
0.055556 0.111102 0.864778 Ti
0.055556 0.611102 0.864778 Ti
0.388880 0.277769 0.614724 Ti
0.388880 0.777769 0.614724 Ti
0.888880 0.277769 0.614724 Ti
0.888880 0.777769 0.614724 Ti
0.555547 0.111102 0.650446 Ti
0.555547 0.611102 0.650446 Ti
0.055556 0.111102 0.650446 Ti
0.055556 0.611102 0.650446 Ti
0.222214 0.944436 0.686168 Ti
0.222214 0.444436 0.686168 Ti
0.722214 0.944436 0.686168 Ti
0.722214 0.444436 0.686168 Ti
0.388880 0.277769 0.721890 Ti
0.388880 0.777769 0.721890 Ti
0.888880 0.277769 0.721890 Ti
0.888880 0.777769 0.721890 Ti
0.555547 0.111102 0.757612 Ti
0.555547 0.611102 0.757612 Ti
0.055556 0.111102 0.757612 Ti
0.055556 0.611102 0.757612 Ti
0.222214 0.944436 0.793334 Ti
0.222214 0.444436 0.793334 Ti
0.722214 0.944436 0.793334 Ti
0.722214 0.444436 0.793334 Ti
