Ti66 Sn1
1.0
6.309760 0.000000 0.000000
0.000000 9.464640 0.000000
0.000000 0.000000 18.918326
Ti Sn
66 1
Selective dynamics
direct
0.143627 0.013502 0.490919 T T T Ti
0.604509 0.013089 0.491185 T T T Ti
0.140777 0.057280 0.645438 T T T Ti
0.608976 0.057167 0.645772 T T T Ti
0.125940 0.041170 0.817529 F F F Ti
0.624018 0.041102 0.817555 F F F Ti
0.148486 0.359924 0.496145 T T T Ti
0.603435 0.368209 0.498882 T T T Ti
0.114482 0.375726 0.652669 T T T Ti
0.637024 0.376460 0.653104 T T T Ti
0.124607 0.374472 0.817632 F F F Ti
0.625563 0.374592 0.817663 F F F Ti
0.136812 0.700966 0.488928 T T T Ti
0.614008 0.701257 0.489112 T T T Ti
0.104909 0.685479 0.647013 T T T Ti
0.646253 0.685364 0.647112 T T T Ti
0.125224 0.707966 0.817547 F F F Ti
0.625082 0.707984 0.817498 F F F Ti
0.871263 0.203169 0.542899 T T T Ti
0.375172 0.209845 0.738791 F F F Ti
0.874823 0.206259 0.738565 F F F Ti
0.374880 0.207668 0.896911 F F F Ti
0.874727 0.207281 0.896796 F F F Ti
0.375016 0.520254 0.561846 T T T Ti
0.878746 0.509295 0.551302 T T T Ti
0.375284 0.540553 0.738132 F F F Ti
0.876122 0.542116 0.738938 F F F Ti
0.374930 0.540863 0.896692 F F F Ti
0.874762 0.541023 0.896837 F F F Ti
0.375829 0.849906 0.582933 T T T Ti
0.874380 0.881727 0.572479 T T T Ti
0.375112 0.873806 0.738643 F F F Ti
0.875526 0.875942 0.737842 F F F Ti
0.374925 0.873985 0.896875 F F F Ti
0.874893 0.874182 0.896641 F F F Ti
0.110163 0.629951 0.362463 T T T Ti
0.638934 0.630777 0.362356 T T T Ti
0.125315 0.621868 0.119053 F F F Ti
0.623943 0.621883 0.119054 F F F Ti
0.127218 0.134099 0.367859 T T T Ti
0.621326 0.133778 0.367532 T T T Ti
0.124419 0.121923 0.118888 F F F Ti
0.624273 0.121940 0.118797 F F F Ti
0.124518 0.372558 0.039715 F F F Ti
0.624778 0.372577 0.039734 F F F Ti
0.124742 0.872516 0.039802 F F F Ti
0.624419 0.872506 0.039807 F F F Ti
0.135896 0.376857 0.283289 T T T Ti
0.612323 0.377361 0.282985 T T T Ti
0.105595 0.878975 0.276531 T T T Ti
0.642486 0.878749 0.276384 T T T Ti
0.374335 0.871877 0.158645 F F F Ti
0.874643 0.871481 0.158380 F F F Ti
0.374600 0.371548 0.158077 F F F Ti
0.875011 0.371735 0.158430 F F F Ti
0.870719 0.380416 0.406709 T T T Ti
0.373646 0.868087 0.386594 T T T Ti
0.872482 0.883715 0.402478 T T T Ti
0.374509 0.635826 0.247492 T T T Ti
0.874619 0.614475 0.243110 T T T Ti
0.374679 0.622770 0.000396 F F F Ti
0.874487 0.623036 0.000434 F F F Ti
0.373867 0.124759 0.245936 T T T Ti
0.872449 0.133971 0.248259 T T T Ti
0.374438 0.122954 0.000279 F F F Ti
0.874496 0.122865 0.000190 F F F Ti
0.395547 0.213851 0.448516 T T T Sn

0.000000 0.000000 0.000000
0.000000 0.000000 0.000000
0.000000 0.000000 0.000000
0.000000 0.000000 0.000000
0.000000 0.000000 0.000000
0.000000 0.000000 0.000000
0.000000 0.000000 0.000000
0.000000 0.000000 0.000000
0.000000 0.000000 0.000000
0.000000 0.000000 0.000000
0.000000 0.000000 0.000000
0.000000 0.000000 0.000000
0.000000 0.000000 0.000000
0.000000 0.000000 0.000000
0.000000 0.000000 0.000000
0.000000 0.000000 0.000000
0.000000 0.000000 0.000000
0.000000 0.000000 0.000000
0.000000 0.000000 0.000000
0.000000 0.000000 0.000000
0.000000 0.000000 0.000000
0.000000 0.000000 0.000000
0.000000 0.000000 0.000000
0.000000 0.000000 0.000000
0.000000 0.000000 0.000000
0.000000 0.000000 0.000000
0.000000 0.000000 0.000000
0.000000 0.000000 0.000000
0.000000 0.000000 0.000000
0.000000 0.000000 0.000000
0.000000 0.000000 0.000000
0.000000 0.000000 0.000000
0.000000 0.000000 0.000000
0.000000 0.000000 0.000000
0.000000 0.000000 0.000000
0.000000 0.000000 0.000000
0.000000 0.000000 0.000000
0.000000 0.000000 0.000000
0.000000 0.000000 0.000000
0.000000 0.000000 0.000000
0.000000 0.000000 0.000000
0.000000 0.000000 0.000000
0.000000 0.000000 0.000000
0.000000 0.000000 0.000000
0.000000 0.000000 0.000000
0.000000 0.000000 0.000000
0.000000 0.000000 0.000000
0.000000 0.000000 0.000000
0.000000 0.000000 0.000000
0.000000 0.000000 0.000000
0.000000 0.000000 0.000000
0.000000 0.000000 0.000000
0.000000 0.000000 0.000000
0.000000 0.000000 0.000000
0.000000 0.000000 0.000000
0.000000 0.000000 0.000000
0.000000 0.000000 0.000000
0.000000 0.000000 0.000000
0.000000 0.000000 0.000000
0.000000 0.000000 0.000000
0.000000 0.000000 0.000000
0.000000 0.000000 0.000000
0.000000 0.000000 0.000000
0.000000 0.000000 0.000000
0.000000 0.000000 0.000000
0.000000 0.000000 0.000000
0.000000 0.000000 0.000000
