Ti66 Cr1
1.0
6.309760 0.000000 0.000000
0.000000 9.464640 0.000000
0.000000 0.000000 18.918326
Ti Cr
66 1
Selective dynamics
direct
0.123977 0.040699 0.500736 F F F Ti
0.626177 0.040688 0.500314 F F F Ti
0.124823 0.041064 0.658868 F F F Ti
0.624765 0.041030 0.658823 F F F Ti
0.124962 0.041434 0.817238 F F F Ti
0.624946 0.041433 0.817232 F F F Ti
0.115563 0.375526 0.502988 F F F Ti
0.627900 0.374777 0.501735 F F F Ti
0.124336 0.374871 0.659220 F F F Ti
0.624596 0.374846 0.659185 F F F Ti
0.124884 0.375004 0.817296 F F F Ti
0.624873 0.374999 0.817312 F F F Ti
0.126197 0.706360 0.499557 F F F Ti
0.623152 0.707024 0.499543 F F F Ti
0.125093 0.708228 0.658635 F F F Ti
0.624313 0.708399 0.658647 F F F Ti
0.124957 0.708388 0.817205 F F F Ti
0.624848 0.708417 0.817209 F F F Ti
0.374616 0.207818 0.579954 F F F Ti
0.873603 0.207157 0.580204 F F F Ti
0.374888 0.208062 0.738116 F F F Ti
0.874702 0.208026 0.738178 F F F Ti
0.374975 0.208244 0.896349 F F F Ti
0.874914 0.208251 0.896358 F F F Ti
0.374619 0.541330 0.579751 F F F Ti
0.873514 0.542622 0.580047 F F F Ti
0.374887 0.541718 0.738081 F F F Ti
0.874683 0.541829 0.738128 F F F Ti
0.374951 0.541787 0.896407 F F F Ti
0.874893 0.541799 0.896410 F F F Ti
0.374915 0.874697 0.579153 F F F Ti
0.875092 0.874050 0.579219 F F F Ti
0.374881 0.874826 0.737929 F F F Ti
0.874901 0.874734 0.737931 F F F Ti
0.375030 0.874970 0.896450 F F F Ti
0.874946 0.874962 0.896449 F F F Ti
0.124934 0.623879 0.356643 F F F Ti
0.621366 0.623210 0.356763 F F F Ti
0.125125 0.625466 0.118674 F F F Ti
0.624645 0.625361 0.118775 F F F Ti
0.640004 0.120069 0.355498 F F F Ti
0.125453 0.124860 0.118419 F F F Ti
0.625274 0.124725 0.118411 F F F Ti
0.125256 0.375082 0.039095 F F F Ti
0.624621 0.375086 0.039068 F F F Ti
0.125134 0.875138 0.039577 F F F Ti
0.624927 0.875034 0.039602 F F F Ti
0.112683 0.377323 0.273189 F F F Ti
0.630994 0.374660 0.275286 F F F Ti
0.126357 0.876702 0.277805 F F F Ti
0.624793 0.874536 0.277514 F F F Ti
0.375121 0.875106 0.158648 F F F Ti
0.875657 0.875057 0.158533 F F F Ti
0.375134 0.375051 0.157793 F F F Ti
0.873514 0.375327 0.156869 F F F Ti
0.868965 0.375578 0.396545 F F F Ti
0.374927 0.878149 0.396351 F F F Ti
0.877609 0.874208 0.396526 F F F Ti
0.374368 0.624363 0.237856 F F F Ti
0.874434 0.626305 0.237664 F F F Ti
0.374933 0.625271 -0.000115 F F F Ti
0.874908 0.625301 -0.000127 F F F Ti
0.376595 0.124828 0.237098 F F F Ti
0.876360 0.124354 0.236804 F F F Ti
0.375080 0.124797 -0.000227 F F F Ti
0.874989 0.124778 -0.000237 F F F Ti
0.335920 0.330034 0.378841 T T T Cr

0.000000 0.000000 0.000000
0.000000 0.000000 0.000000
0.000000 0.000000 0.000000
0.000000 0.000000 0.000000
0.000000 0.000000 0.000000
0.000000 0.000000 0.000000
0.000000 0.000000 0.000000
0.000000 0.000000 0.000000
0.000000 0.000000 0.000000
0.000000 0.000000 0.000000
0.000000 0.000000 0.000000
0.000000 0.000000 0.000000
0.000000 0.000000 0.000000
0.000000 0.000000 0.000000
0.000000 0.000000 0.000000
0.000000 0.000000 0.000000
0.000000 0.000000 0.000000
0.000000 0.000000 0.000000
0.000000 0.000000 0.000000
0.000000 0.000000 0.000000
0.000000 0.000000 0.000000
0.000000 0.000000 0.000000
0.000000 0.000000 0.000000
0.000000 0.000000 0.000000
0.000000 0.000000 0.000000
0.000000 0.000000 0.000000
0.000000 0.000000 0.000000
0.000000 0.000000 0.000000
0.000000 0.000000 0.000000
0.000000 0.000000 0.000000
0.000000 0.000000 0.000000
0.000000 0.000000 0.000000
0.000000 0.000000 0.000000
0.000000 0.000000 0.000000
0.000000 0.000000 0.000000
0.000000 0.000000 0.000000
0.000000 0.000000 0.000000
0.000000 0.000000 0.000000
0.000000 0.000000 0.000000
0.000000 0.000000 0.000000
0.000000 0.000000 0.000000
0.000000 0.000000 0.000000
0.000000 0.000000 0.000000
0.000000 0.000000 0.000000
0.000000 0.000000 0.000000
0.000000 0.000000 0.000000
0.000000 0.000000 0.000000
0.000000 0.000000 0.000000
0.000000 0.000000 0.000000
0.000000 0.000000 0.000000
0.000000 0.000000 0.000000
0.000000 0.000000 0.000000
0.000000 0.000000 0.000000
0.000000 0.000000 0.000000
0.000000 0.000000 0.000000
0.000000 0.000000 0.000000
0.000000 0.000000 0.000000
0.000000 0.000000 0.000000
0.000000 0.000000 0.000000
0.000000 0.000000 0.000000
0.000000 0.000000 0.000000
0.000000 0.000000 0.000000
0.000000 0.000000 0.000000
0.000000 0.000000 0.000000
0.000000 0.000000 0.000000
0.000000 0.000000 0.000000
0.000000 0.000000 0.000000
