Ti96 Mo1
1.0
9.513020 0.000000 0.000000
0.000000 9.350860 0.000000
0.000000 0.000000 18.547230
Ti Mo
96 1
Selective dynamics
direct
0.146630 0.376185 0.399001 T T T Ti
0.649943 0.379761 0.401726 T T T Ti
0.162396 0.888947 0.391086 T T T Ti
0.652110 0.903214 0.412008 T T T Ti
0.161463 0.378427 0.237765 T T T Ti
0.660869 0.377719 0.233775 T T T Ti
0.157649 0.875873 0.235817 T T T Ti
0.662006 0.876492 0.232305 T T T Ti
0.166653 0.374990 0.077681 F F F Ti
0.666666 0.374986 0.077691 F F F Ti
0.166672 0.874999 0.077673 F F F Ti
0.666678 0.874997 0.077684 F F F Ti
0.413111 0.371176 0.316320 T T T Ti
0.902968 0.377160 0.315774 T T T Ti
0.415210 0.871882 0.317740 T T T Ti
0.894930 0.870011 0.321038 T T T Ti
0.416653 0.374979 0.155341 F F F Ti
0.916638 0.374971 0.155361 F F F Ti
0.416691 0.875012 0.155320 F F F Ti
0.916717 0.874961 0.155328 F F F Ti
0.416662 0.375009 -0.000006 F F F Ti
0.916654 0.375002 0.000004 F F F Ti
0.416675 0.875001 -0.000013 F F F Ti
0.916659 0.874993 -0.000005 F F F Ti
0.086889 0.128824 0.316319 T T T Ti
0.597032 0.122840 0.315773 T T T Ti
0.084790 0.628118 0.317739 T T T Ti
0.605070 0.629990 0.321037 T T T Ti
0.083348 0.125024 0.155341 F F F Ti
0.583362 0.125031 0.155361 F F F Ti
0.083309 0.624992 0.155320 F F F Ti
0.583282 0.625042 0.155327 F F F Ti
0.083339 0.124995 -0.000006 F F F Ti
0.583346 0.125001 0.000004 F F F Ti
0.083325 0.625004 -0.000013 F F F Ti
0.583341 0.625011 -0.000005 F F F Ti
0.353369 0.123815 0.399001 T T T Ti
0.850056 0.120239 0.401726 T T T Ti
0.337603 0.611053 0.391086 T T T Ti
0.847889 0.596786 0.412008 T T T Ti
0.338536 0.121573 0.237765 T T T Ti
0.839130 0.122281 0.233775 T T T Ti
0.342351 0.624128 0.235817 T T T Ti
0.837993 0.623508 0.232305 T T T Ti
0.333346 0.125014 0.077681 F F F Ti
0.833333 0.125016 0.077691 F F F Ti
0.333327 0.625005 0.077673 F F F Ti
0.833322 0.625006 0.077683 F F F Ti
0.374958 0.375018 0.823823 F F F Ti
0.875011 0.374978 0.823796 F F F Ti
0.375013 0.875012 0.823830 F F F Ti
0.875024 0.874960 0.823769 F F F Ti
0.125044 0.124982 0.823822 F F F Ti
0.624992 0.125021 0.823796 F F F Ti
0.124988 0.624987 0.823830 F F F Ti
0.624979 0.625039 0.823769 F F F Ti
0.124980 0.374983 0.910107 F F F Ti
0.625003 0.375014 0.910088 F F F Ti
0.124994 0.874996 0.910111 F F F Ti
0.625013 0.874988 0.910079 F F F Ti
0.375023 0.125018 0.910107 F F F Ti
0.874999 0.124987 0.910087 F F F Ti
0.375009 0.625004 0.910112 F F F Ti
0.874989 0.625015 0.910078 F F F Ti
0.397309 0.373980 0.646321 T T T Ti
0.884516 0.345647 0.653899 T T T Ti
0.371714 0.870993 0.671480 T T T Ti
0.887208 0.870638 0.656875 T T T Ti
0.102690 0.126019 0.646321 T T T Ti
0.615484 0.154351 0.653898 T T T Ti
0.128285 0.629004 0.671480 T T T Ti
0.612791 0.629360 0.656875 T T T Ti
0.147448 0.383733 0.574364 T T T Ti
0.659379 0.406190 0.564762 T T T Ti
0.146183 0.872665 0.576396 T T T Ti
0.579257 0.916394 0.578520 T T T Ti
0.352551 0.116266 0.574364 T T T Ti
0.840621 0.093809 0.564762 T T T Ti
0.353817 0.627335 0.576396 T T T Ti
0.920743 0.583606 0.578520 T T T Ti
0.388024 0.370801 0.489188 T T T Ti
0.902158 0.343601 0.488863 T T T Ti
0.376592 0.860322 0.479819 T T T Ti
-0.067797 -0.121385 0.476092 T T T Ti
0.111976 0.129199 0.489188 T T T Ti
0.597842 0.156398 0.488863 T T T Ti
0.123408 0.639678 0.479819 T T T Ti
0.567797 0.621385 0.476092 T T T Ti
0.125101 0.875131 0.737577 F F F Ti
0.625029 0.875027 0.737518 F F F Ti
0.374894 0.624859 0.737580 F F F Ti
0.874967 0.624965 0.737518 F F F Ti
0.125099 0.374900 0.737540 F F F Ti
0.624860 0.375319 0.737549 F F F Ti
0.374897 0.125092 0.737540 F F F Ti
0.875136 0.124671 0.737552 F F F Ti
0.750000 0.750000 0.542323 T T T Mo

0.000000 0.000000 0.000000
0.000000 0.000000 0.000000
0.000000 0.000000 0.000000
0.000000 0.000000 0.000000
0.000000 0.000000 0.000000
0.000000 0.000000 0.000000
0.000000 0.000000 0.000000
0.000000 0.000000 0.000000
0.000000 0.000000 0.000000
0.000000 0.000000 0.000000
0.000000 0.000000 0.000000
0.000000 0.000000 0.000000
0.000000 0.000000 0.000000
0.000000 0.000000 0.000000
0.000000 0.000000 0.000000
0.000000 0.000000 0.000000
0.000000 0.000000 0.000000
0.000000 0.000000 0.000000
0.000000 0.000000 0.000000
0.000000 0.000000 0.000000
0.000000 0.000000 0.000000
0.000000 0.000000 0.000000
0.000000 0.000000 0.000000
0.000000 0.000000 0.000000
0.000000 0.000000 0.000000
0.000000 0.000000 0.000000
0.000000 0.000000 0.000000
0.000000 0.000000 0.000000
0.000000 0.000000 0.000000
0.000000 0.000000 0.000000
0.000000 0.000000 0.000000
0.000000 0.000000 0.000000
0.000000 0.000000 0.000000
0.000000 0.000000 0.000000
0.000000 0.000000 0.000000
0.000000 0.000000 0.000000
0.000000 0.000000 0.000000
0.000000 0.000000 0.000000
0.000000 0.000000 0.000000
0.000000 0.000000 0.000000
0.000000 0.000000 0.000000
0.000000 0.000000 0.000000
0.000000 0.000000 0.000000
0.000000 0.000000 0.000000
0.000000 0.000000 0.000000
0.000000 0.000000 0.000000
0.000000 0.000000 0.000000
0.000000 0.000000 0.000000
0.000000 0.000000 0.000000
0.000000 0.000000 0.000000
0.000000 0.000000 0.000000
0.000000 0.000000 0.000000
0.000000 0.000000 0.000000
0.000000 0.000000 0.000000
0.000000 0.000000 0.000000
0.000000 0.000000 0.000000
0.000000 0.000000 0.000000
0.000000 0.000000 0.000000
0.000000 0.000000 0.000000
0.000000 0.000000 0.000000
0.000000 0.000000 0.000000
0.000000 0.000000 0.000000
0.000000 0.000000 0.000000
0.000000 0.000000 0.000000
0.000000 0.000000 0.000000
0.000000 0.000000 0.000000
0.000000 0.000000 0.000000
0.000000 0.000000 0.000000
0.000000 0.000000 0.000000
0.000000 0.000000 0.000000
0.000000 0.000000 0.000000
0.000000 0.000000 0.000000
0.000000 0.000000 0.000000
0.000000 0.000000 0.000000
0.000000 0.000000 0.000000
0.000000 0.000000 0.000000
0.000000 0.000000 0.000000
0.000000 0.000000 0.000000
0.000000 0.000000 0.000000
0.000000 0.000000 0.000000
0.000000 0.000000 0.000000
0.000000 0.000000 0.000000
0.000000 0.000000 0.000000
0.000000 0.000000 0.000000
0.000000 0.000000 0.000000
0.000000 0.000000 0.000000
0.000000 0.000000 0.000000
0.000000 0.000000 0.000000
0.000000 0.000000 0.000000
0.000000 0.000000 0.000000
0.000000 0.000000 0.000000
0.000000 0.000000 0.000000
0.000000 0.000000 0.000000
0.000000 0.000000 0.000000
0.000000 0.000000 0.000000
0.000000 0.000000 0.000000
0.000000 0.000000 0.000000
