total_Ti
1.0
4.756510 0.000000 0.000000
0.000000 4.675430 0.000000
0.000000 0.000000 21.811761
Ti
24
direct
0.333333 0.750000 0.330308 Ti
0.333333 0.750000 0.198185 Ti
0.333333 0.750000 0.066062 Ti
0.833334 0.750000 0.264247 Ti
0.833334 0.750000 0.132123 Ti
0.833334 0.750000 -0.000000 Ti
0.166666 0.250000 0.264246 Ti
0.166666 0.250000 0.132123 Ti
0.166666 0.250000 -0.000000 Ti
0.666667 0.250000 0.330308 Ti
0.666667 0.250000 0.198185 Ti
0.666667 0.250000 0.066062 Ti
0.750000 0.750000 0.848708 Ti
0.250000 0.250000 0.848708 Ti
0.250000 0.750000 0.775287 Ti
0.750000 0.250000 0.775287 Ti
0.750000 0.750000 0.701866 Ti
0.250000 0.250000 0.701866 Ti
0.250000 0.750000 0.628445 Ti
0.750000 0.250000 0.628445 Ti
0.750000 0.750000 0.555023 Ti
0.250000 0.250000 0.555023 Ti
0.250000 0.750000 0.481602 Ti
0.750000 0.250000 0.481602 Ti
