alpha_Ti
1.0
6.309760 0.000000 0.000000
0.000000 9.464640 0.000000
0.000000 0.000000 35.000004
Ti
32
direct
0.125000 0.625000 0.192857 Ti
0.625000 0.625000 0.192857 Ti
0.125000 0.625000 0.064286 Ti
0.625000 0.625000 0.064286 Ti
0.125000 0.125000 0.192857 Ti
0.625000 0.125000 0.192857 Ti
0.125000 0.125000 0.064286 Ti
0.625000 0.125000 0.064286 Ti
0.125000 0.375000 0.021429 Ti
0.625000 0.375000 0.021429 Ti
0.125000 0.875000 0.021429 Ti
0.625000 0.875000 0.021429 Ti
0.125000 0.375000 0.150000 Ti
0.625000 0.375000 0.150000 Ti
0.125000 0.875000 0.150000 Ti
0.625000 0.875000 0.150000 Ti
0.375000 0.875000 0.085714 Ti
0.875000 0.875000 0.085714 Ti
0.374999 0.375000 0.085714 Ti
0.874999 0.375000 0.085714 Ti
0.375000 0.375000 0.214286 Ti
0.875000 0.375000 0.214286 Ti
0.375000 0.875000 0.214286 Ti
0.875000 0.875000 0.214286 Ti
0.375000 0.625000 0.128571 Ti
0.875000 0.625000 0.128571 Ti
0.375000 0.625000 -0.000000 Ti
0.875000 0.625000 -0.000000 Ti
0.375000 0.125000 0.128571 Ti
0.875000 0.125000 0.128571 Ti
0.375000 0.125000 -0.000000 Ti
0.875000 0.125000 -0.000000 Ti
