Ti66 Sn1
1.0
6.309760 0.000000 0.000000
0.000000 9.464640 0.000000
0.000000 0.000000 18.918326
Ti Sn
66 1
Selective dynamics
direct
0.124877 0.041052 0.500061 F F F Ti
0.625327 0.041488 0.500021 F F F Ti
0.125011 0.041601 0.658639 F F F Ti
0.625190 0.041574 0.658663 F F F Ti
0.125005 0.041666 0.817177 F F F Ti
0.625019 0.041665 0.817182 F F F Ti
0.628256 0.375071 0.500387 F F F Ti
0.125121 0.374997 0.658567 F F F Ti
0.625266 0.375010 0.658682 F F F Ti
0.125002 0.375001 0.817162 F F F Ti
0.625027 0.375003 0.817180 F F F Ti
0.124898 0.708860 0.500060 F F F Ti
0.625260 0.708520 0.500020 F F F Ti
0.125011 0.708388 0.658624 F F F Ti
0.625159 0.708435 0.658655 F F F Ti
0.125000 0.708335 0.817171 F F F Ti
0.625014 0.708339 0.817180 F F F Ti
0.375834 0.207843 0.579617 F F F Ti
0.875237 0.208142 0.579373 F F F Ti
0.375028 0.208325 0.737913 F F F Ti
0.875051 0.208329 0.737892 F F F Ti
0.375002 0.208335 0.896450 F F F Ti
0.875004 0.208335 0.896447 F F F Ti
0.375801 0.542137 0.579601 F F F Ti
0.875258 0.541855 0.579370 F F F Ti
0.375025 0.541679 0.737911 F F F Ti
0.875052 0.541672 0.737891 F F F Ti
0.375001 0.541666 0.896450 F F F Ti
0.875004 0.541665 0.896447 F F F Ti
0.375138 0.875049 0.579339 F F F Ti
0.874939 0.875006 0.579355 F F F Ti
0.375014 0.875004 0.737905 F F F Ti
0.875021 0.874997 0.737908 F F F Ti
0.375004 0.875001 0.896453 F F F Ti
0.875000 0.875000 0.896452 F F F Ti
0.124576 0.625574 0.356568 F F F Ti
0.624910 0.625234 0.356744 F F F Ti
0.125002 0.625009 0.118912 F F F Ti
0.624970 0.625011 0.118907 F F F Ti
0.124571 0.124434 0.356557 F F F Ti
0.624950 0.124794 0.356741 F F F Ti
0.125004 0.124997 0.118910 F F F Ti
0.624971 0.124995 0.118905 F F F Ti
0.125001 0.375001 0.039632 F F F Ti
0.624987 0.375001 0.039629 F F F Ti
0.124999 0.875003 0.039634 F F F Ti
0.624990 0.875004 0.039633 F F F Ti
0.124816 0.375005 0.277403 F F F Ti
0.624564 0.375007 0.277355 F F F Ti
0.124978 0.875031 0.277440 F F F Ti
0.624938 0.875029 0.277471 F F F Ti
0.375012 0.875005 0.158552 F F F Ti
0.874971 0.875009 0.158541 F F F Ti
0.374965 0.375002 0.158548 F F F Ti
0.874949 0.375002 0.158525 F F F Ti
0.870933 0.374996 0.395651 F F F Ti
0.375062 0.875121 0.396428 F F F Ti
0.874872 0.875065 0.396413 F F F Ti
0.374999 0.625019 0.237833 F F F Ti
0.874861 0.625056 0.237781 F F F Ti
0.374999 0.625004 -0.000002 F F F Ti
0.874994 0.625004 -0.000005 F F F Ti
0.375002 0.124992 0.237831 F F F Ti
0.874859 0.124953 0.237779 F F F Ti
0.374997 0.124996 -0.000004 F F F Ti
0.874994 0.124996 -0.000005 F F F Ti
0.214613 0.374606 0.463783 T T T Sn

0.000000 0.000000 0.000000
0.000000 0.000000 0.000000
0.000000 0.000000 0.000000
0.000000 0.000000 0.000000
0.000000 0.000000 0.000000
0.000000 0.000000 0.000000
0.000000 0.000000 0.000000
0.000000 0.000000 0.000000
0.000000 0.000000 0.000000
0.000000 0.000000 0.000000
0.000000 0.000000 0.000000
0.000000 0.000000 0.000000
0.000000 0.000000 0.000000
0.000000 0.000000 0.000000
0.000000 0.000000 0.000000
0.000000 0.000000 0.000000
0.000000 0.000000 0.000000
0.000000 0.000000 0.000000
0.000000 0.000000 0.000000
0.000000 0.000000 0.000000
0.000000 0.000000 0.000000
0.000000 0.000000 0.000000
0.000000 0.000000 0.000000
0.000000 0.000000 0.000000
0.000000 0.000000 0.000000
0.000000 0.000000 0.000000
0.000000 0.000000 0.000000
0.000000 0.000000 0.000000
0.000000 0.000000 0.000000
0.000000 0.000000 0.000000
0.000000 0.000000 0.000000
0.000000 0.000000 0.000000
0.000000 0.000000 0.000000
0.000000 0.000000 0.000000
0.000000 0.000000 0.000000
0.000000 0.000000 0.000000
0.000000 0.000000 0.000000
0.000000 0.000000 0.000000
0.000000 0.000000 0.000000
0.000000 0.000000 0.000000
0.000000 0.000000 0.000000
0.000000 0.000000 0.000000
0.000000 0.000000 0.000000
0.000000 0.000000 0.000000
0.000000 0.000000 0.000000
0.000000 0.000000 0.000000
0.000000 0.000000 0.000000
0.000000 0.000000 0.000000
0.000000 0.000000 0.000000
0.000000 0.000000 0.000000
0.000000 0.000000 0.000000
0.000000 0.000000 0.000000
0.000000 0.000000 0.000000
0.000000 0.000000 0.000000
0.000000 0.000000 0.000000
0.000000 0.000000 0.000000
0.000000 0.000000 0.000000
0.000000 0.000000 0.000000
0.000000 0.000000 0.000000
0.000000 0.000000 0.000000
0.000000 0.000000 0.000000
0.000000 0.000000 0.000000
0.000000 0.000000 0.000000
0.000000 0.000000 0.000000
0.000000 0.000000 0.000000
0.000000 0.000000 0.000000
0.000000 0.000000 0.000000
