alpha_Ti
1.0
6.309760 0.000000 0.000000
0.000000 9.464640 0.000000
0.000000 0.000000 19.800004
Ti
32
direct
0.125000 0.625000 0.340909 Ti
0.625000 0.625000 0.340909 Ti
0.125000 0.625000 0.113636 Ti
0.625000 0.625000 0.113636 Ti
0.125000 0.125000 0.340909 Ti
0.625000 0.125000 0.340909 Ti
0.125000 0.125000 0.113636 Ti
0.625000 0.125000 0.113636 Ti
0.125000 0.375000 0.037879 Ti
0.625000 0.375000 0.037879 Ti
0.125000 0.875000 0.037879 Ti
0.625000 0.875000 0.037879 Ti
0.125000 0.375000 0.265152 Ti
0.625000 0.375000 0.265152 Ti
0.125000 0.875000 0.265152 Ti
0.625000 0.875000 0.265152 Ti
0.375000 0.875000 0.151515 Ti
0.875000 0.875000 0.151515 Ti
0.374999 0.375000 0.151515 Ti
0.874999 0.375000 0.151515 Ti
0.375000 0.375000 0.378788 Ti
0.875000 0.375000 0.378788 Ti
0.375000 0.875000 0.378788 Ti
0.875000 0.875000 0.378788 Ti
0.375000 0.625000 0.227273 Ti
0.875000 0.625000 0.227273 Ti
0.375000 0.625000 -0.000000 Ti
0.875000 0.625000 -0.000000 Ti
0.375000 0.125000 0.227273 Ti
0.875000 0.125000 0.227273 Ti
0.375000 0.125000 -0.000000 Ti
0.875000 0.125000 -0.000000 Ti
