Optimistic_Structure                    
   1.00000000000000     
     6.3097599999999998    0.0000000000000000    0.0000000000000000
     0.0000000000000000    9.4646399999999993    0.0000000000000000
     0.0000000000000000    0.0000000000000000   18.9183260000000004
   Ti   Mo
    66     1
Selective dynamics
Direct
  0.1250000000000000  0.0744403541394886  0.4294473618162355   T   T   T
  0.6250000000000000  0.0828575967619428  0.4735808435919094   T   T   T
  0.1250000000000000  0.0446424450932093  0.6567084614470409   T   T   T
  0.6250000000000000  0.0491193468153757  0.6401462029284198   T   T   T
  0.1250000000000000  0.0416669999999968  0.8171529999999976   F   F   F
  0.6250000000000000  0.0416669999999968  0.8171529999999976   F   F   F
  0.6250000000000000  0.3933334911807385  0.4935854963352280   T   T   T
  0.1250000000000000  0.3630818291809014  0.6548241668878002   T   T   T
  0.6250000000000000  0.3579703186334468  0.6464613502969747   T   T   T
  0.1250000000000000  0.3750000000000000  0.8171529999999976   F   F   F
  0.6250000000000000  0.3750000000000000  0.8171529999999976   F   F   F
  0.1250000000000000  0.7167198418256105  0.4888223856809715   T   T   T
  0.6250000000000000  0.7313708584273247  0.4992855965025584   T   T   T
  0.1250000000000000  0.7328603673877560  0.6422736607314689   T   T   T
  0.6250000000000000  0.7322683400147797  0.6460046871124858   T   T   T
  0.1250000000000000  0.7083330000000032  0.8171529999999976   F   F   F
  0.6250000000000000  0.7083330000000032  0.8171529999999976   F   F   F
  0.3423598884189716  0.2137941082939149  0.5526733351222032   T   T   T
  0.9076401115810282  0.2137941082939149  0.5526733351222032   T   T   T
  0.3750000000000000  0.2083330000000032  0.7378649999999993   F   F   F
  0.8750000000000000  0.2083330000000032  0.7378649999999993   F   F   F
  0.3750000000000000  0.2083330000000032  0.8964410000000029   F   F   F
  0.8750000000000000  0.2083330000000032  0.8964410000000029   F   F   F
  0.3708157416725435  0.5385883620648767  0.5784505218015327   T   T   T
  0.8791842583274566  0.5385883620648767  0.5784505218015327   T   T   T
  0.3750000000000000  0.5416669999999968  0.7378649999999993   F   F   F
  0.8750000000000000  0.5416669999999968  0.7378649999999993   F   F   F
  0.3750000000000000  0.5416669999999968  0.8964410000000029   F   F   F
  0.8750000000000000  0.5416669999999968  0.8964410000000029   F   F   F
  0.3434074918091518  0.9195461436489218  0.5495554251307714   T   T   T
  0.9065925081908480  0.9195461436489218  0.5495554251307714   T   T   T
  0.3750000000000000  0.8750000000000000  0.7378649999999993   F   F   F
  0.8750000000000000  0.8750000000000000  0.7378649999999993   F   F   F
  0.3750000000000000  0.8750000000000000  0.8964410000000029   F   F   F
  0.8750000000000000  0.8750000000000000  0.8964410000000029   F   F   F
  0.1250000000000000  0.6019877666372017  0.3682969959006362   T   T   T
  0.6250000000000000  0.6009890827960441  0.3737483673543647   T   T   T
  0.1250000000000000  0.6250000000000000  0.1189320000000009   F   F   F
  0.6250000000000000  0.6250000000000000  0.1189320000000009   F   F   F
  0.6250000000000000  0.0837365905583800  0.3521186466687374   T   T   T
  0.1250000000000000  0.1250000000000000  0.1189320000000009   F   F   F
  0.6250000000000000  0.1250000000000000  0.1189320000000009   F   F   F
  0.1250000000000000  0.3750000000000000  0.0396440000000027   F   F   F
  0.6250000000000000  0.3750000000000000  0.0396440000000027   F   F   F
  0.1250000000000000  0.8750000000000000  0.0396440000000027   F   F   F
  0.6250000000000000  0.8750000000000000  0.0396440000000027   F   F   F
  0.1250000000000000  0.3816485698799237  0.2774005914793942   T   T   T
  0.6250000000000000  0.3798123794036086  0.2800266220464559   T   T   T
  0.1250000000000000  0.8890492870956349  0.2849065998033624   T   T   T
  0.6250000000000000  0.8659557208464280  0.2707883122521852   T   T   T
  0.3750000000000000  0.8750000000000000  0.1585759999999965   F   F   F
  0.8750000000000000  0.8750000000000000  0.1585759999999965   F   F   F
  0.3749990000000025  0.3750000000000000  0.1585759999999965   F   F   F
  0.8749990000000025  0.3750000000000000  0.1585759999999965   F   F   F
  0.3695256604120227  0.3058124520906944  0.3924733369706698   T   T   T
  0.8804743395879774  0.3058124520906944  0.3924733369706698   T   T   T
  0.3949527995862457  0.8544528303645794  0.3959978418122906   T   T   T
  0.8550472004137540  0.8544528303645794  0.3959978418122906   T   T   T
  0.3659088092870664  0.6287953080050048  0.2489688253372029   T   T   T
  0.8840911907129336  0.6287953080050048  0.2489688253372029   T   T   T
  0.3750000000000000  0.6250000000000000  0.0000000000000000   F   F   F
  0.8750000000000000  0.6250000000000000  0.0000000000000000   F   F   F
  0.3794309110602653  0.1287768766043177  0.2457485640097562   T   T   T
  0.8705690889397346  0.1287768766043177  0.2457485640097562   T   T   T
  0.3750000000000000  0.1250000000000000  0.0000000000000000   F   F   F
  0.8750000000000000  0.1250000000000000  0.0000000000000000   F   F   F
  0.1250000000000000  0.4146843295661154  0.4835768837475583   T   T   T
 
  0.00000000E+00  0.00000000E+00  0.00000000E+00
  0.00000000E+00  0.00000000E+00  0.00000000E+00
  0.00000000E+00  0.00000000E+00  0.00000000E+00
  0.00000000E+00  0.00000000E+00  0.00000000E+00
  0.00000000E+00  0.00000000E+00  0.00000000E+00
  0.00000000E+00  0.00000000E+00  0.00000000E+00
  0.00000000E+00  0.00000000E+00  0.00000000E+00
  0.00000000E+00  0.00000000E+00  0.00000000E+00
  0.00000000E+00  0.00000000E+00  0.00000000E+00
  0.00000000E+00  0.00000000E+00  0.00000000E+00
  0.00000000E+00  0.00000000E+00  0.00000000E+00
  0.00000000E+00  0.00000000E+00  0.00000000E+00
  0.00000000E+00  0.00000000E+00  0.00000000E+00
  0.00000000E+00  0.00000000E+00  0.00000000E+00
  0.00000000E+00  0.00000000E+00  0.00000000E+00
  0.00000000E+00  0.00000000E+00  0.00000000E+00
  0.00000000E+00  0.00000000E+00  0.00000000E+00
  0.00000000E+00  0.00000000E+00  0.00000000E+00
  0.00000000E+00  0.00000000E+00  0.00000000E+00
  0.00000000E+00  0.00000000E+00  0.00000000E+00
  0.00000000E+00  0.00000000E+00  0.00000000E+00
  0.00000000E+00  0.00000000E+00  0.00000000E+00
  0.00000000E+00  0.00000000E+00  0.00000000E+00
  0.00000000E+00  0.00000000E+00  0.00000000E+00
  0.00000000E+00  0.00000000E+00  0.00000000E+00
  0.00000000E+00  0.00000000E+00  0.00000000E+00
  0.00000000E+00  0.00000000E+00  0.00000000E+00
  0.00000000E+00  0.00000000E+00  0.00000000E+00
  0.00000000E+00  0.00000000E+00  0.00000000E+00
  0.00000000E+00  0.00000000E+00  0.00000000E+00
  0.00000000E+00  0.00000000E+00  0.00000000E+00
  0.00000000E+00  0.00000000E+00  0.00000000E+00
  0.00000000E+00  0.00000000E+00  0.00000000E+00
  0.00000000E+00  0.00000000E+00  0.00000000E+00
  0.00000000E+00  0.00000000E+00  0.00000000E+00
  0.00000000E+00  0.00000000E+00  0.00000000E+00
  0.00000000E+00  0.00000000E+00  0.00000000E+00
  0.00000000E+00  0.00000000E+00  0.00000000E+00
  0.00000000E+00  0.00000000E+00  0.00000000E+00
  0.00000000E+00  0.00000000E+00  0.00000000E+00
  0.00000000E+00  0.00000000E+00  0.00000000E+00
  0.00000000E+00  0.00000000E+00  0.00000000E+00
  0.00000000E+00  0.00000000E+00  0.00000000E+00
  0.00000000E+00  0.00000000E+00  0.00000000E+00
  0.00000000E+00  0.00000000E+00  0.00000000E+00
  0.00000000E+00  0.00000000E+00  0.00000000E+00
  0.00000000E+00  0.00000000E+00  0.00000000E+00
  0.00000000E+00  0.00000000E+00  0.00000000E+00
  0.00000000E+00  0.00000000E+00  0.00000000E+00
  0.00000000E+00  0.00000000E+00  0.00000000E+00
  0.00000000E+00  0.00000000E+00  0.00000000E+00
  0.00000000E+00  0.00000000E+00  0.00000000E+00
  0.00000000E+00  0.00000000E+00  0.00000000E+00
  0.00000000E+00  0.00000000E+00  0.00000000E+00
  0.00000000E+00  0.00000000E+00  0.00000000E+00
  0.00000000E+00  0.00000000E+00  0.00000000E+00
  0.00000000E+00  0.00000000E+00  0.00000000E+00
  0.00000000E+00  0.00000000E+00  0.00000000E+00
  0.00000000E+00  0.00000000E+00  0.00000000E+00
  0.00000000E+00  0.00000000E+00  0.00000000E+00
  0.00000000E+00  0.00000000E+00  0.00000000E+00
  0.00000000E+00  0.00000000E+00  0.00000000E+00
  0.00000000E+00  0.00000000E+00  0.00000000E+00
  0.00000000E+00  0.00000000E+00  0.00000000E+00
  0.00000000E+00  0.00000000E+00  0.00000000E+00
  0.00000000E+00  0.00000000E+00  0.00000000E+00
  0.00000000E+00  0.00000000E+00  0.00000000E+00
