Zr1 Ti66
1.0
6.309760 0.000000 0.000000
0.000000 9.464640 0.000000
0.000000 0.000000 18.918326
Ti Zr
66 1
Selective dynamics
direct
0.124953 0.041511 0.500019 F F F Ti
0.625071 0.041615 0.500007 F F F Ti
0.124993 0.041653 0.658588 F F F Ti
0.625030 0.041648 0.658591 F F F Ti
0.124999 0.041666 0.817156 F F F Ti
0.625003 0.041666 0.817157 F F F Ti
0.625899 0.375010 0.500115 F F F Ti
0.125006 0.375000 0.658582 F F F Ti
0.625046 0.375001 0.658600 F F F Ti
0.124999 0.375000 0.817155 F F F Ti
0.625004 0.375000 0.817157 F F F Ti
0.124956 0.708478 0.500019 F F F Ti
0.625063 0.708385 0.500007 F F F Ti
0.124993 0.708346 0.658586 F F F Ti
0.625026 0.708354 0.658590 F F F Ti
0.124999 0.708334 0.817155 F F F Ti
0.625002 0.708335 0.817157 F F F Ti
0.375165 0.208195 0.579389 F F F Ti
0.875028 0.208302 0.579303 F F F Ti
0.375003 0.208330 0.737875 F F F Ti
0.875003 0.208331 0.737869 F F F Ti
0.375000 0.208333 0.896442 F F F Ti
0.875000 0.208333 0.896442 F F F Ti
0.375162 0.541803 0.579387 F F F Ti
0.875030 0.541698 0.579303 F F F Ti
0.375003 0.541670 0.737875 F F F Ti
0.875003 0.541669 0.737869 F F F Ti
0.375000 0.541667 0.896442 F F F Ti
0.875000 0.541667 0.896442 F F F Ti
0.375018 0.875015 0.579297 F F F Ti
0.874986 0.875004 0.579299 F F F Ti
0.375001 0.875002 0.737871 F F F Ti
0.875000 0.875000 0.737870 F F F Ti
0.375000 0.875000 0.896442 F F F Ti
0.875000 0.875000 0.896442 F F F Ti
0.124885 0.625203 0.356719 F F F Ti
0.625012 0.625044 0.356786 F F F Ti
0.125000 0.625002 0.118928 F F F Ti
0.624998 0.625002 0.118929 F F F Ti
0.124883 0.124798 0.356718 F F F Ti
0.625017 0.124959 0.356785 F F F Ti
0.125000 0.124998 0.118928 F F F Ti
0.624998 0.124999 0.118928 F F F Ti
0.125000 0.375000 0.039642 F F F Ti
0.624999 0.375000 0.039642 F F F Ti
0.125000 0.875001 0.039642 F F F Ti
0.624999 0.875001 0.039643 F F F Ti
0.124948 0.375000 0.277458 F F F Ti
0.624949 0.375001 0.277490 F F F Ti
0.124997 0.875009 0.277496 F F F Ti
0.624993 0.875006 0.277504 F F F Ti
0.375003 0.875001 0.158572 F F F Ti
0.874995 0.875002 0.158571 F F F Ti
0.375002 0.375000 0.158571 F F F Ti
0.874986 0.375000 0.158566 F F F Ti
0.874008 0.374999 0.396268 F F F Ti
0.375016 0.875030 0.396439 F F F Ti
0.874973 0.875017 0.396437 F F F Ti
0.375008 0.625006 0.237856 F F F Ti
0.874972 0.625013 0.237847 F F F Ti
0.375000 0.625001 -0.000000 F F F Ti
0.874999 0.625001 -0.000001 F F F Ti
0.375008 0.124995 0.237857 F F F Ti
0.874972 0.124988 0.237848 F F F Ti
0.375000 0.124999 -0.000001 F F F Ti
0.874999 0.124999 -0.000001 F F F Ti
0.232219 0.374904 0.455996 T T T Zr

0.000000 0.000000 0.000000
0.000000 0.000000 0.000000
0.000000 0.000000 0.000000
0.000000 0.000000 0.000000
0.000000 0.000000 0.000000
0.000000 0.000000 0.000000
0.000000 0.000000 0.000000
0.000000 0.000000 0.000000
0.000000 0.000000 0.000000
0.000000 0.000000 0.000000
0.000000 0.000000 0.000000
0.000000 0.000000 0.000000
0.000000 0.000000 0.000000
0.000000 0.000000 0.000000
0.000000 0.000000 0.000000
0.000000 0.000000 0.000000
0.000000 0.000000 0.000000
0.000000 0.000000 0.000000
0.000000 0.000000 0.000000
0.000000 0.000000 0.000000
0.000000 0.000000 0.000000
0.000000 0.000000 0.000000
0.000000 0.000000 0.000000
0.000000 0.000000 0.000000
0.000000 0.000000 0.000000
0.000000 0.000000 0.000000
0.000000 0.000000 0.000000
0.000000 0.000000 0.000000
0.000000 0.000000 0.000000
0.000000 0.000000 0.000000
0.000000 0.000000 0.000000
0.000000 0.000000 0.000000
0.000000 0.000000 0.000000
0.000000 0.000000 0.000000
0.000000 0.000000 0.000000
0.000000 0.000000 0.000000
0.000000 0.000000 0.000000
0.000000 0.000000 0.000000
0.000000 0.000000 0.000000
0.000000 0.000000 0.000000
0.000000 0.000000 0.000000
0.000000 0.000000 0.000000
0.000000 0.000000 0.000000
0.000000 0.000000 0.000000
0.000000 0.000000 0.000000
0.000000 0.000000 0.000000
0.000000 0.000000 0.000000
0.000000 0.000000 0.000000
0.000000 0.000000 0.000000
0.000000 0.000000 0.000000
0.000000 0.000000 0.000000
0.000000 0.000000 0.000000
0.000000 0.000000 0.000000
0.000000 0.000000 0.000000
0.000000 0.000000 0.000000
0.000000 0.000000 0.000000
0.000000 0.000000 0.000000
0.000000 0.000000 0.000000
0.000000 0.000000 0.000000
0.000000 0.000000 0.000000
0.000000 0.000000 0.000000
0.000000 0.000000 0.000000
0.000000 0.000000 0.000000
0.000000 0.000000 0.000000
0.000000 0.000000 0.000000
0.000000 0.000000 0.000000
0.000000 0.000000 0.000000
