total_Ti
1.0
6.391540 0.000000 0.000000
0.000000 9.587310 0.000000
0.000000 0.000000 24.750000
Ti
84
direct
0.125000 0.083333 0.575758 Ti
0.625000 0.083333 0.575758 Ti
0.125000 0.083333 0.696970 Ti
0.625000 0.083333 0.696970 Ti
0.125000 0.083333 0.818182 Ti
0.625000 0.083333 0.818182 Ti
0.125000 0.416667 0.575758 Ti
0.625000 0.416667 0.575758 Ti
0.125000 0.416667 0.696970 Ti
0.625000 0.416667 0.696970 Ti
0.125000 0.416667 0.818182 Ti
0.625000 0.416667 0.818182 Ti
0.125000 0.750000 0.575758 Ti
0.625000 0.750000 0.575758 Ti
0.125000 0.750000 0.696970 Ti
0.625000 0.750000 0.696970 Ti
0.125000 0.750000 0.818182 Ti
0.625000 0.750000 0.818182 Ti
0.375000 0.250000 0.636364 Ti
0.875000 0.250000 0.636364 Ti
0.375000 0.250000 0.757576 Ti
0.875000 0.250000 0.757576 Ti
0.375000 0.250000 0.878788 Ti
0.875000 0.250000 0.878788 Ti
0.375000 0.583333 0.636364 Ti
0.875000 0.583333 0.636364 Ti
0.375000 0.583333 0.757576 Ti
0.875000 0.583333 0.757576 Ti
0.375000 0.583333 0.878788 Ti
0.875000 0.583333 0.878788 Ti
0.375000 0.916667 0.636364 Ti
0.875000 0.916667 0.636364 Ti
0.375000 0.916667 0.757576 Ti
0.875000 0.916667 0.757576 Ti
0.375000 0.916667 0.878788 Ti
0.875000 0.916667 0.878788 Ti
0.125000 0.166667 0.363636 Ti
0.625000 0.166667 0.363636 Ti
0.125000 0.666667 0.363636 Ti
0.625000 0.666667 0.363636 Ti
0.125000 0.166667 -0.000000 Ti
0.625000 0.166667 -0.000000 Ti
0.125000 0.666667 -0.000000 Ti
0.625000 0.666667 -0.000000 Ti
0.125000 0.833333 0.090909 Ti
0.625000 0.833333 0.090909 Ti
0.125000 0.833333 0.454545 Ti
0.625000 0.833333 0.454545 Ti
0.125000 0.333333 0.090909 Ti
0.625000 0.333333 0.090909 Ti
0.125000 0.333333 0.454545 Ti
0.625000 0.333333 0.454545 Ti
0.375000 0.583333 0.454545 Ti
0.875000 0.583333 0.454545 Ti
0.374999 0.583333 0.090909 Ti
0.874999 0.583333 0.090909 Ti
0.375000 0.083333 0.090909 Ti
0.875000 0.083333 0.090909 Ti
0.375000 0.083333 0.454545 Ti
0.875000 0.083333 0.454545 Ti
0.375000 0.416667 0.363636 Ti
0.875000 0.416667 0.363636 Ti
0.375000 0.916667 0.363636 Ti
0.875000 0.916667 0.363636 Ti
0.375000 0.416667 -0.000000 Ti
0.875000 0.416667 -0.000000 Ti
0.375000 0.916667 -0.000000 Ti
0.875000 0.916667 -0.000000 Ti
0.375000 0.083333 0.272727 Ti
0.875000 0.083333 0.272727 Ti
0.125000 0.166667 0.181818 Ti
0.625000 0.166667 0.181818 Ti
0.125000 0.333333 0.272727 Ti
0.625000 0.333333 0.272727 Ti
0.375000 0.416667 0.181818 Ti
0.875000 0.416667 0.181818 Ti
0.374999 0.583333 0.272727 Ti
0.874999 0.583333 0.272727 Ti
0.125000 0.666667 0.181818 Ti
0.625000 0.666667 0.181818 Ti
0.125000 0.833333 0.272727 Ti
0.625000 0.833333 0.272727 Ti
0.375000 0.916667 0.181818 Ti
0.875000 0.916667 0.181818 Ti
