alpha_Ti
1.0
5.745590 0.000000 0.000000
0.000000 9.072750 0.000000
0.000000 0.000000 24.625032
Ti
32
direct
0.041667 0.875000 0.379007 Ti
0.041667 0.375000 0.379007 Ti
0.541667 0.875000 0.379007 Ti
0.541667 0.375000 0.379007 Ti
0.291667 0.875000 0.275641 Ti
0.291667 0.375000 0.275641 Ti
0.791667 0.875000 0.275641 Ti
0.791667 0.375000 0.275641 Ti
0.041667 0.625000 0.310097 Ti
0.041667 0.125000 0.310097 Ti
0.541667 0.625000 0.310097 Ti
0.541667 0.125000 0.310097 Ti
0.041667 0.875000 0.172276 Ti
0.041667 0.375000 0.172276 Ti
0.541667 0.875000 0.172276 Ti
0.541667 0.375000 0.172276 Ti
0.291667 0.625000 0.206731 Ti
0.291667 0.125000 0.206731 Ti
0.791667 0.625000 0.206731 Ti
0.791667 0.125000 0.206731 Ti
0.291667 0.875000 0.068910 Ti
0.291667 0.375000 0.068910 Ti
0.791667 0.875000 0.068910 Ti
0.791667 0.375000 0.068910 Ti
0.041667 0.625000 0.103366 Ti
0.041667 0.125000 0.103366 Ti
0.541667 0.625000 0.103366 Ti
0.541667 0.125000 0.103366 Ti
0.791667 0.125000 0.000000 Ti
0.291667 0.125000 0.000000 Ti
0.791667 0.625000 -0.000000 Ti
0.291667 0.625000 -0.000000 Ti
