beta_Ti
1.0
5.745590 0.000000 0.000000
0.000000 9.072750 0.000000
0.000000 0.000000 24.625032
Ti
32
direct
0.291667 0.625000 0.500834 Ti
0.291667 0.125000 0.500834 Ti
0.791667 0.625000 0.500834 Ti
0.791667 0.125000 0.500834 Ti
0.458333 0.625000 0.608645 Ti
0.458333 0.125000 0.608645 Ti
0.958333 0.625000 0.608645 Ti
0.958333 0.125000 0.608645 Ti
0.125000 0.625000 0.716455 Ti
0.125000 0.125000 0.716455 Ti
0.625000 0.625000 0.716455 Ti
0.625000 0.125000 0.716455 Ti
0.291667 0.625000 0.824266 Ti
0.291667 0.125000 0.824266 Ti
0.791667 0.625000 0.824266 Ti
0.791667 0.125000 0.824266 Ti
0.125000 0.875000 0.554739 Ti
0.125000 0.375000 0.554739 Ti
0.625000 0.875000 0.554739 Ti
0.625000 0.375000 0.554739 Ti
0.291667 0.875000 0.662550 Ti
0.291667 0.375000 0.662550 Ti
0.791667 0.875000 0.662550 Ti
0.791667 0.375000 0.662550 Ti
0.458333 0.875000 0.770361 Ti
0.458333 0.375000 0.770361 Ti
0.958333 0.875000 0.770361 Ti
0.958333 0.375000 0.770361 Ti
0.125000 0.875000 0.878171 Ti
0.125000 0.375000 0.878171 Ti
0.625000 0.875000 0.878171 Ti
0.625000 0.375000 0.878171 Ti
