Ti66 Cr1
1.0
6.309760 0.000000 0.000000
0.000000 9.464640 0.000000
0.000000 0.000000 18.918326
Ti Cr
66 1
Selective dynamics
direct
0.137908 0.043578 0.492880 T T T Ti
0.613153 0.039366 0.492041 T T T Ti
0.138483 0.080706 0.643333 T T T Ti
0.610375 0.079582 0.644151 T T T Ti
0.125097 0.043546 0.816849 F F F Ti
0.624624 0.043485 0.816945 F F F Ti
0.164867 0.384896 0.467081 T T T Ti
0.586866 0.393010 0.465030 T T T Ti
0.134380 0.382064 0.637873 T T T Ti
0.615568 0.383782 0.638953 T T T Ti
0.124906 0.376434 0.816884 F F F Ti
0.624923 0.376506 0.816993 F F F Ti
0.127259 0.746833 0.492893 T T T Ti
0.621035 0.746531 0.492880 T T T Ti
0.100120 0.691379 0.645860 T T T Ti
0.649175 0.691700 0.646052 T T T Ti
0.125106 0.710024 0.817311 F F F Ti
0.624812 0.710044 0.817330 F F F Ti
0.865929 0.239751 0.549201 T T T Ti
0.374758 0.211165 0.737580 F F F Ti
0.874816 0.211118 0.737241 F F F Ti
0.374892 0.209277 0.896069 F F F Ti
0.874870 0.209247 0.896035 F F F Ti
0.374808 0.561782 0.554484 T T T Ti
0.874867 0.530243 0.537135 T T T Ti
0.374738 0.544519 0.738123 F F F Ti
0.875324 0.544296 0.737995 F F F Ti
0.374992 0.542312 0.896192 F F F Ti
0.875025 0.542326 0.896174 F F F Ti
0.374021 0.872676 0.587080 T T T Ti
0.872922 0.904301 0.576711 T T T Ti
0.374541 0.877542 0.737842 F F F Ti
0.874933 0.877961 0.738233 F F F Ti
0.374938 0.876084 0.896240 F F F Ti
0.874942 0.876088 0.896280 F F F Ti
0.128992 0.606681 0.373380 T T T Ti
0.619810 0.608188 0.372716 T T T Ti
0.124987 0.624222 0.118281 F F F Ti
0.624707 0.624207 0.118280 F F F Ti
0.149380 0.123592 0.363463 T T T Ti
0.599913 0.123410 0.362911 T T T Ti
0.125187 0.124129 0.118220 F F F Ti
0.624758 0.124161 0.118179 F F F Ti
0.125033 0.374690 0.039125 F F F Ti
0.624776 0.374688 0.039142 F F F Ti
0.125228 0.874756 0.039112 F F F Ti
0.624599 0.874766 0.039112 F F F Ti
0.145682 0.368656 0.283952 T T T Ti
0.603617 0.368969 0.283545 T T T Ti
0.110078 0.861765 0.279414 T T T Ti
0.639008 0.861714 0.279149 T T T Ti
0.374978 0.873879 0.157886 F F F Ti
0.875076 0.873861 0.157324 F F F Ti
0.374798 0.374048 0.157773 F F F Ti
0.875201 0.373885 0.157530 F F F Ti
0.873471 0.333623 0.393124 T T T Ti
0.374112 0.869992 0.392806 T T T Ti
0.873581 0.887577 0.399774 T T T Ti
0.374246 0.623325 0.248530 T T T Ti
0.874954 0.609084 0.248929 T T T Ti
0.374827 0.624883 -0.000379 F F F Ti
0.874716 0.624919 -0.000391 F F F Ti
0.374916 0.111802 0.242808 T T T Ti
0.874860 0.124978 0.250020 T T T Ti
0.375020 0.125050 -0.000567 F F F Ti
0.875111 0.125037 -0.000584 F F F Ti
0.399403 0.230925 0.517823 T T T Cr

0.000000 0.000000 0.000000
0.000000 0.000000 0.000000
0.000000 0.000000 0.000000
0.000000 0.000000 0.000000
0.000000 0.000000 0.000000
0.000000 0.000000 0.000000
0.000000 0.000000 0.000000
0.000000 0.000000 0.000000
0.000000 0.000000 0.000000
0.000000 0.000000 0.000000
0.000000 0.000000 0.000000
0.000000 0.000000 0.000000
0.000000 0.000000 0.000000
0.000000 0.000000 0.000000
0.000000 0.000000 0.000000
0.000000 0.000000 0.000000
0.000000 0.000000 0.000000
0.000000 0.000000 0.000000
0.000000 0.000000 0.000000
0.000000 0.000000 0.000000
0.000000 0.000000 0.000000
0.000000 0.000000 0.000000
0.000000 0.000000 0.000000
0.000000 0.000000 0.000000
0.000000 0.000000 0.000000
0.000000 0.000000 0.000000
0.000000 0.000000 0.000000
0.000000 0.000000 0.000000
0.000000 0.000000 0.000000
0.000000 0.000000 0.000000
0.000000 0.000000 0.000000
0.000000 0.000000 0.000000
0.000000 0.000000 0.000000
0.000000 0.000000 0.000000
0.000000 0.000000 0.000000
0.000000 0.000000 0.000000
0.000000 0.000000 0.000000
0.000000 0.000000 0.000000
0.000000 0.000000 0.000000
0.000000 0.000000 0.000000
0.000000 0.000000 0.000000
0.000000 0.000000 0.000000
0.000000 0.000000 0.000000
0.000000 0.000000 0.000000
0.000000 0.000000 0.000000
0.000000 0.000000 0.000000
0.000000 0.000000 0.000000
0.000000 0.000000 0.000000
0.000000 0.000000 0.000000
0.000000 0.000000 0.000000
0.000000 0.000000 0.000000
0.000000 0.000000 0.000000
0.000000 0.000000 0.000000
0.000000 0.000000 0.000000
0.000000 0.000000 0.000000
0.000000 0.000000 0.000000
0.000000 0.000000 0.000000
0.000000 0.000000 0.000000
0.000000 0.000000 0.000000
0.000000 0.000000 0.000000
0.000000 0.000000 0.000000
0.000000 0.000000 0.000000
0.000000 0.000000 0.000000
0.000000 0.000000 0.000000
0.000000 0.000000 0.000000
0.000000 0.000000 0.000000
0.000000 0.000000 0.000000
