Ti66 Nb1
1.0
6.309760 0.000000 0.000000
0.000000 9.464640 0.000000
0.000000 0.000000 18.918326
Ti Nb
66 1
Selective dynamics
direct
0.632681 0.039425 0.499362 F F F Ti
0.123124 0.040665 0.659424 F F F Ti
0.625125 0.041196 0.658770 F F F Ti
0.124897 0.041620 0.817292 F F F Ti
0.624820 0.041641 0.817250 F F F Ti
0.121421 0.379295 0.499378 F F F Ti
0.625674 0.375806 0.499744 F F F Ti
0.124367 0.375152 0.658662 F F F Ti
0.624354 0.375076 0.658674 F F F Ti
0.124973 0.374948 0.817204 F F F Ti
0.624834 0.374964 0.817218 F F F Ti
0.124922 0.708691 0.500015 F F F Ti
0.625217 0.707979 0.499903 F F F Ti
0.124859 0.708032 0.658766 F F F Ti
0.625104 0.707980 0.658812 F F F Ti
0.124968 0.708219 0.817271 F F F Ti
0.624882 0.708200 0.817295 F F F Ti
0.871246 0.209174 0.579703 F F F Ti
0.374752 0.208210 0.737856 F F F Ti
0.874523 0.208399 0.738037 F F F Ti
0.374974 0.208323 0.896460 F F F Ti
0.874920 0.208338 0.896491 F F F Ti
0.374916 0.541739 0.579336 F F F Ti
0.874209 0.542148 0.579507 F F F Ti
0.374883 0.541543 0.737954 F F F Ti
0.874848 0.541567 0.738021 F F F Ti
0.374973 0.541594 0.896487 F F F Ti
0.874957 0.541595 0.896501 F F F Ti
0.376378 0.873019 0.579669 F F F Ti
0.875209 0.874383 0.579561 F F F Ti
0.375033 0.874772 0.738043 F F F Ti
0.874552 0.874654 0.738120 F F F Ti
0.374989 0.874964 0.896503 F F F Ti
0.874918 0.874959 0.896521 F F F Ti
0.125038 0.624977 0.356758 F F F Ti
0.624819 0.624995 0.356716 F F F Ti
0.125013 0.624994 0.118919 F F F Ti
0.624980 0.624995 0.118915 F F F Ti
0.125029 0.125113 0.356673 F F F Ti
0.625606 0.124939 0.356527 F F F Ti
0.125019 0.124986 0.118905 F F F Ti
0.624994 0.124983 0.118897 F F F Ti
0.125013 0.374969 0.039602 F F F Ti
0.624949 0.374974 0.039606 F F F Ti
0.125010 0.875004 0.039621 F F F Ti
0.624951 0.874999 0.039626 F F F Ti
0.124939 0.375030 0.277378 F F F Ti
0.624983 0.375036 0.277316 F F F Ti
0.125110 0.875010 0.277469 F F F Ti
0.625116 0.874926 0.277423 F F F Ti
0.375005 0.874983 0.158547 F F F Ti
0.875031 0.874974 0.158538 F F F Ti
0.374991 0.374999 0.158510 F F F Ti
0.875016 0.375008 0.158497 F F F Ti
0.375087 0.375610 0.396134 F F F Ti
0.874160 0.375209 0.396050 F F F Ti
0.375316 0.874868 0.396366 F F F Ti
0.875749 0.874668 0.396257 F F F Ti
0.374980 0.624981 0.237827 F F F Ti
0.875044 0.624983 0.237820 F F F Ti
0.374989 0.624971 0.000012 F F F Ti
0.874995 0.624975 0.000021 F F F Ti
0.375029 0.124989 0.237804 F F F Ti
0.875089 0.124976 0.237762 F F F Ti
0.374998 0.124986 -0.000000 F F F Ti
0.874988 0.124980 0.000015 F F F Ti
0.290364 0.151191 0.539291 T T T Nb

0.000000 0.000000 0.000000
0.000000 0.000000 0.000000
0.000000 0.000000 0.000000
0.000000 0.000000 0.000000
0.000000 0.000000 0.000000
0.000000 0.000000 0.000000
0.000000 0.000000 0.000000
0.000000 0.000000 0.000000
0.000000 0.000000 0.000000
0.000000 0.000000 0.000000
0.000000 0.000000 0.000000
0.000000 0.000000 0.000000
0.000000 0.000000 0.000000
0.000000 0.000000 0.000000
0.000000 0.000000 0.000000
0.000000 0.000000 0.000000
0.000000 0.000000 0.000000
0.000000 0.000000 0.000000
0.000000 0.000000 0.000000
0.000000 0.000000 0.000000
0.000000 0.000000 0.000000
0.000000 0.000000 0.000000
0.000000 0.000000 0.000000
0.000000 0.000000 0.000000
0.000000 0.000000 0.000000
0.000000 0.000000 0.000000
0.000000 0.000000 0.000000
0.000000 0.000000 0.000000
0.000000 0.000000 0.000000
0.000000 0.000000 0.000000
0.000000 0.000000 0.000000
0.000000 0.000000 0.000000
0.000000 0.000000 0.000000
0.000000 0.000000 0.000000
0.000000 0.000000 0.000000
0.000000 0.000000 0.000000
0.000000 0.000000 0.000000
0.000000 0.000000 0.000000
0.000000 0.000000 0.000000
0.000000 0.000000 0.000000
0.000000 0.000000 0.000000
0.000000 0.000000 0.000000
0.000000 0.000000 0.000000
0.000000 0.000000 0.000000
0.000000 0.000000 0.000000
0.000000 0.000000 0.000000
0.000000 0.000000 0.000000
0.000000 0.000000 0.000000
0.000000 0.000000 0.000000
0.000000 0.000000 0.000000
0.000000 0.000000 0.000000
0.000000 0.000000 0.000000
0.000000 0.000000 0.000000
0.000000 0.000000 0.000000
0.000000 0.000000 0.000000
0.000000 0.000000 0.000000
0.000000 0.000000 0.000000
0.000000 0.000000 0.000000
0.000000 0.000000 0.000000
0.000000 0.000000 0.000000
0.000000 0.000000 0.000000
0.000000 0.000000 0.000000
0.000000 0.000000 0.000000
0.000000 0.000000 0.000000
0.000000 0.000000 0.000000
0.000000 0.000000 0.000000
0.000000 0.000000 0.000000
