Ti67
1.0
6.309760 0.000000 0.000000
0.000000 9.464640 0.000000
0.000000 0.000000 18.918326
Ti
67
Selective dynamics
direct
0.125113 0.042105 0.499988 F F F Ti
0.625326 0.041772 0.500051 F F F Ti
0.125083 0.041587 0.658632 F F F Ti
0.625053 0.041551 0.658652 F F F Ti
0.125043 0.041617 0.817065 F F F Ti
0.624950 0.041603 0.817079 F F F Ti
0.125324 0.375910 0.500793 F F F Ti
0.625170 0.375191 0.502104 F F F Ti
0.124958 0.375080 0.658830 F F F Ti
0.625041 0.375035 0.658986 F F F Ti
0.124987 0.375017 0.817118 F F F Ti
0.624919 0.375019 0.817151 F F F Ti
0.125132 0.708054 0.499849 F F F Ti
0.624411 0.708955 0.500130 F F F Ti
0.124995 0.708540 0.658628 F F F Ti
0.624894 0.708647 0.658700 F F F Ti
0.124993 0.708287 0.817089 F F F Ti
0.624913 0.708308 0.817113 F F F Ti
0.374889 0.208163 0.579577 F F F Ti
0.875303 0.208167 0.579649 F F F Ti
0.375003 0.208260 0.737929 F F F Ti
0.875011 0.208252 0.737947 F F F Ti
0.374992 0.208344 0.896279 F F F Ti
0.875024 0.208349 0.896251 F F F Ti
0.375061 0.542262 0.579773 F F F Ti
0.874993 0.542386 0.579814 F F F Ti
0.374994 0.541781 0.737978 F F F Ti
0.874967 0.541803 0.737991 F F F Ti
0.374961 0.541642 0.896388 F F F Ti
0.875007 0.541654 0.896370 F F F Ti
0.374839 0.875205 0.579271 F F F Ti
0.875189 0.875115 0.579287 F F F Ti
0.374966 0.875014 0.737875 F F F Ti
0.875000 0.875008 0.737880 F F F Ti
0.374992 0.874865 0.896305 F F F Ti
0.875045 0.874857 0.896284 F F F Ti
0.125492 0.625606 0.356912 F F F Ti
0.625348 0.626986 0.356573 F F F Ti
0.125275 0.624323 0.118898 F F F Ti
0.624950 0.624557 0.118843 F F F Ti
0.629832 0.125321 0.356794 F F F Ti
0.125340 0.124294 0.118397 F F F Ti
0.625078 0.124531 0.117382 F F F Ti
0.125179 0.374808 0.039512 F F F Ti
0.624914 0.375084 0.039317 F F F Ti
0.125082 0.874498 0.039320 F F F Ti
0.625007 0.874353 0.039167 F F F Ti
0.629044 0.374990 0.277462 F F F Ti
0.125293 0.874550 0.277068 F F F Ti
0.625345 0.873560 0.277435 F F F Ti
0.375429 0.873590 0.158071 F F F Ti
0.874847 0.873257 0.157917 F F F Ti
0.375728 0.374389 0.158504 F F F Ti
0.874452 0.374843 0.157952 F F F Ti
0.386851 0.381041 0.399211 F F F Ti
0.862213 0.383101 0.400058 F F F Ti
0.374802 0.876124 0.396275 F F F Ti
0.875727 0.875375 0.396386 F F F Ti
0.374894 0.624029 0.237927 F F F Ti
0.875673 0.624503 0.237812 F F F Ti
0.374923 0.624761 -0.000070 F F F Ti
0.875117 0.624777 -0.000088 F F F Ti
0.385626 0.120731 0.235504 F F F Ti
0.863416 0.119680 0.234413 F F F Ti
0.374861 0.124794 -0.000355 F F F Ti
0.875309 0.124792 -0.000386 F F F Ti
0.113407 0.250456 0.320997 T T T Ti

0.000000 0.000000 0.000000
0.000000 0.000000 0.000000
0.000000 0.000000 0.000000
0.000000 0.000000 0.000000
0.000000 0.000000 0.000000
0.000000 0.000000 0.000000
0.000000 0.000000 0.000000
0.000000 0.000000 0.000000
0.000000 0.000000 0.000000
0.000000 0.000000 0.000000
0.000000 0.000000 0.000000
0.000000 0.000000 0.000000
0.000000 0.000000 0.000000
0.000000 0.000000 0.000000
0.000000 0.000000 0.000000
0.000000 0.000000 0.000000
0.000000 0.000000 0.000000
0.000000 0.000000 0.000000
0.000000 0.000000 0.000000
0.000000 0.000000 0.000000
0.000000 0.000000 0.000000
0.000000 0.000000 0.000000
0.000000 0.000000 0.000000
0.000000 0.000000 0.000000
0.000000 0.000000 0.000000
0.000000 0.000000 0.000000
0.000000 0.000000 0.000000
0.000000 0.000000 0.000000
0.000000 0.000000 0.000000
0.000000 0.000000 0.000000
0.000000 0.000000 0.000000
0.000000 0.000000 0.000000
0.000000 0.000000 0.000000
0.000000 0.000000 0.000000
0.000000 0.000000 0.000000
0.000000 0.000000 0.000000
0.000000 0.000000 0.000000
0.000000 0.000000 0.000000
0.000000 0.000000 0.000000
0.000000 0.000000 0.000000
0.000000 0.000000 0.000000
0.000000 0.000000 0.000000
0.000000 0.000000 0.000000
0.000000 0.000000 0.000000
0.000000 0.000000 0.000000
0.000000 0.000000 0.000000
0.000000 0.000000 0.000000
0.000000 0.000000 0.000000
0.000000 0.000000 0.000000
0.000000 0.000000 0.000000
0.000000 0.000000 0.000000
0.000000 0.000000 0.000000
0.000000 0.000000 0.000000
0.000000 0.000000 0.000000
0.000000 0.000000 0.000000
0.000000 0.000000 0.000000
0.000000 0.000000 0.000000
0.000000 0.000000 0.000000
0.000000 0.000000 0.000000
0.000000 0.000000 0.000000
0.000000 0.000000 0.000000
0.000000 0.000000 0.000000
0.000000 0.000000 0.000000
0.000000 0.000000 0.000000
0.000000 0.000000 0.000000
0.000000 0.000000 0.000000
0.000000 0.000000 0.000000
