Ti66 Al1
1.0
6.309760 0.000000 0.000000
0.000000 9.464640 0.000000
0.000000 0.000000 18.918326
Ti Al
66 1
Selective dynamics
direct
0.149370 0.014485 0.494464 T T T Ti
0.599044 0.014191 0.494646 T T T Ti
0.140649 0.058907 0.644446 T T T Ti
0.610734 0.058809 0.644782 T T T Ti
0.126800 0.035644 0.818659 F F F Ti
0.625036 0.035639 0.818637 F F F Ti
0.143155 0.360521 0.496310 T T T Ti
0.607993 0.366179 0.499139 T T T Ti
0.116424 0.367904 0.651271 T T T Ti
0.636075 0.368384 0.651753 T T T Ti
0.125656 0.369001 0.818700 F F F Ti
0.626310 0.369019 0.818676 F F F Ti
0.137858 0.700481 0.490822 T T T Ti
0.612688 0.700792 0.490997 T T T Ti
0.105999 0.679993 0.648584 T T T Ti
0.646254 0.679885 0.648721 T T T Ti
0.126218 0.702315 0.818630 F F F Ti
0.625714 0.702344 0.818584 F F F Ti
0.871983 0.202418 0.542833 T T T Ti
0.376015 0.203918 0.739735 F F F Ti
0.876644 0.200686 0.739644 F F F Ti
0.375713 0.202489 0.898021 F F F Ti
0.875512 0.202175 0.897903 F F F Ti
0.375388 0.515295 0.561976 T T T Ti
0.877800 0.508783 0.551784 T T T Ti
0.376071 0.534740 0.739088 F F F Ti
0.876949 0.536330 0.740019 F F F Ti
0.375741 0.535661 0.897881 F F F Ti
0.875498 0.535791 0.897984 F F F Ti
0.376423 0.850603 0.585346 T T T Ti
0.874991 0.876650 0.574383 T T T Ti
0.376088 0.868331 0.739601 F F F Ti
0.876509 0.869825 0.739071 F F F Ti
0.375632 0.868934 0.897962 F F F Ti
0.875743 0.869078 0.897746 F F F Ti
0.112387 0.629964 0.364041 T T T Ti
0.635077 0.630818 0.363940 T T T Ti
0.124744 0.619203 0.120166 F F F Ti
0.623774 0.619166 0.120153 F F F Ti
0.128757 0.133938 0.370531 T T T Ti
0.618205 0.133472 0.370352 T T T Ti
0.124153 0.118816 0.120246 F F F Ti
0.623817 0.118881 0.120148 F F F Ti
0.124706 0.368891 0.040962 F F F Ti
0.624542 0.368913 0.040988 F F F Ti
0.124681 0.868972 0.041004 F F F Ti
0.624310 0.868965 0.040969 F F F Ti
0.138082 0.374282 0.287682 T T T Ti
0.608306 0.374643 0.287328 T T T Ti
0.103306 0.876418 0.278415 T T T Ti
0.643667 0.876247 0.278317 T T T Ti
0.373972 0.869099 0.159992 F F F Ti
0.873796 0.869014 0.159666 F F F Ti
0.374067 0.368798 0.159804 F F F Ti
0.874673 0.369085 0.159508 F F F Ti
0.868581 0.385961 0.405745 T T T Ti
0.373312 0.869345 0.389243 T T T Ti
0.872581 0.883598 0.406231 T T T Ti
0.373855 0.624278 0.248207 T T T Ti
0.873936 0.610654 0.245079 T T T Ti
0.374670 0.618859 0.001483 F F F Ti
0.874577 0.619072 0.001458 F F F Ti
0.373172 0.116257 0.247298 T T T Ti
0.871519 0.132199 0.250668 T T T Ti
0.374542 0.118961 0.001555 F F F Ti
0.874639 0.118868 0.001426 F F F Ti
0.389918 0.233166 0.444970 T T T Al

0.000000 0.000000 0.000000
0.000000 0.000000 0.000000
0.000000 0.000000 0.000000
0.000000 0.000000 0.000000
0.000000 0.000000 0.000000
0.000000 0.000000 0.000000
0.000000 0.000000 0.000000
0.000000 0.000000 0.000000
0.000000 0.000000 0.000000
0.000000 0.000000 0.000000
0.000000 0.000000 0.000000
0.000000 0.000000 0.000000
0.000000 0.000000 0.000000
0.000000 0.000000 0.000000
0.000000 0.000000 0.000000
0.000000 0.000000 0.000000
0.000000 0.000000 0.000000
0.000000 0.000000 0.000000
0.000000 0.000000 0.000000
0.000000 0.000000 0.000000
0.000000 0.000000 0.000000
0.000000 0.000000 0.000000
0.000000 0.000000 0.000000
0.000000 0.000000 0.000000
0.000000 0.000000 0.000000
0.000000 0.000000 0.000000
0.000000 0.000000 0.000000
0.000000 0.000000 0.000000
0.000000 0.000000 0.000000
0.000000 0.000000 0.000000
0.000000 0.000000 0.000000
0.000000 0.000000 0.000000
0.000000 0.000000 0.000000
0.000000 0.000000 0.000000
0.000000 0.000000 0.000000
0.000000 0.000000 0.000000
0.000000 0.000000 0.000000
0.000000 0.000000 0.000000
0.000000 0.000000 0.000000
0.000000 0.000000 0.000000
0.000000 0.000000 0.000000
0.000000 0.000000 0.000000
0.000000 0.000000 0.000000
0.000000 0.000000 0.000000
0.000000 0.000000 0.000000
0.000000 0.000000 0.000000
0.000000 0.000000 0.000000
0.000000 0.000000 0.000000
0.000000 0.000000 0.000000
0.000000 0.000000 0.000000
0.000000 0.000000 0.000000
0.000000 0.000000 0.000000
0.000000 0.000000 0.000000
0.000000 0.000000 0.000000
0.000000 0.000000 0.000000
0.000000 0.000000 0.000000
0.000000 0.000000 0.000000
0.000000 0.000000 0.000000
0.000000 0.000000 0.000000
0.000000 0.000000 0.000000
0.000000 0.000000 0.000000
0.000000 0.000000 0.000000
0.000000 0.000000 0.000000
0.000000 0.000000 0.000000
0.000000 0.000000 0.000000
0.000000 0.000000 0.000000
0.000000 0.000000 0.000000
