substance_bottem
1.0
   3.5061499999999999    0.0000000000000000    0.0000000000000002
   0.0000000000000019   12.0001999999999995    0.0000000000000007
   0.0000000000000000    0.0000000000000000   34.5716049620000021
Cr N
16 16
Selective dynamics
direct
   0.0000000000000000    0.0000000000000000    0.1818347984974872 F F F Cr
  -0.0000000000000000    0.2500000000000000    0.1818347984974872 F F F Cr
   0.5000000000000000    0.1250000000000000    0.1212206063214706 F F F Cr
   0.5000000000000000    0.3750000000000000    0.1212206063214705 F F F Cr
   0.0000000000000000    0.0000000000000000    0.0606141921760167 F F F Cr
  -0.0000000000000000    0.2500000000000000    0.0606141921760167 F F F Cr
   0.5000000000000000    0.1250000000000000   -0.0000000000000000 F F F Cr
   0.5000000000000000    0.3750000000000000   -0.0000000000000000 F F F Cr
  -0.0000000000000000    0.5000000000000000    0.1818347984974872 F F F Cr
  -0.0000000000000000    0.7500000000000000    0.1818347984974872 F F F Cr
   0.5000000000000000    0.6250000000000000    0.1212206063214706 F F F Cr
   0.4999999999999999    0.8749999999999999    0.1212206063214706 F F F Cr
  -0.0000000000000000    0.5000000000000000    0.0606141921760167 F F F Cr
  -0.0000000000000000    0.7500000000000000    0.0606141921760167 F F F Cr
   0.5000000000000000    0.6250000000000000   -0.0000000000000000 F F F Cr
   0.4999999999999999    0.8749999999999999   -0.0000000000000000 F F F Cr
   0.5000000000000000    0.1250000000000000    0.1818347984974872 F F F N
   0.5000000000000000    0.3750000000000000    0.1818347984974872 F F F N
   0.0000000000000000    0.0000000000000000    0.1212206063214706 F F F N
  -0.0000000000000000    0.2500000000000000    0.1212206063214706 F F F N
   0.5000000000000000    0.1250000000000000    0.0606141921760167 F F F N
   0.5000000000000000    0.3750000000000000    0.0606141921760167 F F F N
   0.0000000000000000    0.0000000000000000    0.0000000000000000 F F F N
  -0.0000000000000000    0.2500000000000000   -0.0000000000000000 F F F N
   0.5000000000000000    0.6250000000000000    0.1818347984974872 F F F N
   0.4999999999999999    0.8749999999999999    0.1818347984974872 F F F N
  -0.0000000000000000    0.5000000000000000    0.1212206063214705 F F F N
  -0.0000000000000000    0.7500000000000000    0.1212206063214706 F F F N
   0.5000000000000000    0.6250000000000000    0.0606141921760167 F F F N
   0.4999999999999999    0.8749999999999999    0.0606141921760167 F F F N
  -0.0000000000000000    0.5000000000000000   -0.0000000000000000 F F F N
  -0.0000000000000000    0.7500000000000000   -0.0000000000000000 F F F N
