total_structure
1.0
   3.5061499999999999    0.0000000000000000    0.0000000000000002
   0.0000000000000019   12.0001999999999995    0.0000000000000007
   0.0000000000000000    0.0000000000000000   34.5716049620000021
Cr Fe N
16 36 16
Selective dynamics
direct
   0.0000000000000000    0.0000000000000000    0.1818347984974872 F F F Cr
  -0.0000000000000000    0.2500000000000000    0.1818347984974872 F F F Cr
   0.5000000000000000    0.1250000000000000    0.1212206063214706 F F F Cr
   0.5000000000000000    0.3750000000000000    0.1212206063214705 F F F Cr
   0.0000000000000000    0.0000000000000000    0.0606141921760167 F F F Cr
  -0.0000000000000000    0.2500000000000000    0.0606141921760167 F F F Cr
   0.5000000000000000    0.1250000000000000   -0.0000000000000000 F F F Cr
   0.5000000000000000    0.3750000000000000   -0.0000000000000000 F F F Cr
  -0.0000000000000000    0.5000000000000000    0.1818347984974872 F F F Cr
  -0.0000000000000000    0.7500000000000000    0.1818347984974872 F F F Cr
   0.5000000000000000    0.6250000000000000    0.1212206063214706 F F F Cr
   0.4999999999999999    0.8749999999999999    0.1212206063214706 F F F Cr
  -0.0000000000000000    0.5000000000000000    0.0606141921760167 F F F Cr
  -0.0000000000000000    0.7500000000000000    0.0606141921760167 F F F Cr
   0.5000000000000000    0.6250000000000000   -0.0000000000000000 F F F Cr
   0.4999999999999999    0.8749999999999999   -0.0000000000000000 F F F Cr
   0.9933200000000000    0.7184400000000000    0.7107428213994759 F F F Fe
   0.4933200000000000    0.5543100000000000    0.7007013839428817 F F F Fe
   0.4933200000000000    0.7391600000000000    0.6699626071586372 F F F Fe
   0.9933200000000000    0.5750200000000000    0.6599211697020432 F F F Fe
   0.9933200000000001    0.3901700000000000    0.6906521684557249 F F F Fe
   0.4933200000000000    0.2260400000000000    0.6806107309991308 F F F Fe
   0.4933200000000000    0.4108899999999999    0.6498719542148862 F F F Fe
   0.9933200000000001    0.2467500000000000    0.6398305167582922 F F F Fe
   0.9933200000000000    0.0619000000000000    0.6705615155119740 F F F Fe
   0.4933200000000000    0.8977699999999998    0.6605200780553799 F F F Fe
   0.4933200000000000    0.0826200000000000    0.6297813012711353 F F F Fe
   0.9933200000000000    0.9184800000000000    0.6197398638145413 F F F Fe
   0.9933200000000000    0.7598700000000000    0.6291901709483614 F F F Fe
   0.4933200000000000    0.5957300000000000    0.6191409554612046 F F F Fe
   0.4933200000000000    0.7805800000000001    0.5884099567075227 F F F Fe
   0.9933200000000001    0.6164500000000001    0.5783607412203658 F F F Fe
   0.9933200000000001    0.4315999999999999    0.6090995180046105 F F F Fe
   0.4933200000000000    0.2674600000000000    0.5990503025174536 F F F Fe
   0.4933200000000000    0.4523100000000000    0.5683193037637718 F F F Fe
   0.9933200000000001    0.2881800000000000    0.5582700882766150 F F F Fe
   0.9933199999999999    0.1033300000000000    0.5890088650608595 F F F Fe
   0.4933200000000000    0.9391999999999999    0.5789596495737026 F F F Fe
   0.4933200000000000    0.1240400000000000    0.5482286508200208 F F F Fe
   0.9933200000000000    0.9599100000000000    0.5381794353328639 F F F Fe
   0.9933200000000000    0.8013000000000000    0.5476297424666841 F F F Fe
   0.4933200000000000    0.6371599999999998    0.5375883050100900 F F F Fe
   0.4933200000000000    0.8220099999999999    0.5068495282258455 F F F Fe
   0.9933200000000001    0.6578799999999999    0.4968080907692515 F F F Fe
   0.9933200000000001    0.4730300000000000    0.5275390895229332 F F F Fe
   0.4933200000000000    0.3088900000000000    0.5174976520663391 F F F Fe
   0.4933200000000000    0.4937400000000000    0.4867588752820945 F F F Fe
   0.9933200000000000    0.3296100000000000    0.4767174378255005 F F F Fe
   0.9933200000000001    0.1447600000000000    0.5074484365791823 F F F Fe
   0.4933200000000000    0.9806200000000000    0.4974069991225881 F F F Fe
   0.4933200000000000    0.1654700000000000    0.4666682223383437 F F F Fe
   0.9933200000000000    0.0013400000000000    0.4566267848817496 F F F Fe
   0.5000000000000000    0.1250000000000000    0.1818347984974872 F F F N
   0.5000000000000000    0.3750000000000000    0.1818347984974872 F F F N
   0.0000000000000000    0.0000000000000000    0.1212206063214706 F F F N
  -0.0000000000000000    0.2500000000000000    0.1212206063214706 F F F N
   0.5000000000000000    0.1250000000000000    0.0606141921760167 F F F N
   0.5000000000000000    0.3750000000000000    0.0606141921760167 F F F N
   0.0000000000000000    0.0000000000000000    0.0000000000000000 F F F N
  -0.0000000000000000    0.2500000000000000   -0.0000000000000000 F F F N
   0.5000000000000000    0.6250000000000000    0.1818347984974872 F F F N
   0.4999999999999999    0.8749999999999999    0.1818347984974872 F F F N
  -0.0000000000000000    0.5000000000000000    0.1212206063214705 F F F N
  -0.0000000000000000    0.7500000000000000    0.1212206063214706 F F F N
   0.5000000000000000    0.6250000000000000    0.0606141921760167 F F F N
   0.4999999999999999    0.8749999999999999    0.0606141921760167 F F F N
  -0.0000000000000000    0.5000000000000000   -0.0000000000000000 F F F N
  -0.0000000000000000    0.7500000000000000   -0.0000000000000000 F F F N
