Ti96 Mo1
1.0
9.513020 0.000000 0.000000
0.000000 9.350860 0.000000
0.000000 0.000000 18.547230
Ti Mo
96 1
Selective dynamics
direct
0.147447 0.372545 0.402589 T T T Ti
0.660656 0.354516 0.391564 T T T Ti
0.143249 0.864007 0.399295 T T T Ti
0.659748 0.858456 0.409463 T T T Ti
0.162789 0.370115 0.236699 T T T Ti
0.656897 0.373904 0.235038 T T T Ti
0.162280 0.873816 0.235289 T T T Ti
0.659858 0.872912 0.234858 T T T Ti
0.166663 0.375012 0.077683 F F F Ti
0.666674 0.374995 0.077672 F F F Ti
0.166666 0.875008 0.077692 F F F Ti
0.666670 0.875002 0.077690 F F F Ti
0.406549 0.387853 0.318740 T T T Ti
0.910396 0.379279 0.317550 T T T Ti
0.402821 0.877966 0.320738 T T T Ti
0.904002 0.878189 0.315408 T T T Ti
0.416665 0.374962 0.155305 F F F Ti
0.916686 0.374981 0.155316 F F F Ti
0.416666 0.875040 0.155322 F F F Ti
0.916671 0.874978 0.155337 F F F Ti
0.416659 0.375009 0.000002 F F F Ti
0.916659 0.375007 0.000001 F F F Ti
0.416664 0.875002 -0.000009 F F F Ti
0.916662 0.874993 -0.000003 F F F Ti
0.089604 0.120721 0.317549 T T T Ti
0.593451 0.112147 0.318739 T T T Ti
0.095998 0.621811 0.315407 T T T Ti
0.597179 0.622035 0.320737 T T T Ti
0.083314 0.125024 0.155316 F F F Ti
0.583336 0.125043 0.155304 F F F Ti
0.083328 0.625026 0.155337 F F F Ti
0.583335 0.624966 0.155322 F F F Ti
0.083341 0.124996 0.000001 F F F Ti
0.583341 0.124995 0.000001 F F F Ti
0.083339 0.625012 -0.000002 F F F Ti
0.583337 0.625003 -0.000008 F F F Ti
0.339343 0.145484 0.391564 T T T Ti
0.852552 0.127455 0.402589 T T T Ti
0.340251 0.641544 0.409463 T T T Ti
0.856750 0.635993 0.399295 T T T Ti
0.343102 0.126096 0.235037 T T T Ti
0.837210 0.129886 0.236699 T T T Ti
0.340141 0.627089 0.234858 T T T Ti
0.837719 0.626184 0.235289 T T T Ti
0.333326 0.125009 0.077672 F F F Ti
0.833336 0.124991 0.077683 F F F Ti
0.333329 0.625003 0.077690 F F F Ti
0.833333 0.624996 0.077693 F F F Ti
0.375006 0.375000 0.823863 F F F Ti
0.874985 0.374945 0.823846 F F F Ti
0.375037 0.875071 0.823791 F F F Ti
0.874973 0.874999 0.823804 F F F Ti
0.125019 0.125050 0.823845 F F F Ti
0.624999 0.125001 0.823863 F F F Ti
0.125028 0.625001 0.823806 F F F Ti
0.624964 0.624926 0.823794 F F F Ti
0.125004 0.375022 0.910139 F F F Ti
0.625003 0.375002 0.910151 F F F Ti
0.125021 0.875003 0.910115 F F F Ti
0.624990 0.874993 0.910122 F F F Ti
0.374998 0.124997 0.910150 F F F Ti
0.874999 0.124978 0.910138 F F F Ti
0.375012 0.625007 0.910122 F F F Ti
0.874982 0.624997 0.910116 F F F Ti
0.381672 0.371508 0.669482 T T T Ti
0.880987 0.391311 0.647188 T T T Ti
0.379703 0.888300 0.658925 T T T Ti
0.903565 0.881277 0.653735 T T T Ti
0.119012 0.108688 0.647188 T T T Ti
0.618327 0.128490 0.669482 T T T Ti
0.096434 0.618721 0.653735 T T T Ti
0.620297 0.611697 0.658925 T T T Ti
0.137450 0.357900 0.572011 T T T Ti
0.630153 0.356260 0.576808 T T T Ti
0.160651 0.849721 0.565785 T T T Ti
0.671461 0.917874 0.574742 T T T Ti
0.369847 0.143739 0.576808 T T T Ti
0.862550 0.142100 0.572011 T T T Ti
0.328539 0.582125 0.574743 T T T Ti
0.839349 0.650279 0.565785 T T T Ti
0.398076 0.371913 0.479582 T T T Ti
0.885100 0.383780 0.489852 T T T Ti
0.378242 -0.074587 0.476397 T T T Ti
0.914922 0.887611 0.487254 T T T Ti
0.114899 0.116220 0.489852 T T T Ti
0.601924 0.128087 0.479582 T T T Ti
0.085078 0.612389 0.487254 T T T Ti
0.621758 0.574586 0.476397 T T T Ti
0.125368 0.875190 0.737576 F F F Ti
0.625056 0.875053 0.737566 F F F Ti
0.374939 0.624938 0.737567 F F F Ti
0.874628 0.624801 0.737581 F F F Ti
0.125017 0.374888 0.737575 F F F Ti
0.625082 0.374820 0.737624 F F F Ti
0.374912 0.125168 0.737622 F F F Ti
0.874979 0.125103 0.737573 F F F Ti
0.500000 0.750000 0.545809 T T T Mo

0.000000 0.000000 0.000000
0.000000 0.000000 0.000000
0.000000 0.000000 0.000000
0.000000 0.000000 0.000000
0.000000 0.000000 0.000000
0.000000 0.000000 0.000000
0.000000 0.000000 0.000000
0.000000 0.000000 0.000000
0.000000 0.000000 0.000000
0.000000 0.000000 0.000000
0.000000 0.000000 0.000000
0.000000 0.000000 0.000000
0.000000 0.000000 0.000000
0.000000 0.000000 0.000000
0.000000 0.000000 0.000000
0.000000 0.000000 0.000000
0.000000 0.000000 0.000000
0.000000 0.000000 0.000000
0.000000 0.000000 0.000000
0.000000 0.000000 0.000000
0.000000 0.000000 0.000000
0.000000 0.000000 0.000000
0.000000 0.000000 0.000000
0.000000 0.000000 0.000000
0.000000 0.000000 0.000000
0.000000 0.000000 0.000000
0.000000 0.000000 0.000000
0.000000 0.000000 0.000000
0.000000 0.000000 0.000000
0.000000 0.000000 0.000000
0.000000 0.000000 0.000000
0.000000 0.000000 0.000000
0.000000 0.000000 0.000000
0.000000 0.000000 0.000000
0.000000 0.000000 0.000000
0.000000 0.000000 0.000000
0.000000 0.000000 0.000000
0.000000 0.000000 0.000000
0.000000 0.000000 0.000000
0.000000 0.000000 0.000000
0.000000 0.000000 0.000000
0.000000 0.000000 0.000000
0.000000 0.000000 0.000000
0.000000 0.000000 0.000000
0.000000 0.000000 0.000000
0.000000 0.000000 0.000000
0.000000 0.000000 0.000000
0.000000 0.000000 0.000000
0.000000 0.000000 0.000000
0.000000 0.000000 0.000000
0.000000 0.000000 0.000000
0.000000 0.000000 0.000000
0.000000 0.000000 0.000000
0.000000 0.000000 0.000000
0.000000 0.000000 0.000000
0.000000 0.000000 0.000000
0.000000 0.000000 0.000000
0.000000 0.000000 0.000000
0.000000 0.000000 0.000000
0.000000 0.000000 0.000000
0.000000 0.000000 0.000000
0.000000 0.000000 0.000000
0.000000 0.000000 0.000000
0.000000 0.000000 0.000000
0.000000 0.000000 0.000000
0.000000 0.000000 0.000000
0.000000 0.000000 0.000000
0.000000 0.000000 0.000000
0.000000 0.000000 0.000000
0.000000 0.000000 0.000000
0.000000 0.000000 0.000000
0.000000 0.000000 0.000000
0.000000 0.000000 0.000000
0.000000 0.000000 0.000000
0.000000 0.000000 0.000000
0.000000 0.000000 0.000000
0.000000 0.000000 0.000000
0.000000 0.000000 0.000000
0.000000 0.000000 0.000000
0.000000 0.000000 0.000000
0.000000 0.000000 0.000000
0.000000 0.000000 0.000000
0.000000 0.000000 0.000000
0.000000 0.000000 0.000000
0.000000 0.000000 0.000000
0.000000 0.000000 0.000000
0.000000 0.000000 0.000000
0.000000 0.000000 0.000000
0.000000 0.000000 0.000000
0.000000 0.000000 0.000000
0.000000 0.000000 0.000000
0.000000 0.000000 0.000000
0.000000 0.000000 0.000000
0.000000 0.000000 0.000000
0.000000 0.000000 0.000000
0.000000 0.000000 0.000000
0.000000 0.000000 0.000000
