total_Ti
1.0
5.745590 0.000000 0.000000
0.000000 9.072750 0.000000
0.000000 0.000000 32.667173
Ti
64
direct
0.041667 0.875000 0.285702 Ti
0.041667 0.375000 0.285702 Ti
0.541667 0.875000 0.285702 Ti
0.541667 0.375000 0.285702 Ti
0.291667 0.625000 0.311675 Ti
0.291667 0.125000 0.311675 Ti
0.791667 0.625000 0.311675 Ti
0.791667 0.125000 0.311675 Ti
0.291667 0.875000 0.207783 Ti
0.291667 0.375000 0.207783 Ti
0.791667 0.875000 0.207783 Ti
0.791667 0.375000 0.207783 Ti
0.041667 0.625000 0.233756 Ti
0.041667 0.125000 0.233756 Ti
0.541667 0.625000 0.233756 Ti
0.541667 0.125000 0.233756 Ti
0.041667 0.875000 0.129864 Ti
0.041667 0.375000 0.129864 Ti
0.541667 0.875000 0.129864 Ti
0.541667 0.375000 0.129864 Ti
0.291667 0.625000 0.155837 Ti
0.291667 0.125000 0.155837 Ti
0.791667 0.625000 0.155837 Ti
0.791667 0.125000 0.155837 Ti
0.291667 0.875000 0.051945 Ti
0.291667 0.375000 0.051945 Ti
0.791667 0.875000 0.051945 Ti
0.791667 0.375000 0.051945 Ti
0.041667 0.625000 0.077919 Ti
0.041667 0.125000 0.077919 Ti
0.541667 0.625000 0.077919 Ti
0.541667 0.125000 0.077919 Ti
0.458333 0.625000 0.581898 Ti
0.458333 0.125000 0.581898 Ti
0.958333 0.625000 0.581898 Ti
0.958333 0.125000 0.581898 Ti
0.125000 0.625000 0.663167 Ti
0.125000 0.125000 0.663167 Ti
0.625000 0.625000 0.663167 Ti
0.625000 0.125000 0.663167 Ti
0.291667 0.625000 0.744437 Ti
0.291667 0.125000 0.744437 Ti
0.791667 0.625000 0.744437 Ti
0.791667 0.125000 0.744437 Ti
0.125000 0.875000 0.541263 Ti
0.125000 0.375000 0.541263 Ti
0.625000 0.875000 0.541263 Ti
0.625000 0.375000 0.541263 Ti
0.291667 0.875000 0.622533 Ti
0.291667 0.375000 0.622533 Ti
0.791667 0.875000 0.622533 Ti
0.791667 0.375000 0.622533 Ti
0.458333 0.875000 0.703802 Ti
0.458333 0.375000 0.703802 Ti
0.958333 0.875000 0.703802 Ti
0.958333 0.375000 0.703802 Ti
0.125000 0.875000 0.785071 Ti
0.125000 0.375000 0.785071 Ti
0.625000 0.875000 0.785071 Ti
0.625000 0.375000 0.785071 Ti
0.791667 0.125000 0.000000 Ti
0.291667 0.125000 0.000000 Ti
0.791667 0.625000 -0.000000 Ti
0.291667 0.625000 -0.000000 Ti
