total_Ti
1.0
4.756510 0.000000 0.000000
0.000000 4.675430 0.000000
0.000000 0.000000 16.211761
Ti
24
direct
0.333333 0.750000 0.444405 Ti
0.333333 0.750000 0.266644 Ti
0.333333 0.750000 0.088881 Ti
0.833334 0.750000 0.355525 Ti
0.833334 0.750000 0.177763 Ti
0.833334 0.750000 -0.000000 Ti
0.166666 0.250000 0.355524 Ti
0.166666 0.250000 0.177763 Ti
0.166666 0.250000 -0.000000 Ti
0.666667 0.250000 0.444405 Ti
0.666667 0.250000 0.266644 Ti
0.666667 0.250000 0.088881 Ti
0.750000 0.750000 0.969162 Ti
0.250000 0.250000 0.969162 Ti
0.250000 0.750000 0.870379 Ti
0.750000 0.250000 0.870379 Ti
0.750000 0.750000 0.771596 Ti
0.250000 0.250000 0.771596 Ti
0.250000 0.750000 0.672813 Ti
0.750000 0.250000 0.672813 Ti
0.750000 0.750000 0.574029 Ti
0.250000 0.250000 0.574029 Ti
0.250000 0.750000 0.475247 Ti
0.750000 0.250000 0.475247 Ti
