Ti66 Sn1
1.0
6.309760 0.000000 0.000000
0.000000 9.464640 0.000000
0.000000 0.000000 18.918326
Ti Sn
66 1
Selective dynamics
direct
0.629718 0.041760 0.499766 F F F Ti
0.628399 0.041719 0.658984 F F F Ti
0.125107 0.041697 0.816844 F F F Ti
0.625164 0.041705 0.817222 F F F Ti
0.125484 0.376468 0.499876 F F F Ti
0.625507 0.378771 0.498647 F F F Ti
0.125696 0.376112 0.658798 F F F Ti
0.625547 0.378266 0.660069 F F F Ti
0.125258 0.374790 0.817363 F F F Ti
0.625085 0.374968 0.817612 F F F Ti
0.125271 0.706697 0.499749 F F F Ti
0.625223 0.704989 0.498375 F F F Ti
0.125497 0.707070 0.658946 F F F Ti
0.625208 0.705391 0.660229 F F F Ti
0.125179 0.708520 0.817458 F F F Ti
0.625079 0.708437 0.817706 F F F Ti
0.392463 0.217397 0.579544 F F F Ti
0.855536 0.220255 0.579711 F F F Ti
0.375352 0.208352 0.737772 F F F Ti
0.875256 0.208779 0.738060 F F F Ti
0.374901 0.208127 0.896444 F F F Ti
0.875246 0.208165 0.896495 F F F Ti
0.375633 0.542129 0.579415 F F F Ti
0.875151 0.542162 0.579439 F F F Ti
0.374558 0.541778 0.738585 F F F Ti
0.876124 0.541686 0.738682 F F F Ti
0.374939 0.541642 0.896690 F F F Ti
0.875214 0.541633 0.896707 F F F Ti
0.392930 0.865767 0.579553 F F F Ti
0.854760 0.862747 0.579761 F F F Ti
0.375312 0.875048 0.737808 F F F Ti
0.875178 0.874603 0.738096 F F F Ti
0.374894 0.875212 0.896457 F F F Ti
0.875226 0.875192 0.896513 F F F Ti
0.125036 0.625033 0.356516 F F F Ti
0.625090 0.624994 0.356109 F F F Ti
0.124947 0.625097 0.118948 F F F Ti
0.624878 0.625077 0.118925 F F F Ti
0.125059 0.124868 0.357241 F F F Ti
0.625331 0.125002 0.356772 F F F Ti
0.124999 0.124939 0.119063 F F F Ti
0.624876 0.124952 0.119021 F F F Ti
0.124976 0.374858 0.039585 F F F Ti
0.624882 0.374876 0.039622 F F F Ti
0.124965 0.875122 0.039551 F F F Ti
0.624843 0.875105 0.039599 F F F Ti
0.125001 0.374866 0.277358 F F F Ti
0.625032 0.374872 0.277249 F F F Ti
0.125083 0.875141 0.277608 F F F Ti
0.625000 0.875113 0.277467 F F F Ti
0.374925 0.875078 0.158580 F F F Ti
0.875048 0.875078 0.158569 F F F Ti
0.374931 0.374932 0.158504 F F F Ti
0.875062 0.374933 0.158476 F F F Ti
0.374760 0.375011 0.396043 F F F Ti
0.875626 0.375212 0.395968 F F F Ti
0.375123 0.875123 0.396642 F F F Ti
0.875287 0.874706 0.396394 F F F Ti
0.374865 0.625070 0.237688 F F F Ti
0.875141 0.625044 0.237670 F F F Ti
0.374915 0.625089 0.000122 F F F Ti
0.875004 0.625092 0.000132 F F F Ti
0.374862 0.124939 0.237979 F F F Ti
0.875211 0.124939 0.237938 F F F Ti
0.374916 0.124962 0.000009 F F F Ti
0.875035 0.124954 0.000035 F F F Ti
0.113195 0.040387 0.575116 T T T Sn

0.000000 0.000000 0.000000
0.000000 0.000000 0.000000
0.000000 0.000000 0.000000
0.000000 0.000000 0.000000
0.000000 0.000000 0.000000
0.000000 0.000000 0.000000
0.000000 0.000000 0.000000
0.000000 0.000000 0.000000
0.000000 0.000000 0.000000
0.000000 0.000000 0.000000
0.000000 0.000000 0.000000
0.000000 0.000000 0.000000
0.000000 0.000000 0.000000
0.000000 0.000000 0.000000
0.000000 0.000000 0.000000
0.000000 0.000000 0.000000
0.000000 0.000000 0.000000
0.000000 0.000000 0.000000
0.000000 0.000000 0.000000
0.000000 0.000000 0.000000
0.000000 0.000000 0.000000
0.000000 0.000000 0.000000
0.000000 0.000000 0.000000
0.000000 0.000000 0.000000
0.000000 0.000000 0.000000
0.000000 0.000000 0.000000
0.000000 0.000000 0.000000
0.000000 0.000000 0.000000
0.000000 0.000000 0.000000
0.000000 0.000000 0.000000
0.000000 0.000000 0.000000
0.000000 0.000000 0.000000
0.000000 0.000000 0.000000
0.000000 0.000000 0.000000
0.000000 0.000000 0.000000
0.000000 0.000000 0.000000
0.000000 0.000000 0.000000
0.000000 0.000000 0.000000
0.000000 0.000000 0.000000
0.000000 0.000000 0.000000
0.000000 0.000000 0.000000
0.000000 0.000000 0.000000
0.000000 0.000000 0.000000
0.000000 0.000000 0.000000
0.000000 0.000000 0.000000
0.000000 0.000000 0.000000
0.000000 0.000000 0.000000
0.000000 0.000000 0.000000
0.000000 0.000000 0.000000
0.000000 0.000000 0.000000
0.000000 0.000000 0.000000
0.000000 0.000000 0.000000
0.000000 0.000000 0.000000
0.000000 0.000000 0.000000
0.000000 0.000000 0.000000
0.000000 0.000000 0.000000
0.000000 0.000000 0.000000
0.000000 0.000000 0.000000
0.000000 0.000000 0.000000
0.000000 0.000000 0.000000
0.000000 0.000000 0.000000
0.000000 0.000000 0.000000
0.000000 0.000000 0.000000
0.000000 0.000000 0.000000
0.000000 0.000000 0.000000
0.000000 0.000000 0.000000
0.000000 0.000000 0.000000
