total_Ti
1.0
8.805261 0.000000 0.000000
-4.402631 7.625580 0.000000
0.000000 0.000000 21.983422
Ti
90
direct
0.055556 0.055556 0.593017 Ti
0.055556 0.555555 0.593017 Ti
0.555556 0.055556 0.593017 Ti
0.555556 0.555555 0.593017 Ti
0.222222 0.388889 0.887432 Ti
0.222222 0.888889 0.887432 Ti
0.722222 0.388889 0.887432 Ti
0.722222 0.888889 0.887432 Ti
0.388889 0.222222 0.929492 Ti
0.388889 0.722222 0.929492 Ti
0.888889 0.222222 0.929492 Ti
0.888889 0.722222 0.929492 Ti
0.222222 0.388889 0.635077 Ti
0.222222 0.888889 0.635077 Ti
0.722222 0.388889 0.635077 Ti
0.722222 0.888889 0.635077 Ti
0.388889 0.222222 0.677136 Ti
0.388889 0.722222 0.677136 Ti
0.888889 0.222222 0.677136 Ti
0.888889 0.722222 0.677136 Ti
0.055556 0.055556 0.719195 Ti
0.055556 0.555555 0.719195 Ti
0.555556 0.055556 0.719195 Ti
0.555556 0.555555 0.719195 Ti
0.222222 0.388889 0.761254 Ti
0.222222 0.888889 0.761254 Ti
0.722222 0.388889 0.761254 Ti
0.722222 0.888889 0.761254 Ti
0.388889 0.222222 0.803314 Ti
0.388889 0.722222 0.803314 Ti
0.888889 0.222222 0.803314 Ti
0.888889 0.722222 0.803314 Ti
0.055556 0.055556 0.845373 Ti
0.055556 0.555555 0.845373 Ti
0.555556 0.055556 0.845373 Ti
0.555556 0.555555 0.845373 Ti
0.166666 0.944444 -0.000000 Ti
0.166666 0.944444 0.418008 Ti
0.166666 0.611111 -0.000000 Ti
0.277778 0.833333 0.104502 Ti
0.166666 0.611111 0.418008 Ti
0.500000 0.944444 -0.000000 Ti
0.166666 0.277778 -0.000000 Ti
0.277778 0.833333 0.522510 Ti
0.277778 0.500000 0.104502 Ti
0.500000 0.944444 0.418008 Ti
0.166666 0.277778 0.418008 Ti
0.500000 0.611111 -0.000000 Ti
0.277778 0.500000 0.522510 Ti
0.611111 0.833333 0.104502 Ti
0.277778 0.166667 0.104502 Ti
0.500000 0.611111 0.418008 Ti
0.833333 0.944444 -0.000000 Ti
0.500000 0.277778 -0.000000 Ti
0.611111 0.833333 0.522510 Ti
0.277778 0.166667 0.522510 Ti
0.611111 0.500000 0.104502 Ti
0.833333 0.944444 0.418008 Ti
0.500000 0.277778 0.418008 Ti
0.833333 0.611111 -0.000000 Ti
0.611111 0.500000 0.522510 Ti
0.944444 0.833333 0.104502 Ti
0.611111 0.166667 0.104502 Ti
0.833333 0.611111 0.418008 Ti
0.833333 0.277778 -0.000000 Ti
0.944444 0.833333 0.522510 Ti
0.611111 0.166667 0.522510 Ti
0.944444 0.500000 0.104502 Ti
0.833333 0.277778 0.418008 Ti
0.944444 0.500000 0.522510 Ti
0.944444 0.166667 0.104502 Ti
0.944444 0.166667 0.522510 Ti
0.166666 0.944444 0.209004 Ti
0.166666 0.611111 0.209004 Ti
0.277778 0.833333 0.313506 Ti
0.500000 0.944444 0.209004 Ti
0.166666 0.277778 0.209004 Ti
0.277778 0.500000 0.313506 Ti
0.500000 0.611111 0.209004 Ti
0.611111 0.833333 0.313506 Ti
0.277778 0.166667 0.313506 Ti
0.833333 0.944444 0.209004 Ti
0.500000 0.277778 0.209004 Ti
0.611111 0.500000 0.313506 Ti
0.833333 0.611111 0.209004 Ti
0.944444 0.833333 0.313506 Ti
0.611111 0.166667 0.313506 Ti
0.833333 0.277778 0.209004 Ti
0.944444 0.500000 0.313506 Ti
0.944444 0.166667 0.313506 Ti
