alpha_Ti
1.0
8.805261 0.000000 0.000000
-4.402631 7.625580 0.000000
0.000000 0.000000 22.383422
Ti
54
direct
0.166666 0.944444 -0.000000 Ti
0.166666 0.944444 0.410538 Ti
0.166666 0.611111 -0.000000 Ti
0.277778 0.833333 0.102634 Ti
0.166666 0.611111 0.410538 Ti
0.500000 0.944444 -0.000000 Ti
0.166666 0.277778 -0.000000 Ti
0.277778 0.833333 0.513172 Ti
0.277778 0.500000 0.102634 Ti
0.500000 0.944444 0.410538 Ti
0.166666 0.277778 0.410538 Ti
0.500000 0.611111 -0.000000 Ti
0.277778 0.500000 0.513172 Ti
0.611111 0.833333 0.102634 Ti
0.277778 0.166667 0.102634 Ti
0.500000 0.611111 0.410538 Ti
0.833333 0.944444 -0.000000 Ti
0.500000 0.277778 -0.000000 Ti
0.611111 0.833333 0.513172 Ti
0.277778 0.166667 0.513172 Ti
0.611111 0.500000 0.102634 Ti
0.833333 0.944444 0.410538 Ti
0.500000 0.277778 0.410538 Ti
0.833333 0.611111 -0.000000 Ti
0.611111 0.500000 0.513172 Ti
0.944444 0.833333 0.102634 Ti
0.611111 0.166667 0.102634 Ti
0.833333 0.611111 0.410538 Ti
0.833333 0.277778 -0.000000 Ti
0.944444 0.833333 0.513172 Ti
0.611111 0.166667 0.513172 Ti
0.944444 0.500000 0.102634 Ti
0.833333 0.277778 0.410538 Ti
0.944444 0.500000 0.513172 Ti
0.944444 0.166667 0.102634 Ti
0.944444 0.166667 0.513172 Ti
0.166666 0.944444 0.205269 Ti
0.166666 0.611111 0.205269 Ti
0.277778 0.833333 0.307903 Ti
0.500000 0.944444 0.205269 Ti
0.166666 0.277778 0.205269 Ti
0.277778 0.500000 0.307903 Ti
0.500000 0.611111 0.205269 Ti
0.611111 0.833333 0.307903 Ti
0.277778 0.166667 0.307903 Ti
0.833333 0.944444 0.205269 Ti
0.500000 0.277778 0.205269 Ti
0.611111 0.500000 0.307903 Ti
0.833333 0.611111 0.205269 Ti
0.944444 0.833333 0.307903 Ti
0.611111 0.166667 0.307903 Ti
0.833333 0.277778 0.205269 Ti
0.944444 0.500000 0.307903 Ti
0.944444 0.166667 0.307903 Ti
