Ti36
1.0
8.805261 0.000000 0.000000
-4.402630 7.625579 0.000000
0.000000 0.000000 17.788801
Ti
36
direct
0.000000 0.000000 0.485807 Ti
1.000000 0.500000 0.485807 Ti
0.500000 0.000000 0.485807 Ti
0.500000 0.500000 0.485807 Ti
0.166667 0.333333 0.849646 Ti
0.166667 0.833333 0.849646 Ti
0.666667 0.333333 0.849646 Ti
0.666667 0.833333 0.849646 Ti
0.333333 0.166667 0.901623 Ti
0.333333 0.666667 0.901623 Ti
0.833333 0.166667 0.901623 Ti
0.833333 0.666667 0.901623 Ti
0.166667 0.333333 0.537784 Ti
0.166667 0.833333 0.537784 Ti
0.666667 0.333333 0.537784 Ti
0.666667 0.833333 0.537784 Ti
0.333333 0.166667 0.589761 Ti
0.333333 0.666667 0.589761 Ti
0.833333 0.166667 0.589761 Ti
0.833333 0.666667 0.589761 Ti
0.000000 0.000000 0.641738 Ti
1.000000 0.500000 0.641738 Ti
0.500000 0.000000 0.641738 Ti
0.500000 0.500000 0.641738 Ti
0.166667 0.333333 0.693715 Ti
0.166667 0.833333 0.693715 Ti
0.666667 0.333333 0.693715 Ti
0.666667 0.833333 0.693715 Ti
0.333333 0.166667 0.745692 Ti
0.333333 0.666667 0.745692 Ti
0.833333 0.166667 0.745692 Ti
0.833333 0.666667 0.745692 Ti
0.000000 0.000000 0.797669 Ti
1.000000 0.500000 0.797669 Ti
0.500000 0.000000 0.797669 Ti
0.500000 0.500000 0.797669 Ti

0.000000 0.000000 0.000000
0.000000 0.000000 0.000000
0.000000 0.000000 0.000000
0.000000 0.000000 0.000000
0.000000 0.000000 0.000000
0.000000 0.000000 0.000000
0.000000 0.000000 0.000000
0.000000 0.000000 0.000000
0.000000 0.000000 0.000000
0.000000 0.000000 0.000000
0.000000 0.000000 0.000000
0.000000 0.000000 0.000000
0.000000 0.000000 0.000000
0.000000 0.000000 0.000000
0.000000 0.000000 0.000000
0.000000 0.000000 0.000000
0.000000 0.000000 0.000000
0.000000 0.000000 0.000000
0.000000 0.000000 0.000000
0.000000 0.000000 0.000000
0.000000 0.000000 0.000000
0.000000 0.000000 0.000000
0.000000 0.000000 0.000000
0.000000 0.000000 0.000000
0.000000 0.000000 0.000000
0.000000 0.000000 0.000000
0.000000 0.000000 0.000000
0.000000 0.000000 0.000000
0.000000 0.000000 0.000000
0.000000 0.000000 0.000000
0.000000 0.000000 0.000000
0.000000 0.000000 0.000000
0.000000 0.000000 0.000000
0.000000 0.000000 0.000000
0.000000 0.000000 0.000000
0.000000 0.000000 0.000000
