beta_Ti
1.0
9.588310 0.000000 0.000000
0.000000 9.588310 0.000000
0.000000 0.000000 19.700006
Ti
54
direct
0.083333 0.083333 0.500000 Ti
0.083333 0.083333 0.652284 Ti
0.083333 0.083333 0.804568 Ti
0.083333 0.416667 0.500000 Ti
0.083333 0.416667 0.652284 Ti
0.083333 0.416667 0.804568 Ti
0.083333 0.750000 0.500000 Ti
0.083333 0.750000 0.652284 Ti
0.083333 0.750000 0.804568 Ti
0.416667 0.083333 0.500000 Ti
0.416667 0.083333 0.652284 Ti
0.416667 0.083333 0.804568 Ti
0.416667 0.416667 0.500000 Ti
0.416667 0.416667 0.652284 Ti
0.416667 0.416667 0.804568 Ti
0.416667 0.750000 0.500000 Ti
0.416667 0.750000 0.652284 Ti
0.416667 0.750000 0.804568 Ti
0.750000 0.083333 0.500000 Ti
0.750000 0.083333 0.652284 Ti
0.750000 0.083333 0.804568 Ti
0.750000 0.416667 0.500000 Ti
0.750000 0.416667 0.652284 Ti
0.750000 0.416667 0.804568 Ti
0.750000 0.750000 0.500000 Ti
0.750000 0.750000 0.652284 Ti
0.750000 0.750000 0.804568 Ti
0.250000 0.250000 0.576142 Ti
0.250000 0.250000 0.728426 Ti
0.250000 0.250000 0.880711 Ti
0.250000 0.583333 0.576142 Ti
0.250000 0.583333 0.728426 Ti
0.250000 0.583333 0.880711 Ti
0.250000 0.916667 0.576142 Ti
0.250000 0.916667 0.728426 Ti
0.250000 0.916667 0.880711 Ti
0.583333 0.250000 0.576142 Ti
0.583333 0.250000 0.728426 Ti
0.583333 0.250000 0.880711 Ti
0.583333 0.583333 0.576142 Ti
0.583333 0.583333 0.728426 Ti
0.583333 0.583333 0.880711 Ti
0.583333 0.916667 0.576142 Ti
0.583333 0.916667 0.728426 Ti
0.583333 0.916667 0.880711 Ti
0.916667 0.250000 0.576142 Ti
0.916667 0.250000 0.728426 Ti
0.916667 0.250000 0.880711 Ti
0.916667 0.583333 0.576142 Ti
0.916667 0.583333 0.728426 Ti
0.916667 0.583333 0.880711 Ti
0.916667 0.916667 0.576142 Ti
0.916667 0.916667 0.728426 Ti
0.916667 0.916667 0.880711 Ti
