total_Ti
1.0
9.588310 0.000000 0.000000
0.000000 9.588310 0.000000
0.000000 0.000000 29.000006
Ti
102
direct
0.083333 0.083333 0.500000 Ti
0.083333 0.083333 0.603448 Ti
0.083333 0.083333 0.706896 Ti
0.083333 0.416667 0.500000 Ti
0.083333 0.416667 0.603448 Ti
0.083333 0.416667 0.706896 Ti
0.083333 0.750000 0.500000 Ti
0.083333 0.750000 0.603448 Ti
0.083333 0.750000 0.706896 Ti
0.416667 0.083333 0.500000 Ti
0.416667 0.083333 0.603448 Ti
0.416667 0.083333 0.706896 Ti
0.416667 0.416667 0.500000 Ti
0.416667 0.416667 0.603448 Ti
0.416667 0.416667 0.706896 Ti
0.416667 0.750000 0.500000 Ti
0.416667 0.750000 0.603448 Ti
0.416667 0.750000 0.706896 Ti
0.750000 0.083333 0.500000 Ti
0.750000 0.083333 0.603448 Ti
0.750000 0.083333 0.706896 Ti
0.750000 0.416667 0.500000 Ti
0.750000 0.416667 0.603448 Ti
0.750000 0.416667 0.706896 Ti
0.750000 0.750000 0.500000 Ti
0.750000 0.750000 0.603448 Ti
0.750000 0.750000 0.706896 Ti
0.250000 0.250000 0.551724 Ti
0.250000 0.250000 0.655172 Ti
0.250000 0.250000 0.758621 Ti
0.250000 0.583333 0.551724 Ti
0.250000 0.583333 0.655172 Ti
0.250000 0.583333 0.758621 Ti
0.250000 0.916667 0.551724 Ti
0.250000 0.916667 0.655172 Ti
0.250000 0.916667 0.758621 Ti
0.583333 0.250000 0.551724 Ti
0.583333 0.250000 0.655172 Ti
0.583333 0.250000 0.758621 Ti
0.583333 0.583333 0.551724 Ti
0.583333 0.583333 0.655172 Ti
0.583333 0.583333 0.758621 Ti
0.583333 0.916667 0.551724 Ti
0.583333 0.916667 0.655172 Ti
0.583333 0.916667 0.758621 Ti
0.916667 0.250000 0.551724 Ti
0.916667 0.250000 0.655172 Ti
0.916667 0.250000 0.758621 Ti
0.916667 0.583333 0.551724 Ti
0.916667 0.583333 0.655172 Ti
0.916667 0.583333 0.758621 Ti
0.916667 0.916667 0.551724 Ti
0.916667 0.916667 0.655172 Ti
0.916667 0.916667 0.758621 Ti
0.125000 0.833333 -0.000000 Ti
0.125000 0.333333 -0.000000 Ti
0.625000 0.833333 -0.000000 Ti
0.625000 0.333333 -0.000000 Ti
0.375000 0.666667 -0.000000 Ti
0.375000 0.166667 -0.000000 Ti
0.875000 0.666667 -0.000000 Ti
0.875000 0.166667 -0.000000 Ti
0.875000 0.416667 0.051724 Ti
0.375000 0.416667 0.051724 Ti
0.875000 0.916667 0.051724 Ti
0.375000 0.916667 0.051724 Ti
0.625000 0.083333 0.051724 Ti
0.125000 0.083333 0.051724 Ti
0.625000 0.583333 0.051724 Ti
0.125000 0.583333 0.051724 Ti
0.125000 0.333333 0.103448 Ti
0.625000 0.333333 0.103448 Ti
0.625000 0.833333 0.103448 Ti
0.125000 0.833333 0.103448 Ti
0.875000 0.666667 0.103448 Ti
0.375000 0.166667 0.103448 Ti
0.875000 0.166667 0.103448 Ti
0.375000 0.666667 0.103448 Ti
0.875000 0.416667 0.155172 Ti
0.375000 0.416667 0.155172 Ti
0.875000 0.916667 0.155172 Ti
0.375000 0.916667 0.155172 Ti
0.125000 0.583333 0.155172 Ti
0.625000 0.083333 0.155172 Ti
0.125000 0.083333 0.155172 Ti
0.625000 0.583333 0.155172 Ti
0.625000 0.833333 0.206896 Ti
0.625000 0.333333 0.206896 Ti
0.125000 0.833333 0.206896 Ti
0.125000 0.333333 0.206896 Ti
0.375000 0.166667 0.206896 Ti
0.875000 0.166667 0.206896 Ti
0.375000 0.666667 0.206896 Ti
0.875000 0.666667 0.206896 Ti
0.875000 0.416667 0.258621 Ti
0.375000 0.416667 0.258621 Ti
0.375000 0.916667 0.258621 Ti
0.875000 0.916667 0.258621 Ti
0.625000 0.583333 0.258621 Ti
0.625000 0.083333 0.258621 Ti
0.125000 0.583333 0.258621 Ti
0.125000 0.083333 0.258621 Ti
