beta_Ti
1.0
9.588310 0.000000 0.000000
0.000000 9.588310 0.000000
0.000000 0.000000 29.000006
Ti
54
direct
0.083333 0.083333 0.500000 Ti
0.083333 0.083333 0.603448 Ti
0.083333 0.083333 0.706896 Ti
0.083333 0.416667 0.500000 Ti
0.083333 0.416667 0.603448 Ti
0.083333 0.416667 0.706896 Ti
0.083333 0.750000 0.500000 Ti
0.083333 0.750000 0.603448 Ti
0.083333 0.750000 0.706896 Ti
0.416667 0.083333 0.500000 Ti
0.416667 0.083333 0.603448 Ti
0.416667 0.083333 0.706896 Ti
0.416667 0.416667 0.500000 Ti
0.416667 0.416667 0.603448 Ti
0.416667 0.416667 0.706896 Ti
0.416667 0.750000 0.500000 Ti
0.416667 0.750000 0.603448 Ti
0.416667 0.750000 0.706896 Ti
0.750000 0.083333 0.500000 Ti
0.750000 0.083333 0.603448 Ti
0.750000 0.083333 0.706896 Ti
0.750000 0.416667 0.500000 Ti
0.750000 0.416667 0.603448 Ti
0.750000 0.416667 0.706896 Ti
0.750000 0.750000 0.500000 Ti
0.750000 0.750000 0.603448 Ti
0.750000 0.750000 0.706896 Ti
0.250000 0.250000 0.551724 Ti
0.250000 0.250000 0.655172 Ti
0.250000 0.250000 0.758621 Ti
0.250000 0.583333 0.551724 Ti
0.250000 0.583333 0.655172 Ti
0.250000 0.583333 0.758621 Ti
0.250000 0.916667 0.551724 Ti
0.250000 0.916667 0.655172 Ti
0.250000 0.916667 0.758621 Ti
0.583333 0.250000 0.551724 Ti
0.583333 0.250000 0.655172 Ti
0.583333 0.250000 0.758621 Ti
0.583333 0.583333 0.551724 Ti
0.583333 0.583333 0.655172 Ti
0.583333 0.583333 0.758621 Ti
0.583333 0.916667 0.551724 Ti
0.583333 0.916667 0.655172 Ti
0.583333 0.916667 0.758621 Ti
0.916667 0.250000 0.551724 Ti
0.916667 0.250000 0.655172 Ti
0.916667 0.250000 0.758621 Ti
0.916667 0.583333 0.551724 Ti
0.916667 0.583333 0.655172 Ti
0.916667 0.583333 0.758621 Ti
0.916667 0.916667 0.551724 Ti
0.916667 0.916667 0.655172 Ti
0.916667 0.916667 0.758621 Ti
