Ti66 Cr1
1.0
6.309760 0.000000 0.000000
0.000000 9.464640 0.000000
0.000000 0.000000 18.918326
Ti Cr
66 1
Selective dynamics
direct
0.125209 0.042523 0.500596 F F F Ti
0.625941 0.042533 0.499897 F F F Ti
0.125133 0.041978 0.658693 F F F Ti
0.625104 0.041943 0.658628 F F F Ti
0.125059 0.041709 0.817043 F F F Ti
0.624965 0.041693 0.817044 F F F Ti
0.125481 0.377360 0.500790 F F F Ti
0.625662 0.375932 0.501552 F F F Ti
0.125017 0.375592 0.658780 F F F Ti
0.625075 0.375531 0.658874 F F F Ti
0.125004 0.375227 0.817077 F F F Ti
0.624939 0.375232 0.817098 F F F Ti
0.125193 0.710802 0.499562 F F F Ti
0.623906 0.710471 0.499871 F F F Ti
0.125030 0.709088 0.658524 F F F Ti
0.624815 0.709077 0.658605 F F F Ti
0.125003 0.708501 0.817056 F F F Ti
0.624905 0.708493 0.817079 F F F Ti
0.375256 0.208871 0.579564 F F F Ti
0.875214 0.208936 0.579692 F F F Ti
0.375067 0.208535 0.737889 F F F Ti
0.874999 0.208532 0.737915 F F F Ti
0.375032 0.208462 0.896156 F F F Ti
0.875028 0.208471 0.896130 F F F Ti
0.375108 0.543006 0.579578 F F F Ti
0.874999 0.543211 0.579609 F F F Ti
0.374993 0.542065 0.737906 F F F Ti
0.874967 0.542097 0.737916 F F F Ti
0.374960 0.541789 0.896344 F F F Ti
0.875018 0.541809 0.896329 F F F Ti
0.375155 0.875877 0.579253 F F F Ti
0.874926 0.875652 0.579301 F F F Ti
0.375003 0.875220 0.737844 F F F Ti
0.874967 0.875200 0.737851 F F F Ti
0.374988 0.874893 0.896279 F F F Ti
0.875059 0.874882 0.896256 F F F Ti
0.125580 0.623354 0.356677 F F F Ti
0.623605 0.627007 0.356538 F F F Ti
0.125236 0.624072 0.118998 F F F Ti
0.624607 0.624504 0.118982 F F F Ti
0.633724 0.126201 0.356366 F F F Ti
0.125505 0.124529 0.118160 F F F Ti
0.624892 0.124574 0.116837 F F F Ti
0.125187 0.374850 0.039334 F F F Ti
0.624886 0.375240 0.039147 F F F Ti
0.125076 0.874445 0.039330 F F F Ti
0.624944 0.874174 0.039133 F F F Ti
0.627839 0.375463 0.277272 F F F Ti
0.125125 0.875716 0.276867 F F F Ti
0.625242 0.874048 0.277270 F F F Ti
0.375216 0.873781 0.158134 F F F Ti
0.874936 0.873354 0.157934 F F F Ti
0.375577 0.374498 0.158309 F F F Ti
0.874977 0.375211 0.157823 F F F Ti
0.384285 0.381235 0.398134 F F F Ti
0.865963 0.384184 0.398629 F F F Ti
0.373621 0.878079 0.395818 F F F Ti
0.876450 0.876009 0.396039 F F F Ti
0.373679 0.623077 0.238062 F F F Ti
0.876371 0.623464 0.238048 F F F Ti
0.374788 0.624711 -0.000047 F F F Ti
0.875145 0.624729 -0.000051 F F F Ti
0.386664 0.122878 0.234771 F F F Ti
0.862337 0.122483 0.233142 F F F Ti
0.374774 0.124765 -0.000547 F F F Ti
0.875432 0.124770 -0.000572 F F F Ti
0.111155 0.165264 0.343208 T T T Cr

0.000000 0.000000 0.000000
0.000000 0.000000 0.000000
0.000000 0.000000 0.000000
0.000000 0.000000 0.000000
0.000000 0.000000 0.000000
0.000000 0.000000 0.000000
0.000000 0.000000 0.000000
0.000000 0.000000 0.000000
0.000000 0.000000 0.000000
0.000000 0.000000 0.000000
0.000000 0.000000 0.000000
0.000000 0.000000 0.000000
0.000000 0.000000 0.000000
0.000000 0.000000 0.000000
0.000000 0.000000 0.000000
0.000000 0.000000 0.000000
0.000000 0.000000 0.000000
0.000000 0.000000 0.000000
0.000000 0.000000 0.000000
0.000000 0.000000 0.000000
0.000000 0.000000 0.000000
0.000000 0.000000 0.000000
0.000000 0.000000 0.000000
0.000000 0.000000 0.000000
0.000000 0.000000 0.000000
0.000000 0.000000 0.000000
0.000000 0.000000 0.000000
0.000000 0.000000 0.000000
0.000000 0.000000 0.000000
0.000000 0.000000 0.000000
0.000000 0.000000 0.000000
0.000000 0.000000 0.000000
0.000000 0.000000 0.000000
0.000000 0.000000 0.000000
0.000000 0.000000 0.000000
0.000000 0.000000 0.000000
0.000000 0.000000 0.000000
0.000000 0.000000 0.000000
0.000000 0.000000 0.000000
0.000000 0.000000 0.000000
0.000000 0.000000 0.000000
0.000000 0.000000 0.000000
0.000000 0.000000 0.000000
0.000000 0.000000 0.000000
0.000000 0.000000 0.000000
0.000000 0.000000 0.000000
0.000000 0.000000 0.000000
0.000000 0.000000 0.000000
0.000000 0.000000 0.000000
0.000000 0.000000 0.000000
0.000000 0.000000 0.000000
0.000000 0.000000 0.000000
0.000000 0.000000 0.000000
0.000000 0.000000 0.000000
0.000000 0.000000 0.000000
0.000000 0.000000 0.000000
0.000000 0.000000 0.000000
0.000000 0.000000 0.000000
0.000000 0.000000 0.000000
0.000000 0.000000 0.000000
0.000000 0.000000 0.000000
0.000000 0.000000 0.000000
0.000000 0.000000 0.000000
0.000000 0.000000 0.000000
0.000000 0.000000 0.000000
0.000000 0.000000 0.000000
0.000000 0.000000 0.000000
