Ti82 Al1
1.0
6.391540 0.000000 0.000000
0.000000 9.587310 0.000000
0.000000 0.000000 23.271695
Ti Al
82 1
Selective dynamics
direct
0.632981 0.082014 0.580368 F F F Ti
0.123625 0.082581 0.710612 F F F Ti
0.625000 0.083039 0.709779 F F F Ti
0.124899 0.083302 0.838629 F F F Ti
0.624794 0.083327 0.838570 F F F Ti
0.122682 0.420995 0.580309 F F F Ti
0.625183 0.417344 0.580421 F F F Ti
0.124784 0.416811 0.709612 F F F Ti
0.623857 0.417088 0.709731 F F F Ti
0.125001 0.416641 0.838525 F F F Ti
0.624780 0.416688 0.838547 F F F Ti
0.125253 0.750388 0.580641 F F F Ti
0.625803 0.749538 0.580478 F F F Ti
0.124947 0.749648 0.709756 F F F Ti
0.625605 0.749347 0.709867 F F F Ti
0.124947 0.749886 0.838583 F F F Ti
0.624940 0.749829 0.838618 F F F Ti
0.868800 0.252475 0.646013 F F F Ti
0.374754 0.249953 0.774073 F F F Ti
0.874432 0.250232 0.774247 F F F Ti
0.374945 0.250002 0.902957 F F F Ti
0.874910 0.250024 0.902977 F F F Ti
0.375095 0.583528 0.645126 F F F Ti
0.874508 0.583879 0.645256 F F F Ti
0.374763 0.583264 0.774132 F F F Ti
0.875033 0.583196 0.774168 F F F Ti
0.374923 0.583275 0.902973 F F F Ti
0.874996 0.583260 0.902979 F F F Ti
0.379044 0.913506 0.645886 F F F Ti
0.874735 0.915832 0.645510 F F F Ti
0.375231 0.916329 0.774252 F F F Ti
0.874545 0.916327 0.774255 F F F Ti
0.374971 0.916608 0.902983 F F F Ti
0.874897 0.916619 0.902979 F F F Ti
0.125212 0.166815 0.386585 F F F Ti
0.625773 0.166880 0.386485 F F F Ti
0.125107 0.666946 0.386709 F F F Ti
0.625048 0.666817 0.386637 F F F Ti
0.124985 0.166663 0.000061 F F F Ti
0.624960 0.166663 0.000062 F F F Ti
0.124980 0.666668 0.000060 F F F Ti
0.624963 0.666661 0.000063 F F F Ti
0.124995 0.833340 0.096718 F F F Ti
0.624981 0.833339 0.096715 F F F Ti
0.125514 0.833697 0.483426 F F F Ti
0.625810 0.833192 0.483313 F F F Ti
0.124998 0.333334 0.096715 F F F Ti
0.624977 0.333337 0.096711 F F F Ti
0.125066 0.334790 0.482930 F F F Ti
0.626219 0.333796 0.483224 F F F Ti
0.375460 0.583895 0.483261 F F F Ti
0.874830 0.583960 0.483233 F F F Ti
0.374999 0.583325 0.096711 F F F Ti
0.875025 0.583327 0.096711 F F F Ti
0.374987 0.083343 0.096718 F F F Ti
0.875015 0.083343 0.096715 F F F Ti
0.378824 0.083207 0.482399 F F F Ti
0.875990 0.083611 0.483134 F F F Ti
0.375331 0.416890 0.386586 F F F Ti
0.874980 0.416948 0.386563 F F F Ti
0.375240 0.916559 0.386555 F F F Ti
0.875178 0.916737 0.386673 F F F Ti
0.374959 0.416666 0.000061 F F F Ti
0.874972 0.416668 0.000066 F F F Ti
0.374970 0.916656 0.000080 F F F Ti
0.874964 0.916656 0.000079 F F F Ti
0.375063 0.083366 0.289974 F F F Ti
0.875067 0.083340 0.289981 F F F Ti
0.124991 0.166676 0.193354 F F F Ti
0.625009 0.166672 0.193343 F F F Ti
0.125021 0.333404 0.289987 F F F Ti
0.625053 0.333420 0.289953 F F F Ti
0.374980 0.416694 0.193346 F F F Ti
0.874992 0.416694 0.193344 F F F Ti
0.375017 0.583409 0.289991 F F F Ti
0.875073 0.583424 0.289985 F F F Ti
0.124995 0.666682 0.193359 F F F Ti
0.624987 0.666673 0.193351 F F F Ti
0.124985 0.833363 0.290005 F F F Ti
0.625096 0.833345 0.289982 F F F Ti
0.374984 0.916661 0.193353 F F F Ti
0.874987 0.916664 0.193353 F F F Ti
0.194670 0.132256 0.593173 T T T Al

0.000000 0.000000 0.000000
0.000000 0.000000 0.000000
0.000000 0.000000 0.000000
0.000000 0.000000 0.000000
0.000000 0.000000 0.000000
0.000000 0.000000 0.000000
0.000000 0.000000 0.000000
0.000000 0.000000 0.000000
0.000000 0.000000 0.000000
0.000000 0.000000 0.000000
0.000000 0.000000 0.000000
0.000000 0.000000 0.000000
0.000000 0.000000 0.000000
0.000000 0.000000 0.000000
0.000000 0.000000 0.000000
0.000000 0.000000 0.000000
0.000000 0.000000 0.000000
0.000000 0.000000 0.000000
0.000000 0.000000 0.000000
0.000000 0.000000 0.000000
0.000000 0.000000 0.000000
0.000000 0.000000 0.000000
0.000000 0.000000 0.000000
0.000000 0.000000 0.000000
0.000000 0.000000 0.000000
0.000000 0.000000 0.000000
0.000000 0.000000 0.000000
0.000000 0.000000 0.000000
0.000000 0.000000 0.000000
0.000000 0.000000 0.000000
0.000000 0.000000 0.000000
0.000000 0.000000 0.000000
0.000000 0.000000 0.000000
0.000000 0.000000 0.000000
0.000000 0.000000 0.000000
0.000000 0.000000 0.000000
0.000000 0.000000 0.000000
0.000000 0.000000 0.000000
0.000000 0.000000 0.000000
0.000000 0.000000 0.000000
0.000000 0.000000 0.000000
0.000000 0.000000 0.000000
0.000000 0.000000 0.000000
0.000000 0.000000 0.000000
0.000000 0.000000 0.000000
0.000000 0.000000 0.000000
0.000000 0.000000 0.000000
0.000000 0.000000 0.000000
0.000000 0.000000 0.000000
0.000000 0.000000 0.000000
0.000000 0.000000 0.000000
0.000000 0.000000 0.000000
0.000000 0.000000 0.000000
0.000000 0.000000 0.000000
0.000000 0.000000 0.000000
0.000000 0.000000 0.000000
0.000000 0.000000 0.000000
0.000000 0.000000 0.000000
0.000000 0.000000 0.000000
0.000000 0.000000 0.000000
0.000000 0.000000 0.000000
0.000000 0.000000 0.000000
0.000000 0.000000 0.000000
0.000000 0.000000 0.000000
0.000000 0.000000 0.000000
0.000000 0.000000 0.000000
0.000000 0.000000 0.000000
0.000000 0.000000 0.000000
0.000000 0.000000 0.000000
0.000000 0.000000 0.000000
0.000000 0.000000 0.000000
0.000000 0.000000 0.000000
0.000000 0.000000 0.000000
0.000000 0.000000 0.000000
0.000000 0.000000 0.000000
0.000000 0.000000 0.000000
0.000000 0.000000 0.000000
0.000000 0.000000 0.000000
0.000000 0.000000 0.000000
0.000000 0.000000 0.000000
0.000000 0.000000 0.000000
0.000000 0.000000 0.000000
0.000000 0.000000 0.000000
