beta_Ti
1.0
5.745590 0.000000 0.000000
0.000000 9.072750 0.000000
0.000000 0.000000 18.667173
Ti
28
direct
0.458333 0.625000 0.643321 Ti
0.458333 0.125000 0.643321 Ti
0.958333 0.625000 0.643321 Ti
0.958333 0.125000 0.643321 Ti
0.125000 0.625000 0.785540 Ti
0.125000 0.125000 0.785540 Ti
0.625000 0.625000 0.785540 Ti
0.625000 0.125000 0.785540 Ti
0.291667 0.625000 0.927759 Ti
0.291667 0.125000 0.927760 Ti
0.791667 0.625000 0.927759 Ti
0.791667 0.125000 0.927760 Ti
0.125000 0.875000 0.572210 Ti
0.125000 0.375000 0.572210 Ti
0.625000 0.875000 0.572210 Ti
0.625000 0.375000 0.572210 Ti
0.291667 0.875000 0.714430 Ti
0.291667 0.375000 0.714430 Ti
0.791667 0.875000 0.714430 Ti
0.791667 0.375000 0.714430 Ti
0.458333 0.875000 0.856650 Ti
0.458333 0.375000 0.856650 Ti
0.958333 0.875000 0.856650 Ti
0.958333 0.375000 0.856650 Ti
0.125000 0.875000 0.998869 Ti
0.125000 0.375000 0.998869 Ti
0.625000 0.875000 0.998869 Ti
0.625000 0.375000 0.998869 Ti
