alpha_Ti
1.0
5.745590 0.000000 0.000000
0.000000 9.072750 0.000000
0.000000 0.000000 18.667173
Ti
36
direct
0.041667 0.875000 0.499972 Ti
0.041667 0.375000 0.499972 Ti
0.541667 0.875000 0.499972 Ti
0.541667 0.375000 0.499972 Ti
0.291667 0.625000 0.545425 Ti
0.291667 0.125000 0.545425 Ti
0.791667 0.625000 0.545425 Ti
0.791667 0.125000 0.545425 Ti
0.291667 0.875000 0.363615 Ti
0.291667 0.375000 0.363615 Ti
0.791667 0.875000 0.363615 Ti
0.791667 0.375000 0.363615 Ti
0.041667 0.625000 0.409069 Ti
0.041667 0.125000 0.409069 Ti
0.541667 0.625000 0.409069 Ti
0.541667 0.125000 0.409069 Ti
0.041667 0.875000 0.227260 Ti
0.041667 0.375000 0.227260 Ti
0.541667 0.875000 0.227260 Ti
0.541667 0.375000 0.227260 Ti
0.291667 0.625000 0.272712 Ti
0.291667 0.125000 0.272712 Ti
0.791667 0.625000 0.272712 Ti
0.791667 0.125000 0.272712 Ti
0.291667 0.875000 0.090903 Ti
0.291667 0.375000 0.090903 Ti
0.791667 0.875000 0.090903 Ti
0.791667 0.375000 0.090903 Ti
0.041667 0.625000 0.136357 Ti
0.041667 0.125000 0.136357 Ti
0.541667 0.625000 0.136357 Ti
0.541667 0.125000 0.136357 Ti
0.791667 0.125000 0.000000 Ti
0.291667 0.125000 0.000000 Ti
0.791667 0.625000 -0.000000 Ti
0.291667 0.625000 -0.000000 Ti
