Ti36
1.0
8.805261 0.000000 0.000000
-4.402630 7.625579 0.000000
0.000000 0.000000 18.788801
Ti
36
direct
0.000000 0.000000 0.486563 Ti
1.000000 0.500000 0.486563 Ti
0.500000 0.000000 0.486563 Ti
0.500000 0.500000 0.486563 Ti
0.166667 0.333333 0.831036 Ti
0.166667 0.833333 0.831036 Ti
0.666667 0.333333 0.831036 Ti
0.666667 0.833333 0.831036 Ti
0.333333 0.166667 0.880247 Ti
0.333333 0.666667 0.880247 Ti
0.833333 0.166667 0.880247 Ti
0.833333 0.666667 0.880247 Ti
0.166667 0.333333 0.535773 Ti
0.166667 0.833333 0.535773 Ti
0.666667 0.333333 0.535773 Ti
0.666667 0.833333 0.535773 Ti
0.333333 0.166667 0.584984 Ti
0.333333 0.666667 0.584984 Ti
0.833333 0.166667 0.584984 Ti
0.833333 0.666667 0.584984 Ti
0.000000 0.000000 0.634194 Ti
1.000000 0.500000 0.634194 Ti
0.500000 0.000000 0.634194 Ti
0.500000 0.500000 0.634194 Ti
0.166667 0.333333 0.683405 Ti
0.166667 0.833333 0.683405 Ti
0.666667 0.333333 0.683405 Ti
0.666667 0.833333 0.683405 Ti
0.333333 0.166667 0.732615 Ti
0.333333 0.666667 0.732615 Ti
0.833333 0.166667 0.732615 Ti
0.833333 0.666667 0.732615 Ti
0.000000 0.000000 0.781826 Ti
1.000000 0.500000 0.781826 Ti
0.500000 0.000000 0.781826 Ti
0.500000 0.500000 0.781826 Ti

0.000000 0.000000 0.000000
0.000000 0.000000 0.000000
0.000000 0.000000 0.000000
0.000000 0.000000 0.000000
0.000000 0.000000 0.000000
0.000000 0.000000 0.000000
0.000000 0.000000 0.000000
0.000000 0.000000 0.000000
0.000000 0.000000 0.000000
0.000000 0.000000 0.000000
0.000000 0.000000 0.000000
0.000000 0.000000 0.000000
0.000000 0.000000 0.000000
0.000000 0.000000 0.000000
0.000000 0.000000 0.000000
0.000000 0.000000 0.000000
0.000000 0.000000 0.000000
0.000000 0.000000 0.000000
0.000000 0.000000 0.000000
0.000000 0.000000 0.000000
0.000000 0.000000 0.000000
0.000000 0.000000 0.000000
0.000000 0.000000 0.000000
0.000000 0.000000 0.000000
0.000000 0.000000 0.000000
0.000000 0.000000 0.000000
0.000000 0.000000 0.000000
0.000000 0.000000 0.000000
0.000000 0.000000 0.000000
0.000000 0.000000 0.000000
0.000000 0.000000 0.000000
0.000000 0.000000 0.000000
0.000000 0.000000 0.000000
0.000000 0.000000 0.000000
0.000000 0.000000 0.000000
0.000000 0.000000 0.000000
