total_Ti
1.0
9.445957 0.000000 0.000000
0.000000 9.093951 0.000000
0.000000 0.000000 28.211864
Ti
96
direct
0.166666 0.375000 0.255374 Ti
0.666666 0.375000 0.255374 Ti
0.166666 0.875000 0.255374 Ti
0.666666 0.875000 0.255374 Ti
0.166666 0.375000 0.153225 Ti
0.666666 0.375000 0.153225 Ti
0.166666 0.875000 0.153225 Ti
0.666666 0.875000 0.153225 Ti
0.166666 0.375000 0.051075 Ti
0.666666 0.375000 0.051075 Ti
0.166666 0.875000 0.051075 Ti
0.666666 0.875000 0.051075 Ti
0.416667 0.375000 0.204300 Ti
0.916667 0.375000 0.204300 Ti
0.416667 0.875000 0.204300 Ti
0.916667 0.875000 0.204300 Ti
0.416667 0.375000 0.102150 Ti
0.916667 0.375000 0.102150 Ti
0.416667 0.875000 0.102150 Ti
0.916667 0.875000 0.102150 Ti
0.416667 0.375000 -0.000000 Ti
0.916667 0.375000 -0.000000 Ti
0.416667 0.875000 -0.000000 Ti
0.916667 0.875000 -0.000000 Ti
0.083333 0.125000 0.204299 Ti
0.583333 0.125000 0.204299 Ti
0.083333 0.625000 0.204299 Ti
0.583333 0.625000 0.204299 Ti
0.083333 0.125000 0.102150 Ti
0.583333 0.125000 0.102150 Ti
0.083333 0.625000 0.102150 Ti
0.583333 0.625000 0.102150 Ti
0.083333 0.125000 -0.000000 Ti
0.583333 0.125000 -0.000000 Ti
0.083333 0.625000 -0.000000 Ti
0.583333 0.625000 -0.000000 Ti
0.333333 0.125000 0.255374 Ti
0.833333 0.125000 0.255374 Ti
0.333333 0.625000 0.255374 Ti
0.833333 0.625000 0.255374 Ti
0.333333 0.125000 0.153225 Ti
0.833333 0.125000 0.153225 Ti
0.333333 0.625000 0.153225 Ti
0.833333 0.625000 0.153225 Ti
0.333333 0.125000 0.051075 Ti
0.833333 0.125000 0.051075 Ti
0.333333 0.625000 0.051075 Ti
0.833333 0.625000 0.051075 Ti
0.375000 0.375000 0.712834 Ti
0.875000 0.375000 0.712834 Ti
0.375000 0.875000 0.712834 Ti
0.875000 0.875000 0.712834 Ti
0.125000 0.125000 0.712834 Ti
0.625000 0.125000 0.712834 Ti
0.125000 0.625000 0.712834 Ti
0.625000 0.625000 0.712834 Ti
0.125000 0.375000 0.769600 Ti
0.625000 0.375000 0.769600 Ti
0.125000 0.875000 0.769600 Ti
0.625000 0.875000 0.769600 Ti
0.375000 0.125000 0.769600 Ti
0.875000 0.125000 0.769600 Ti
0.375000 0.625000 0.769600 Ti
0.875000 0.625000 0.769600 Ti
0.375000 0.375000 0.599304 Ti
0.875000 0.375000 0.599304 Ti
0.375000 0.875000 0.599304 Ti
0.875000 0.875000 0.599304 Ti
0.125000 0.125000 0.599304 Ti
0.625000 0.125000 0.599304 Ti
0.125000 0.625000 0.599304 Ti
0.625000 0.625000 0.599304 Ti
0.125000 0.375000 0.542539 Ti
0.625000 0.375000 0.542539 Ti
0.125000 0.875000 0.542539 Ti
0.625000 0.875000 0.542539 Ti
0.375000 0.125000 0.542539 Ti
0.875000 0.125000 0.542539 Ti
0.375000 0.625000 0.542539 Ti
0.875000 0.625000 0.542539 Ti
0.375000 0.375000 0.485774 Ti
0.875000 0.375000 0.485774 Ti
0.375000 0.875000 0.485774 Ti
0.875000 0.875000 0.485774 Ti
0.125000 0.125000 0.485774 Ti
0.625000 0.125000 0.485774 Ti
0.125000 0.625000 0.485774 Ti
0.625000 0.625000 0.485774 Ti
0.125000 0.875000 0.656070 Ti
0.625000 0.875000 0.656070 Ti
0.375000 0.625000 0.656070 Ti
0.875000 0.625000 0.656070 Ti
0.125000 0.375000 0.656070 Ti
0.625000 0.375000 0.656070 Ti
0.375000 0.125000 0.656070 Ti
0.875000 0.125000 0.656070 Ti
