Zr1 Ti82
1.0
6.391540 0.000000 0.000000
0.000000 9.587310 0.000000
0.000000 0.000000 23.271695
Ti Zr
82 1
Selective dynamics
direct
0.123211 0.083423 0.580850 F F F Ti
0.623767 0.083495 0.580681 F F F Ti
0.124881 0.083357 0.709536 F F F Ti
0.624795 0.083362 0.709519 F F F Ti
0.124989 0.083340 0.838410 F F F Ti
0.624969 0.083341 0.838408 F F F Ti
0.124693 0.417364 0.581023 F F F Ti
0.624968 0.416953 0.580664 F F F Ti
0.124947 0.416728 0.709581 F F F Ti
0.624869 0.416716 0.709546 F F F Ti
0.124991 0.416673 0.838421 F F F Ti
0.624971 0.416671 0.838417 F F F Ti
0.124767 0.750026 0.580737 F F F Ti
0.624796 0.750069 0.580641 F F F Ti
0.124956 0.750067 0.709554 F F F Ti
0.624856 0.750068 0.709546 F F F Ti
0.124990 0.750018 0.838419 F F F Ti
0.624969 0.750019 0.838418 F F F Ti
0.374754 0.250101 0.645046 F F F Ti
0.874497 0.250118 0.645157 F F F Ti
0.374965 0.250005 0.773961 F F F Ti
0.874927 0.250006 0.773981 F F F Ti
0.374995 0.249994 0.902847 F F F Ti
0.874999 0.249995 0.902850 F F F Ti
0.375093 0.583521 0.645133 F F F Ti
0.874700 0.583528 0.645189 F F F Ti
0.374984 0.583368 0.773985 F F F Ti
0.874942 0.583366 0.773995 F F F Ti
0.374992 0.583331 0.902852 F F F Ti
0.874993 0.583332 0.902853 F F F Ti
0.374740 0.916743 0.645019 F F F Ti
0.874550 0.916646 0.645120 F F F Ti
0.374953 0.916693 0.773957 F F F Ti
0.874934 0.916684 0.773974 F F F Ti
0.374988 0.916675 0.902844 F F F Ti
0.874996 0.916673 0.902846 F F F Ti
0.631297 0.167537 0.385635 F F F Ti
0.124508 0.666165 0.386566 F F F Ti
0.625914 0.665929 0.386556 F F F Ti
0.125008 0.166667 -0.000021 F F F Ti
0.624999 0.166665 -0.000024 F F F Ti
0.125008 0.666663 -0.000029 F F F Ti
0.625003 0.666659 -0.000030 F F F Ti
0.125017 0.833326 0.096618 F F F Ti
0.625024 0.833322 0.096610 F F F Ti
0.122711 0.831366 0.483449 F F F Ti
0.624947 0.832622 0.483379 F F F Ti
0.125028 0.333320 0.096642 F F F Ti
0.625012 0.333339 0.096630 F F F Ti
0.118817 0.338787 0.484006 F F F Ti
0.626695 0.335058 0.483361 F F F Ti
0.375283 0.583916 0.483441 F F F Ti
0.873844 0.584246 0.483480 F F F Ti
0.375002 0.583310 0.096619 F F F Ti
0.875057 0.583306 0.096613 F F F Ti
0.375005 0.083341 0.096634 F F F Ti
0.875059 0.083346 0.096627 F F F Ti
0.867488 0.083028 0.483922 F F F Ti
0.375538 0.417536 0.386563 F F F Ti
0.874989 0.417202 0.386531 F F F Ti
0.378164 0.911929 0.385178 F F F Ti
0.874291 0.916060 0.386612 F F F Ti
0.374990 0.416660 -0.000023 F F F Ti
0.875004 0.416658 -0.000023 F F F Ti
0.374995 0.916667 -0.000024 F F F Ti
0.875002 0.916667 -0.000024 F F F Ti
0.375506 0.083238 0.289838 F F F Ti
0.875796 0.083108 0.289849 F F F Ti
0.125085 0.166672 0.193315 F F F Ti
0.625129 0.166653 0.193248 F F F Ti
0.125200 0.333186 0.290062 F F F Ti
0.625265 0.333586 0.289762 F F F Ti
0.374936 0.416631 0.193284 F F F Ti
0.875164 0.416619 0.193272 F F F Ti
0.375038 0.583247 0.289861 F F F Ti
0.875328 0.583228 0.289851 F F F Ti
0.125021 0.666574 0.193238 F F F Ti
0.625083 0.666526 0.193205 F F F Ti
0.124626 0.833081 0.289813 F F F Ti
0.626022 0.832893 0.289636 F F F Ti
0.375011 0.916609 0.193243 F F F Ti
0.875065 0.916649 0.193228 F F F Ti
0.297296 0.108510 0.456483 T T T Zr

0.000000 0.000000 0.000000
0.000000 0.000000 0.000000
0.000000 0.000000 0.000000
0.000000 0.000000 0.000000
0.000000 0.000000 0.000000
0.000000 0.000000 0.000000
0.000000 0.000000 0.000000
0.000000 0.000000 0.000000
0.000000 0.000000 0.000000
0.000000 0.000000 0.000000
0.000000 0.000000 0.000000
0.000000 0.000000 0.000000
0.000000 0.000000 0.000000
0.000000 0.000000 0.000000
0.000000 0.000000 0.000000
0.000000 0.000000 0.000000
0.000000 0.000000 0.000000
0.000000 0.000000 0.000000
0.000000 0.000000 0.000000
0.000000 0.000000 0.000000
0.000000 0.000000 0.000000
0.000000 0.000000 0.000000
0.000000 0.000000 0.000000
0.000000 0.000000 0.000000
0.000000 0.000000 0.000000
0.000000 0.000000 0.000000
0.000000 0.000000 0.000000
0.000000 0.000000 0.000000
0.000000 0.000000 0.000000
0.000000 0.000000 0.000000
0.000000 0.000000 0.000000
0.000000 0.000000 0.000000
0.000000 0.000000 0.000000
0.000000 0.000000 0.000000
0.000000 0.000000 0.000000
0.000000 0.000000 0.000000
0.000000 0.000000 0.000000
0.000000 0.000000 0.000000
0.000000 0.000000 0.000000
0.000000 0.000000 0.000000
0.000000 0.000000 0.000000
0.000000 0.000000 0.000000
0.000000 0.000000 0.000000
0.000000 0.000000 0.000000
0.000000 0.000000 0.000000
0.000000 0.000000 0.000000
0.000000 0.000000 0.000000
0.000000 0.000000 0.000000
0.000000 0.000000 0.000000
0.000000 0.000000 0.000000
0.000000 0.000000 0.000000
0.000000 0.000000 0.000000
0.000000 0.000000 0.000000
0.000000 0.000000 0.000000
0.000000 0.000000 0.000000
0.000000 0.000000 0.000000
0.000000 0.000000 0.000000
0.000000 0.000000 0.000000
0.000000 0.000000 0.000000
0.000000 0.000000 0.000000
0.000000 0.000000 0.000000
0.000000 0.000000 0.000000
0.000000 0.000000 0.000000
0.000000 0.000000 0.000000
0.000000 0.000000 0.000000
0.000000 0.000000 0.000000
0.000000 0.000000 0.000000
0.000000 0.000000 0.000000
0.000000 0.000000 0.000000
0.000000 0.000000 0.000000
0.000000 0.000000 0.000000
0.000000 0.000000 0.000000
0.000000 0.000000 0.000000
0.000000 0.000000 0.000000
0.000000 0.000000 0.000000
0.000000 0.000000 0.000000
0.000000 0.000000 0.000000
0.000000 0.000000 0.000000
0.000000 0.000000 0.000000
0.000000 0.000000 0.000000
0.000000 0.000000 0.000000
0.000000 0.000000 0.000000
0.000000 0.000000 0.000000
