alpha_Ti
1.0
5.745590 0.000000 0.000000
0.000000 9.072750 0.000000
0.000000 0.000000 25.625032
Ti
32
direct
0.041667 0.875000 0.364217 Ti
0.041667 0.375000 0.364217 Ti
0.541667 0.875000 0.364217 Ti
0.541667 0.375000 0.364217 Ti
0.291667 0.875000 0.264884 Ti
0.291667 0.375000 0.264884 Ti
0.791667 0.875000 0.264884 Ti
0.791667 0.375000 0.264884 Ti
0.041667 0.625000 0.297996 Ti
0.041667 0.125000 0.297996 Ti
0.541667 0.625000 0.297996 Ti
0.541667 0.125000 0.297996 Ti
0.041667 0.875000 0.165553 Ti
0.041667 0.375000 0.165553 Ti
0.541667 0.875000 0.165553 Ti
0.541667 0.375000 0.165553 Ti
0.291667 0.625000 0.198664 Ti
0.291667 0.125000 0.198664 Ti
0.791667 0.625000 0.198664 Ti
0.791667 0.125000 0.198664 Ti
0.291667 0.875000 0.066221 Ti
0.291667 0.375000 0.066221 Ti
0.791667 0.875000 0.066221 Ti
0.791667 0.375000 0.066221 Ti
0.041667 0.625000 0.099332 Ti
0.041667 0.125000 0.099332 Ti
0.541667 0.625000 0.099332 Ti
0.541667 0.125000 0.099332 Ti
0.791667 0.125000 0.000000 Ti
0.291667 0.125000 0.000000 Ti
0.791667 0.625000 -0.000000 Ti
0.291667 0.625000 -0.000000 Ti
