Ti66 Al1
1.0
6.309760 0.000000 0.000000
0.000000 9.464640 0.000000
0.000000 0.000000 18.918326
Ti Al
66 1
Selective dynamics
direct
0.627008 0.041541 0.500012 F F F Ti
0.125081 0.041792 0.658500 F F F Ti
0.625057 0.041702 0.658586 F F F Ti
0.125033 0.041694 0.817136 F F F Ti
0.625011 0.041688 0.817155 F F F Ti
0.125376 0.378207 0.500497 F F F Ti
0.625693 0.375275 0.500186 F F F Ti
0.125157 0.375214 0.658725 F F F Ti
0.625035 0.375163 0.658734 F F F Ti
0.125026 0.375010 0.817185 F F F Ti
0.625001 0.375001 0.817195 F F F Ti
0.125107 0.708322 0.500068 F F F Ti
0.624956 0.707955 0.500260 F F F Ti
0.125106 0.708526 0.658661 F F F Ti
0.624951 0.708548 0.658719 F F F Ti
0.125018 0.708393 0.817181 F F F Ti
0.624992 0.708403 0.817195 F F F Ti
0.375539 0.208725 0.579399 F F F Ti
0.874709 0.208995 0.579656 F F F Ti
0.375039 0.208343 0.737882 F F F Ti
0.875040 0.208356 0.737917 F F F Ti
0.374979 0.208299 0.896406 F F F Ti
0.875043 0.208302 0.896409 F F F Ti
0.375549 0.542082 0.579560 F F F Ti
0.874718 0.542140 0.579600 F F F Ti
0.375062 0.541773 0.737964 F F F Ti
0.875003 0.541777 0.737973 F F F Ti
0.374998 0.541641 0.896425 F F F Ti
0.875020 0.541642 0.896424 F F F Ti
0.375125 0.875200 0.579206 F F F Ti
0.875087 0.874890 0.579377 F F F Ti
0.374978 0.875106 0.737862 F F F Ti
0.875055 0.875086 0.737891 F F F Ti
0.374977 0.875044 0.896395 F F F Ti
0.875043 0.875042 0.896399 F F F Ti
0.125337 0.624595 0.356606 F F F Ti
0.624885 0.624208 0.356471 F F F Ti
0.125063 0.624919 0.118834 F F F Ti
0.625007 0.624916 0.118810 F F F Ti
0.627650 0.124852 0.356725 F F F Ti
0.125124 0.124959 0.118942 F F F Ti
0.624982 0.124979 0.118913 F F F Ti
0.125029 0.374951 0.039622 F F F Ti
0.624987 0.374955 0.039614 F F F Ti
0.125043 0.875001 0.039588 F F F Ti
0.625003 0.875006 0.039577 F F F Ti
0.125097 0.374896 0.277546 F F F Ti
0.625191 0.374777 0.277363 F F F Ti
0.125151 0.874334 0.277335 F F F Ti
0.625226 0.874821 0.277037 F F F Ti
0.375005 0.874971 0.158469 F F F Ti
0.875115 0.874919 0.158425 F F F Ti
0.374988 0.374849 0.158557 F F F Ti
0.875090 0.374900 0.158507 F F F Ti
0.376703 0.376698 0.396470 F F F Ti
0.873440 0.377661 0.396426 F F F Ti
0.379441 0.871419 0.395980 F F F Ti
0.869855 0.869889 0.395836 F F F Ti
0.375115 0.624768 0.237664 F F F Ti
0.875022 0.624718 0.237641 F F F Ti
0.374998 0.624984 -0.000042 F F F Ti
0.875014 0.624985 -0.000042 F F F Ti
0.375055 0.124854 0.238008 F F F Ti
0.875294 0.124866 0.237761 F F F Ti
0.375000 0.124996 -0.000018 F F F Ti
0.875031 0.124996 -0.000018 F F F Ti
0.116483 0.096208 0.427168 T T T Al

0.000000 0.000000 0.000000
0.000000 0.000000 0.000000
0.000000 0.000000 0.000000
0.000000 0.000000 0.000000
0.000000 0.000000 0.000000
0.000000 0.000000 0.000000
0.000000 0.000000 0.000000
0.000000 0.000000 0.000000
0.000000 0.000000 0.000000
0.000000 0.000000 0.000000
0.000000 0.000000 0.000000
0.000000 0.000000 0.000000
0.000000 0.000000 0.000000
0.000000 0.000000 0.000000
0.000000 0.000000 0.000000
0.000000 0.000000 0.000000
0.000000 0.000000 0.000000
0.000000 0.000000 0.000000
0.000000 0.000000 0.000000
0.000000 0.000000 0.000000
0.000000 0.000000 0.000000
0.000000 0.000000 0.000000
0.000000 0.000000 0.000000
0.000000 0.000000 0.000000
0.000000 0.000000 0.000000
0.000000 0.000000 0.000000
0.000000 0.000000 0.000000
0.000000 0.000000 0.000000
0.000000 0.000000 0.000000
0.000000 0.000000 0.000000
0.000000 0.000000 0.000000
0.000000 0.000000 0.000000
0.000000 0.000000 0.000000
0.000000 0.000000 0.000000
0.000000 0.000000 0.000000
0.000000 0.000000 0.000000
0.000000 0.000000 0.000000
0.000000 0.000000 0.000000
0.000000 0.000000 0.000000
0.000000 0.000000 0.000000
0.000000 0.000000 0.000000
0.000000 0.000000 0.000000
0.000000 0.000000 0.000000
0.000000 0.000000 0.000000
0.000000 0.000000 0.000000
0.000000 0.000000 0.000000
0.000000 0.000000 0.000000
0.000000 0.000000 0.000000
0.000000 0.000000 0.000000
0.000000 0.000000 0.000000
0.000000 0.000000 0.000000
0.000000 0.000000 0.000000
0.000000 0.000000 0.000000
0.000000 0.000000 0.000000
0.000000 0.000000 0.000000
0.000000 0.000000 0.000000
0.000000 0.000000 0.000000
0.000000 0.000000 0.000000
0.000000 0.000000 0.000000
0.000000 0.000000 0.000000
0.000000 0.000000 0.000000
0.000000 0.000000 0.000000
0.000000 0.000000 0.000000
0.000000 0.000000 0.000000
0.000000 0.000000 0.000000
0.000000 0.000000 0.000000
0.000000 0.000000 0.000000
