Ti36
1.0
8.805261 0.000000 0.000000
-4.402630 7.625579 0.000000
0.000000 0.000000 18.488801
Ti
36
direct
0.000000 0.000000 0.486345 Ti
1.000000 0.500000 0.486345 Ti
0.500000 0.000000 0.486345 Ti
0.500000 0.500000 0.486345 Ti
0.166667 0.333333 0.836408 Ti
0.166667 0.833333 0.836408 Ti
0.666667 0.333333 0.836408 Ti
0.666667 0.833333 0.836408 Ti
0.333333 0.166667 0.886417 Ti
0.333333 0.666667 0.886417 Ti
0.833333 0.166667 0.886417 Ti
0.833333 0.666667 0.886417 Ti
0.166667 0.333333 0.536354 Ti
0.166667 0.833333 0.536354 Ti
0.666667 0.333333 0.536354 Ti
0.666667 0.833333 0.536354 Ti
0.333333 0.166667 0.586363 Ti
0.333333 0.666667 0.586363 Ti
0.833333 0.166667 0.586363 Ti
0.833333 0.666667 0.586363 Ti
0.000000 0.000000 0.636372 Ti
1.000000 0.500000 0.636372 Ti
0.500000 0.000000 0.636372 Ti
0.500000 0.500000 0.636372 Ti
0.166667 0.333333 0.686381 Ti
0.166667 0.833333 0.686381 Ti
0.666667 0.333333 0.686381 Ti
0.666667 0.833333 0.686381 Ti
0.333333 0.166667 0.736390 Ti
0.333333 0.666667 0.736390 Ti
0.833333 0.166667 0.736390 Ti
0.833333 0.666667 0.736390 Ti
0.000000 0.000000 0.786399 Ti
1.000000 0.500000 0.786399 Ti
0.500000 0.000000 0.786399 Ti
0.500000 0.500000 0.786399 Ti

0.000000 0.000000 0.000000
0.000000 0.000000 0.000000
0.000000 0.000000 0.000000
0.000000 0.000000 0.000000
0.000000 0.000000 0.000000
0.000000 0.000000 0.000000
0.000000 0.000000 0.000000
0.000000 0.000000 0.000000
0.000000 0.000000 0.000000
0.000000 0.000000 0.000000
0.000000 0.000000 0.000000
0.000000 0.000000 0.000000
0.000000 0.000000 0.000000
0.000000 0.000000 0.000000
0.000000 0.000000 0.000000
0.000000 0.000000 0.000000
0.000000 0.000000 0.000000
0.000000 0.000000 0.000000
0.000000 0.000000 0.000000
0.000000 0.000000 0.000000
0.000000 0.000000 0.000000
0.000000 0.000000 0.000000
0.000000 0.000000 0.000000
0.000000 0.000000 0.000000
0.000000 0.000000 0.000000
0.000000 0.000000 0.000000
0.000000 0.000000 0.000000
0.000000 0.000000 0.000000
0.000000 0.000000 0.000000
0.000000 0.000000 0.000000
0.000000 0.000000 0.000000
0.000000 0.000000 0.000000
0.000000 0.000000 0.000000
0.000000 0.000000 0.000000
0.000000 0.000000 0.000000
0.000000 0.000000 0.000000
