Ti66 Mo1
1.0
6.309760 0.000000 0.000000
0.000000 9.464640 0.000000
0.000000 0.000000 18.918326
Ti Mo
66 1
Selective dynamics
direct
0.631642 0.041617 0.500613 F F F Ti
0.626474 0.041612 0.659567 F F F Ti
0.125094 0.041639 0.817291 F F F Ti
0.625074 0.041624 0.817588 F F F Ti
0.125626 0.377447 0.500369 F F F Ti
0.625967 0.377269 0.499451 F F F Ti
0.125864 0.375681 0.659275 F F F Ti
0.625232 0.377641 0.660272 F F F Ti
0.125233 0.374819 0.817690 F F F Ti
0.625065 0.374966 0.817874 F F F Ti
0.125239 0.706104 0.500397 F F F Ti
0.625450 0.706111 0.499417 F F F Ti
0.125585 0.707434 0.659273 F F F Ti
0.624779 0.705796 0.660262 F F F Ti
0.125127 0.708465 0.817711 F F F Ti
0.625035 0.708385 0.817892 F F F Ti
0.386995 0.214208 0.580996 F F F Ti
0.861771 0.216729 0.581852 F F F Ti
0.375177 0.208265 0.738274 F F F Ti
0.875334 0.208521 0.738511 F F F Ti
0.374958 0.208164 0.896725 F F F Ti
0.875176 0.208194 0.896765 F F F Ti
0.375974 0.541424 0.579781 F F F Ti
0.874911 0.541285 0.579875 F F F Ti
0.374583 0.541615 0.738822 F F F Ti
0.876061 0.541510 0.738884 F F F Ti
0.374972 0.541610 0.896904 F F F Ti
0.875164 0.541591 0.896916 F F F Ti
0.386300 0.869328 0.580929 F F F Ti
0.861860 0.866531 0.581798 F F F Ti
0.375031 0.875004 0.738230 F F F Ti
0.875305 0.874715 0.738465 F F F Ti
0.374922 0.875119 0.896747 F F F Ti
0.875166 0.875105 0.896793 F F F Ti
0.125286 0.624987 0.356785 F F F Ti
0.625045 0.624912 0.356511 F F F Ti
0.124976 0.625070 0.119117 F F F Ti
0.624903 0.625053 0.119088 F F F Ti
0.125195 0.124930 0.357331 F F F Ti
0.625729 0.124936 0.357156 F F F Ti
0.125039 0.124948 0.119240 F F F Ti
0.624911 0.124956 0.119195 F F F Ti
0.124965 0.374857 0.039935 F F F Ti
0.624845 0.374876 0.039916 F F F Ti
0.124951 0.875122 0.039977 F F F Ti
0.624799 0.875101 0.039949 F F F Ti
0.125109 0.374904 0.277575 F F F Ti
0.625115 0.374858 0.277500 F F F Ti
0.125224 0.875112 0.277845 F F F Ti
0.624970 0.875104 0.277675 F F F Ti
0.374960 0.875075 0.158806 F F F Ti
0.875048 0.875064 0.158790 F F F Ti
0.374978 0.374923 0.158711 F F F Ti
0.875029 0.374934 0.158677 F F F Ti
0.375188 0.375167 0.396408 F F F Ti
0.875467 0.375583 0.396294 F F F Ti
0.375691 0.874868 0.396948 F F F Ti
0.874515 0.873870 0.396441 F F F Ti
0.374964 0.625053 0.237896 F F F Ti
0.875150 0.625011 0.237872 F F F Ti
0.374882 0.625126 0.000291 F F F Ti
0.875002 0.625128 0.000300 F F F Ti
0.374990 0.124939 0.238201 F F F Ti
0.875216 0.124942 0.238125 F F F Ti
0.374903 0.124918 0.000210 F F F Ti
0.875037 0.124909 0.000233 F F F Ti
0.110773 0.041336 0.524861 T T T Mo

0.000000 0.000000 0.000000
0.000000 0.000000 0.000000
0.000000 0.000000 0.000000
0.000000 0.000000 0.000000
0.000000 0.000000 0.000000
0.000000 0.000000 0.000000
0.000000 0.000000 0.000000
0.000000 0.000000 0.000000
0.000000 0.000000 0.000000
0.000000 0.000000 0.000000
0.000000 0.000000 0.000000
0.000000 0.000000 0.000000
0.000000 0.000000 0.000000
0.000000 0.000000 0.000000
0.000000 0.000000 0.000000
0.000000 0.000000 0.000000
0.000000 0.000000 0.000000
0.000000 0.000000 0.000000
0.000000 0.000000 0.000000
0.000000 0.000000 0.000000
0.000000 0.000000 0.000000
0.000000 0.000000 0.000000
0.000000 0.000000 0.000000
0.000000 0.000000 0.000000
0.000000 0.000000 0.000000
0.000000 0.000000 0.000000
0.000000 0.000000 0.000000
0.000000 0.000000 0.000000
0.000000 0.000000 0.000000
0.000000 0.000000 0.000000
0.000000 0.000000 0.000000
0.000000 0.000000 0.000000
0.000000 0.000000 0.000000
0.000000 0.000000 0.000000
0.000000 0.000000 0.000000
0.000000 0.000000 0.000000
0.000000 0.000000 0.000000
0.000000 0.000000 0.000000
0.000000 0.000000 0.000000
0.000000 0.000000 0.000000
0.000000 0.000000 0.000000
0.000000 0.000000 0.000000
0.000000 0.000000 0.000000
0.000000 0.000000 0.000000
0.000000 0.000000 0.000000
0.000000 0.000000 0.000000
0.000000 0.000000 0.000000
0.000000 0.000000 0.000000
0.000000 0.000000 0.000000
0.000000 0.000000 0.000000
0.000000 0.000000 0.000000
0.000000 0.000000 0.000000
0.000000 0.000000 0.000000
0.000000 0.000000 0.000000
0.000000 0.000000 0.000000
0.000000 0.000000 0.000000
0.000000 0.000000 0.000000
0.000000 0.000000 0.000000
0.000000 0.000000 0.000000
0.000000 0.000000 0.000000
0.000000 0.000000 0.000000
0.000000 0.000000 0.000000
0.000000 0.000000 0.000000
0.000000 0.000000 0.000000
0.000000 0.000000 0.000000
0.000000 0.000000 0.000000
0.000000 0.000000 0.000000
