total_Ti
1.0
6.309760 0.000000 0.000000
0.000000 9.464640 0.000000
0.000000 0.000000 18.600004
Ti
68
direct
0.125000 0.958333 0.500000 Ti
0.625000 0.958333 0.500000 Ti
0.125000 0.958333 0.661290 Ti
0.625000 0.958333 0.661290 Ti
0.125000 0.958333 0.822581 Ti
0.625000 0.958333 0.822581 Ti
0.125000 0.291667 0.500000 Ti
0.625000 0.291667 0.500000 Ti
0.125000 0.291667 0.661290 Ti
0.625000 0.291667 0.661290 Ti
0.125000 0.291667 0.822581 Ti
0.625000 0.291667 0.822581 Ti
0.125000 0.625000 0.500000 Ti
0.625000 0.625000 0.500000 Ti
0.125000 0.625000 0.661290 Ti
0.625000 0.625000 0.661290 Ti
0.125000 0.625000 0.822581 Ti
0.625000 0.625000 0.822581 Ti
0.375000 0.125000 0.580645 Ti
0.875000 0.125000 0.580645 Ti
0.375000 0.125000 0.741935 Ti
0.875000 0.125000 0.741935 Ti
0.375000 0.125000 0.903226 Ti
0.875000 0.125000 0.903226 Ti
0.375000 0.458333 0.580645 Ti
0.875000 0.458333 0.580645 Ti
0.375000 0.458333 0.741935 Ti
0.875000 0.458333 0.741935 Ti
0.375000 0.458333 0.903226 Ti
0.875000 0.458333 0.903226 Ti
0.375000 0.791667 0.580645 Ti
0.875000 0.791667 0.580645 Ti
0.375000 0.791667 0.741935 Ti
0.875000 0.791667 0.741935 Ti
0.375000 0.791667 0.903226 Ti
0.875000 0.791667 0.903226 Ti
0.125000 0.625000 0.362903 Ti
0.625000 0.625000 0.362903 Ti
0.125000 0.625000 0.120968 Ti
0.625000 0.625000 0.120968 Ti
0.125000 0.125000 0.362903 Ti
0.625000 0.125000 0.362903 Ti
0.125000 0.125000 0.120968 Ti
0.625000 0.125000 0.120968 Ti
0.125000 0.375000 0.040323 Ti
0.625000 0.375000 0.040323 Ti
0.125000 0.875000 0.040323 Ti
0.625000 0.875000 0.040323 Ti
0.125000 0.375000 0.282258 Ti
0.625000 0.375000 0.282258 Ti
0.125000 0.875000 0.282258 Ti
0.625000 0.875000 0.282258 Ti
0.375000 0.875000 0.161290 Ti
0.875000 0.875000 0.161290 Ti
0.374999 0.375000 0.161290 Ti
0.874999 0.375000 0.161290 Ti
0.375000 0.375000 0.403226 Ti
0.875000 0.375000 0.403226 Ti
0.375000 0.875000 0.403226 Ti
0.875000 0.875000 0.403226 Ti
0.375000 0.625000 0.241935 Ti
0.875000 0.625000 0.241935 Ti
0.375000 0.625000 -0.000000 Ti
0.875000 0.625000 -0.000000 Ti
0.375000 0.125000 0.241935 Ti
0.875000 0.125000 0.241935 Ti
0.375000 0.125000 -0.000000 Ti
0.875000 0.125000 -0.000000 Ti
