beta_Ti
1.0
8.805261 0.000000 0.000000
-4.402631 7.625580 0.000000
0.000000 0.000000 36.883422
Ti
36
direct
0.222214 0.944436 0.555441 Ti
0.222214 0.444436 0.555441 Ti
0.722214 0.944436 0.555441 Ti
0.722214 0.444436 0.555441 Ti
0.388880 0.277769 0.730919 Ti
0.388880 0.777769 0.730919 Ti
0.888880 0.277769 0.730919 Ti
0.888880 0.777769 0.730919 Ti
0.555547 0.111102 0.755987 Ti
0.555547 0.611102 0.755987 Ti
0.055556 0.111102 0.755987 Ti
0.055556 0.611102 0.755987 Ti
0.388880 0.277769 0.580509 Ti
0.388880 0.777769 0.580509 Ti
0.888880 0.277769 0.580509 Ti
0.888880 0.777769 0.580509 Ti
0.555547 0.111102 0.605577 Ti
0.555547 0.611102 0.605577 Ti
0.055556 0.111102 0.605577 Ti
0.055556 0.611102 0.605577 Ti
0.222214 0.944436 0.630646 Ti
0.222214 0.444436 0.630646 Ti
0.722214 0.944436 0.630646 Ti
0.722214 0.444436 0.630646 Ti
0.388880 0.277769 0.655714 Ti
0.388880 0.777769 0.655714 Ti
0.888880 0.277769 0.655714 Ti
0.888880 0.777769 0.655714 Ti
0.555547 0.111102 0.680782 Ti
0.555547 0.611102 0.680782 Ti
0.055556 0.111102 0.680782 Ti
0.055556 0.611102 0.680782 Ti
0.222214 0.944436 0.705851 Ti
0.222214 0.444436 0.705851 Ti
0.722214 0.944436 0.705851 Ti
0.722214 0.444436 0.705851 Ti
