Ti66 Sn1
1.0
6.309760 0.000000 0.000000
0.000000 9.464640 0.000000
0.000000 0.000000 18.918326
Ti Sn
66 1
Selective dynamics
direct
0.626328 0.041590 0.500017 F F F Ti
0.125032 0.041735 0.658531 F F F Ti
0.625028 0.041665 0.658595 F F F Ti
0.125013 0.041676 0.817147 F F F Ti
0.625002 0.041672 0.817159 F F F Ti
0.125174 0.376943 0.500235 F F F Ti
0.625369 0.375176 0.500050 F F F Ti
0.125077 0.375135 0.658657 F F F Ti
0.625017 0.375134 0.658669 F F F Ti
0.125011 0.375010 0.817172 F F F Ti
0.624999 0.375007 0.817178 F F F Ti
0.125040 0.708242 0.500009 F F F Ti
0.625035 0.708164 0.500088 F F F Ti
0.125051 0.708418 0.658613 F F F Ti
0.624972 0.708422 0.658641 F F F Ti
0.125007 0.708361 0.817167 F F F Ti
0.624994 0.708365 0.817173 F F F Ti
0.375475 0.208647 0.579412 F F F Ti
0.874586 0.208833 0.579570 F F F Ti
0.375017 0.208341 0.737881 F F F Ti
0.875015 0.208348 0.737902 F F F Ti
0.374992 0.208321 0.896429 F F F Ti
0.875016 0.208322 0.896431 F F F Ti
0.375302 0.541902 0.579410 F F F Ti
0.874817 0.541928 0.579430 F F F Ti
0.375025 0.541726 0.737913 F F F Ti
0.875002 0.541728 0.737919 F F F Ti
0.375000 0.541661 0.896438 F F F Ti
0.875007 0.541661 0.896438 F F F Ti
0.375109 0.875066 0.579250 F F F Ti
0.874984 0.874876 0.579355 F F F Ti
0.374983 0.875045 0.737862 F F F Ti
0.875028 0.875033 0.737879 F F F Ti
0.374990 0.875017 0.896424 F F F Ti
0.875017 0.875016 0.896426 F F F Ti
0.125114 0.624765 0.356690 F F F Ti
0.624990 0.624571 0.356648 F F F Ti
0.125021 0.624969 0.118889 F F F Ti
0.625003 0.624966 0.118878 F F F Ti
0.626010 0.124951 0.356741 F F F Ti
0.125037 0.124990 0.118931 F F F Ti
0.624998 0.124999 0.118919 F F F Ti
0.125007 0.374985 0.039635 F F F Ti
0.624995 0.374986 0.039632 F F F Ti
0.125013 0.875002 0.039621 F F F Ti
0.625001 0.875003 0.039615 F F F Ti
0.125034 0.374932 0.277513 F F F Ti
0.625059 0.374917 0.277441 F F F Ti
0.125065 0.874778 0.277415 F F F Ti
0.625084 0.874922 0.277256 F F F Ti
0.374996 0.874991 0.158522 F F F Ti
0.875043 0.874976 0.158507 F F F Ti
0.374994 0.374947 0.158563 F F F Ti
0.875031 0.374963 0.158546 F F F Ti
0.375631 0.375655 0.396417 F F F Ti
0.874455 0.375962 0.396385 F F F Ti
0.377308 0.873178 0.396072 F F F Ti
0.872421 0.872599 0.395966 F F F Ti
0.375046 0.624894 0.237771 F F F Ti
0.874999 0.624874 0.237760 F F F Ti
0.374998 0.624996 -0.000016 F F F Ti
0.875003 0.624996 -0.000016 F F F Ti
0.375011 0.124954 0.237907 F F F Ti
0.875119 0.124959 0.237827 F F F Ti
0.374999 0.125000 -0.000007 F F F Ti
0.875009 0.124999 -0.000008 F F F Ti
0.120990 0.084563 0.449805 T T T Sn

0.000000 0.000000 0.000000
0.000000 0.000000 0.000000
0.000000 0.000000 0.000000
0.000000 0.000000 0.000000
0.000000 0.000000 0.000000
0.000000 0.000000 0.000000
0.000000 0.000000 0.000000
0.000000 0.000000 0.000000
0.000000 0.000000 0.000000
0.000000 0.000000 0.000000
0.000000 0.000000 0.000000
0.000000 0.000000 0.000000
0.000000 0.000000 0.000000
0.000000 0.000000 0.000000
0.000000 0.000000 0.000000
0.000000 0.000000 0.000000
0.000000 0.000000 0.000000
0.000000 0.000000 0.000000
0.000000 0.000000 0.000000
0.000000 0.000000 0.000000
0.000000 0.000000 0.000000
0.000000 0.000000 0.000000
0.000000 0.000000 0.000000
0.000000 0.000000 0.000000
0.000000 0.000000 0.000000
0.000000 0.000000 0.000000
0.000000 0.000000 0.000000
0.000000 0.000000 0.000000
0.000000 0.000000 0.000000
0.000000 0.000000 0.000000
0.000000 0.000000 0.000000
0.000000 0.000000 0.000000
0.000000 0.000000 0.000000
0.000000 0.000000 0.000000
0.000000 0.000000 0.000000
0.000000 0.000000 0.000000
0.000000 0.000000 0.000000
0.000000 0.000000 0.000000
0.000000 0.000000 0.000000
0.000000 0.000000 0.000000
0.000000 0.000000 0.000000
0.000000 0.000000 0.000000
0.000000 0.000000 0.000000
0.000000 0.000000 0.000000
0.000000 0.000000 0.000000
0.000000 0.000000 0.000000
0.000000 0.000000 0.000000
0.000000 0.000000 0.000000
0.000000 0.000000 0.000000
0.000000 0.000000 0.000000
0.000000 0.000000 0.000000
0.000000 0.000000 0.000000
0.000000 0.000000 0.000000
0.000000 0.000000 0.000000
0.000000 0.000000 0.000000
0.000000 0.000000 0.000000
0.000000 0.000000 0.000000
0.000000 0.000000 0.000000
0.000000 0.000000 0.000000
0.000000 0.000000 0.000000
0.000000 0.000000 0.000000
0.000000 0.000000 0.000000
0.000000 0.000000 0.000000
0.000000 0.000000 0.000000
0.000000 0.000000 0.000000
0.000000 0.000000 0.000000
0.000000 0.000000 0.000000
