Ti67
1.0
6.309760 0.000000 0.000000
0.000000 9.464640 0.000000
0.000000 0.000000 18.918326
Ti
67
Selective dynamics
direct
0.123581 0.040864 0.499278 F F F Ti
0.625231 0.041463 0.499899 F F F Ti
0.626929 0.041076 0.658872 F F F Ti
0.124979 0.041654 0.817180 F F F Ti
0.625130 0.041605 0.817233 F F F Ti
0.124733 0.375199 0.499919 F F F Ti
0.624841 0.375030 0.499988 F F F Ti
0.124091 0.376140 0.658846 F F F Ti
0.625167 0.375184 0.658660 F F F Ti
0.124924 0.375083 0.817228 F F F Ti
0.625126 0.375103 0.817233 F F F Ti
0.124919 0.708190 0.499958 F F F Ti
0.625087 0.708200 0.499947 F F F Ti
0.124967 0.708341 0.658588 F F F Ti
0.625089 0.708231 0.658609 F F F Ti
0.124998 0.708351 0.817176 F F F Ti
0.625015 0.708342 0.817187 F F F Ti
0.873232 0.208638 0.579153 F F F Ti
0.375603 0.208700 0.738468 F F F Ti
0.874923 0.208421 0.737940 F F F Ti
0.375006 0.208344 0.896498 F F F Ti
0.874991 0.208337 0.896466 F F F Ti
0.374998 0.541677 0.579291 F F F Ti
0.874835 0.541778 0.579266 F F F Ti
0.375058 0.541786 0.737921 F F F Ti
0.874865 0.541796 0.737936 F F F Ti
0.375004 0.541695 0.896466 F F F Ti
0.874989 0.541691 0.896468 F F F Ti
0.375488 0.873935 0.579148 F F F Ti
0.874932 0.874846 0.579258 F F F Ti
0.375078 0.874918 0.737911 F F F Ti
0.875184 0.874937 0.737901 F F F Ti
0.374997 0.874990 0.896459 F F F Ti
0.875015 0.874990 0.896458 F F F Ti
0.125010 0.624929 0.356805 F F F Ti
0.624943 0.624935 0.356800 F F F Ti
0.125003 0.624989 0.118944 F F F Ti
0.624991 0.624990 0.118943 F F F Ti
0.124982 0.125018 0.356719 F F F Ti
0.624971 0.124999 0.356770 F F F Ti
0.125001 0.124999 0.118944 F F F Ti
0.624989 0.124999 0.118943 F F F Ti
0.124995 0.375002 0.039653 F F F Ti
0.625002 0.375004 0.039655 F F F Ti
0.124997 0.874996 0.039648 F F F Ti
0.625002 0.874994 0.039651 F F F Ti
0.124995 0.375003 0.277498 F F F Ti
0.624986 0.374998 0.277499 F F F Ti
0.124995 0.874976 0.277488 F F F Ti
0.624987 0.874983 0.277489 F F F Ti
0.375001 0.874992 0.158572 F F F Ti
0.874994 0.874992 0.158571 F F F Ti
0.375000 0.375000 0.158575 F F F Ti
0.874998 0.375001 0.158574 F F F Ti
0.374987 0.374979 0.396432 F F F Ti
0.874913 0.375014 0.396408 F F F Ti
0.375056 0.874915 0.396383 F F F Ti
0.874860 0.874879 0.396363 F F F Ti
0.374998 0.624980 0.237870 F F F Ti
0.875001 0.624983 0.237867 F F F Ti
0.374998 0.624998 0.000008 F F F Ti
0.875004 0.624998 0.000009 F F F Ti
0.375008 0.124998 0.237855 F F F Ti
0.874981 0.124999 0.237851 F F F Ti
0.374999 0.124991 0.000021 F F F Ti
0.874995 0.124997 0.000013 F F F Ti
0.281510 0.145375 0.607632 T T T Ti

0.000000 0.000000 0.000000
0.000000 0.000000 0.000000
0.000000 0.000000 0.000000
0.000000 0.000000 0.000000
0.000000 0.000000 0.000000
0.000000 0.000000 0.000000
0.000000 0.000000 0.000000
0.000000 0.000000 0.000000
0.000000 0.000000 0.000000
0.000000 0.000000 0.000000
0.000000 0.000000 0.000000
0.000000 0.000000 0.000000
0.000000 0.000000 0.000000
0.000000 0.000000 0.000000
0.000000 0.000000 0.000000
0.000000 0.000000 0.000000
0.000000 0.000000 0.000000
0.000000 0.000000 0.000000
0.000000 0.000000 0.000000
0.000000 0.000000 0.000000
0.000000 0.000000 0.000000
0.000000 0.000000 0.000000
0.000000 0.000000 0.000000
0.000000 0.000000 0.000000
0.000000 0.000000 0.000000
0.000000 0.000000 0.000000
0.000000 0.000000 0.000000
0.000000 0.000000 0.000000
0.000000 0.000000 0.000000
0.000000 0.000000 0.000000
0.000000 0.000000 0.000000
0.000000 0.000000 0.000000
0.000000 0.000000 0.000000
0.000000 0.000000 0.000000
0.000000 0.000000 0.000000
0.000000 0.000000 0.000000
0.000000 0.000000 0.000000
0.000000 0.000000 0.000000
0.000000 0.000000 0.000000
0.000000 0.000000 0.000000
0.000000 0.000000 0.000000
0.000000 0.000000 0.000000
0.000000 0.000000 0.000000
0.000000 0.000000 0.000000
0.000000 0.000000 0.000000
0.000000 0.000000 0.000000
0.000000 0.000000 0.000000
0.000000 0.000000 0.000000
0.000000 0.000000 0.000000
0.000000 0.000000 0.000000
0.000000 0.000000 0.000000
0.000000 0.000000 0.000000
0.000000 0.000000 0.000000
0.000000 0.000000 0.000000
0.000000 0.000000 0.000000
0.000000 0.000000 0.000000
0.000000 0.000000 0.000000
0.000000 0.000000 0.000000
0.000000 0.000000 0.000000
0.000000 0.000000 0.000000
0.000000 0.000000 0.000000
0.000000 0.000000 0.000000
0.000000 0.000000 0.000000
0.000000 0.000000 0.000000
0.000000 0.000000 0.000000
0.000000 0.000000 0.000000
0.000000 0.000000 0.000000
