Ti96 Al1
1.0
9.513020 0.000000 0.000000
0.000000 9.350860 0.000000
0.000000 0.000000 18.547230
Ti Al
96 1
Selective dynamics
direct
0.151232 0.384517 0.405195 T T T Ti
0.653177 0.334221 0.418005 T T T Ti
0.126863 0.854139 0.411100 T T T Ti
0.664569 0.865539 0.400634 T T T Ti
0.145535 0.362484 0.240231 T T T Ti
0.659320 0.370454 0.234746 T T T Ti
0.167984 0.867500 0.235874 T T T Ti
0.676318 0.902819 0.233425 T T T Ti
0.166702 0.375101 0.077323 F F F Ti
0.666717 0.374993 0.077351 F F F Ti
0.166684 0.875052 0.077476 F F F Ti
0.666519 0.874865 0.077538 F F F Ti
0.406312 0.375232 0.322523 T T T Ti
0.895299 0.373172 0.327796 T T T Ti
0.356904 0.938595 0.342577 T T T Ti
0.915610 0.879971 0.312820 T T T Ti
0.416866 0.375096 0.154894 F F F Ti
0.916864 0.374759 0.154807 F F F Ti
0.416422 0.875092 0.155463 F F F Ti
0.916773 0.874968 0.154834 F F F Ti
0.416688 0.375060 -0.000169 F F F Ti
0.916645 0.374999 -0.000242 F F F Ti
0.416658 0.874958 -0.000013 F F F Ti
0.916641 0.874965 -0.000189 F F F Ti
0.104701 0.126830 0.327794 T T T Ti
0.593688 0.124770 0.322522 T T T Ti
0.084390 0.620032 0.312819 T T T Ti
0.643096 0.561407 0.342577 T T T Ti
0.083133 0.125278 0.154803 F F F Ti
0.583133 0.124934 0.154894 F F F Ti
0.083227 0.625065 0.154834 F F F Ti
0.583580 0.624910 0.155464 F F F Ti
0.083356 0.125010 -0.000243 F F F Ti
0.583314 0.124954 -0.000169 F F F Ti
0.083360 0.625041 -0.000188 F F F Ti
0.583344 0.625035 -0.000014 F F F Ti
0.346822 0.165779 0.418005 T T T Ti
0.848767 0.115483 0.405195 T T T Ti
0.335430 0.634462 0.400634 T T T Ti
0.873136 0.645861 0.411100 T T T Ti
0.340679 0.129551 0.234745 T T T Ti
0.854464 0.137523 0.240231 T T T Ti
0.323680 0.597187 0.233426 T T T Ti
0.832015 0.632508 0.235875 T T T Ti
0.333283 0.125029 0.077351 F F F Ti
0.833297 0.124923 0.077324 F F F Ti
0.333480 0.625150 0.077536 F F F Ti
0.833315 0.624966 0.077476 F F F Ti
0.375074 0.375122 0.823746 F F F Ti
0.874908 0.374966 0.823737 F F F Ti
0.375070 0.874966 0.823623 F F F Ti
0.874880 0.874959 0.823780 F F F Ti
0.125089 0.125011 0.823735 F F F Ti
0.624937 0.124874 0.823747 F F F Ti
0.125125 0.625028 0.823781 F F F Ti
0.624931 0.625019 0.823623 F F F Ti
0.125058 0.375088 0.910016 F F F Ti
0.624977 0.375117 0.910067 F F F Ti
0.125123 0.874956 0.910066 F F F Ti
0.624896 0.874872 0.910153 F F F Ti
0.375028 0.124872 0.910071 F F F Ti
0.874949 0.124906 0.910016 F F F Ti
0.375106 0.625102 0.910152 F F F Ti
0.874882 0.625026 0.910068 F F F Ti
0.394709 0.385247 0.658189 T T T Ti
0.896339 0.376671 0.651219 T T T Ti
0.396690 0.887896 0.648754 T T T Ti
0.891176 0.884789 0.660522 T T T Ti
0.103660 0.123325 0.651219 T T T Ti
0.605289 0.114747 0.658190 T T T Ti
0.108821 0.615204 0.660522 T T T Ti
0.603310 0.612100 0.648754 T T T Ti
0.154640 0.369209 0.571685 T T T Ti
0.642961 0.351275 0.574395 T T T Ti
0.141204 0.865653 0.581513 T T T Ti
0.654503 0.864766 0.577035 T T T Ti
0.357038 0.148723 0.574395 T T T Ti
0.845359 0.130789 0.571684 T T T Ti
0.345497 0.635232 0.577034 T T T Ti
0.858795 0.634345 0.581514 T T T Ti
0.407337 0.408948 0.489399 T T T Ti
0.904153 0.375461 0.488697 T T T Ti
0.368490 0.898614 0.493557 T T T Ti
0.903784 0.884886 0.497902 T T T Ti
0.095847 0.124539 0.488697 T T T Ti
0.592662 0.091052 0.489399 T T T Ti
0.096215 0.615113 0.497902 T T T Ti
0.631510 0.601386 0.493557 T T T Ti
0.125063 0.875289 0.737636 F F F Ti
0.624640 0.874828 0.737482 F F F Ti
0.375354 0.625153 0.737474 F F F Ti
0.874926 0.624680 0.737642 F F F Ti
0.124805 0.374831 0.737570 F F F Ti
0.625089 0.374887 0.737540 F F F Ti
0.374903 0.125093 0.737540 F F F Ti
0.875188 0.125148 0.737566 F F F Ti
0.500000 0.750001 0.327858 T T T Al

0.000000 0.000000 0.000000
0.000000 0.000000 0.000000
0.000000 0.000000 0.000000
0.000000 0.000000 0.000000
0.000000 0.000000 0.000000
0.000000 0.000000 0.000000
0.000000 0.000000 0.000000
0.000000 0.000000 0.000000
0.000000 0.000000 0.000000
0.000000 0.000000 0.000000
0.000000 0.000000 0.000000
0.000000 0.000000 0.000000
0.000000 0.000000 0.000000
0.000000 0.000000 0.000000
0.000000 0.000000 0.000000
0.000000 0.000000 0.000000
0.000000 0.000000 0.000000
0.000000 0.000000 0.000000
0.000000 0.000000 0.000000
0.000000 0.000000 0.000000
0.000000 0.000000 0.000000
0.000000 0.000000 0.000000
0.000000 0.000000 0.000000
0.000000 0.000000 0.000000
0.000000 0.000000 0.000000
0.000000 0.000000 0.000000
0.000000 0.000000 0.000000
0.000000 0.000000 0.000000
0.000000 0.000000 0.000000
0.000000 0.000000 0.000000
0.000000 0.000000 0.000000
0.000000 0.000000 0.000000
0.000000 0.000000 0.000000
0.000000 0.000000 0.000000
0.000000 0.000000 0.000000
0.000000 0.000000 0.000000
0.000000 0.000000 0.000000
0.000000 0.000000 0.000000
0.000000 0.000000 0.000000
0.000000 0.000000 0.000000
0.000000 0.000000 0.000000
0.000000 0.000000 0.000000
0.000000 0.000000 0.000000
0.000000 0.000000 0.000000
0.000000 0.000000 0.000000
0.000000 0.000000 0.000000
0.000000 0.000000 0.000000
0.000000 0.000000 0.000000
0.000000 0.000000 0.000000
0.000000 0.000000 0.000000
0.000000 0.000000 0.000000
0.000000 0.000000 0.000000
0.000000 0.000000 0.000000
0.000000 0.000000 0.000000
0.000000 0.000000 0.000000
0.000000 0.000000 0.000000
0.000000 0.000000 0.000000
0.000000 0.000000 0.000000
0.000000 0.000000 0.000000
0.000000 0.000000 0.000000
0.000000 0.000000 0.000000
0.000000 0.000000 0.000000
0.000000 0.000000 0.000000
0.000000 0.000000 0.000000
0.000000 0.000000 0.000000
0.000000 0.000000 0.000000
0.000000 0.000000 0.000000
0.000000 0.000000 0.000000
0.000000 0.000000 0.000000
0.000000 0.000000 0.000000
0.000000 0.000000 0.000000
0.000000 0.000000 0.000000
0.000000 0.000000 0.000000
0.000000 0.000000 0.000000
0.000000 0.000000 0.000000
0.000000 0.000000 0.000000
0.000000 0.000000 0.000000
0.000000 0.000000 0.000000
0.000000 0.000000 0.000000
0.000000 0.000000 0.000000
0.000000 0.000000 0.000000
0.000000 0.000000 0.000000
0.000000 0.000000 0.000000
0.000000 0.000000 0.000000
0.000000 0.000000 0.000000
0.000000 0.000000 0.000000
0.000000 0.000000 0.000000
0.000000 0.000000 0.000000
0.000000 0.000000 0.000000
0.000000 0.000000 0.000000
0.000000 0.000000 0.000000
0.000000 0.000000 0.000000
0.000000 0.000000 0.000000
0.000000 0.000000 0.000000
0.000000 0.000000 0.000000
0.000000 0.000000 0.000000
0.000000 0.000000 0.000000
