Cr16 Fe36 N16                           
   1.0000000000000000     
    -0.0000000000000006   -3.3043620757221830   -0.0000000000000002
   -11.3095577146104240    0.0000000000000000   -0.0000000000000007
     0.0000000000000000    0.0000000000000000  -25.3423172938870103
   Cr   Fe   N 
    16    36    16
Selective dynamics
Direct
 -0.0143877138849837  0.0121373181896445  0.7763970891450453   T   T   T
 -0.0026480545751942  0.7707638402117857  0.7821309292846924   T   T   T
  0.4968721927023386  0.8590104393777122  0.8501522328268015   T   T   T
  0.5007709494450574  0.6076545774578510  0.8430261678823459   T   T   T
  0.0000000000000000  0.0000000000000000  0.9220699999999979   F   F   F
  0.0000000000000000  0.7500000000000000  0.9220699999999979   F   F   F
  0.5000000000000000  0.8750000000000000  0.0000000000000000   F   F   F
  0.5000000000000000  0.6250000000000000  0.0000000000000000   F   F   F
  0.0050463940077036  0.4799354084403842  0.7757647859235527   T   T   T
 -0.0027982369847574  0.2340223140754296  0.7698064516059754   T   T   T
  0.5012814619195018  0.3821322339745875  0.8449535587453753   T   T   T
  0.4929379517949447  0.1392735843991635  0.8482744564420819   T   T   T
  0.0000000000000000  0.5000000000000000  0.9220699999999979   F   F   F
  0.0000000000000000  0.2500000000000000  0.9220699999999979   F   F   F
  0.5000000000000000  0.3750000000000000  0.0000000000000000   F   F   F
  0.5000000000000000  0.1250000000000000  0.0000000000000000   F   F   F
  0.0066800000000029  0.2815599999999989  0.3718900000000005   F   F   F
  0.5066800000000029  0.4456899999999990  0.3847999999999985   F   F   F
  0.5066800000000029  0.2608400000000017  0.4243200000000016   F   F   F
  0.0066800000000029  0.4249799999999979  0.4372299999999996   F   F   F
  0.0066800000000029  0.6098300000000023  0.3977199999999996   F   F   F
  0.5066800000000029  0.7739600000000024  0.4106299999999976   F   F   F
  0.5066800000000029  0.5891099999999980  0.4501500000000007   F   F   F
  0.0066800000000029  0.7532500000000013  0.4630599999999987   F   F   F
  0.0066800000000029  0.9380999999999986  0.4235499999999988   F   F   F
  0.5066800000000029  0.1022299999999987  0.4364599999999967   F   F   F
  0.5066800000000029  0.9173800000000014  0.4759799999999998   F   F   F
  0.0066800000000029  0.0815199999999976  0.4888899999999978   F   F   F
  0.0066800000000029  0.2401300000000006  0.4767399999999995   F   F   F
  0.5066800000000029  0.4042699999999968  0.4896600000000007   F   F   F
  0.5067791102821045  0.2393550844134663  0.5508531273959445   T   T   T
  0.0064471680393237  0.3832981658271651  0.5599877140060544   T   T   T
  0.0066800000000029  0.5683999999999969  0.5025699999999986   F   F   F
  0.5066800000000029  0.7325400000000002  0.5154899999999998   F   F   F
  0.5067776681053029  0.5366650401051711  0.5712942392734915   T   T   T
  0.0057456512490098  0.6939658050578702  0.5825650934868797   T   T   T
  0.0066141146158627  0.8859334363238512  0.5403768802654831   T   T   T
  0.5075889633469958  0.0362735308915689  0.5540070050156763   T   T   T
  0.5060060912592776  0.8388142485795340  0.5954678959934107   T   T   T
  0.0084999872057903  0.0407022501942546  0.6088032799945611   T   T   T
  0.0071547278696346  0.2189750786240055  0.6191091233395268   T   T   T
  0.5077759248554571  0.3496908853042609  0.6296797653085016   T   T   T
  0.5071811200646975  0.1786450638920185  0.6895000054718630   T   T   T
  0.0084673795675132  0.3429226154840730  0.6931689993970198   T   T   T
  0.0068382730374842  0.5132219630892377  0.6358448600256503   T   T   T
  0.5058351090670211  0.6637525858150694  0.6446577640275415   T   T   T
  0.5065873266115436  0.4904367659787719  0.7075326804178637   T   T   T
  0.0061771787259513  0.6450825800945870  0.7142155579190343   T   T   T
  0.0060608765250027  0.8216319046069093  0.6582191424520271   T   T   T
  0.5084539773153098 -0.0289153406735165  0.6602456073481259   T   T   T
  0.5041464389700975  0.8096433480673132  0.7152277510570815   T   T   T
  0.0083658088653932  0.0491278677486810  0.7038904069969284   T   T   T
  0.5091321853792251  0.8806752708421106  0.7771208995028644   T   T   T
  0.5028279587478345  0.6256206069708037  0.7592930945869441   T   T   T
  0.0081788985773233 -0.0023914579288998  0.8502173387830567   T   T   T
  0.0013710044401585  0.7393033243354842  0.8498425643308597   T   T   T
  0.5000000000000000  0.8750000000000000  0.9220699999999979   F   F   F
  0.5000000000000000  0.6250000000000000  0.9220699999999979   F   F   F
  0.0000000000000000  0.0000000000000000  0.0000000000000000   F   F   F
  0.0000000000000000  0.7500000000000000  0.0000000000000000   F   F   F
  0.4982671189609633  0.3757946106320681  0.7636700088525499   T   T   T
  0.4998156246435745  0.1302037391940221  0.7601930729820343   T   T   T
 -0.0004252453517469  0.5004973709983200  0.8476332935945479   T   T   T
  0.0020189710631896  0.2548148948726218  0.8453624468173437   T   T   T
  0.5000000000000000  0.3750000000000000  0.9220699999999979   F   F   F
  0.5000000000000000  0.1250000000000000  0.9220699999999979   F   F   F
  0.0000000000000000  0.5000000000000000  0.0000000000000000   F   F   F
  0.0000000000000000  0.2500000000000000  0.0000000000000000   F   F   F

  0.00000000E+00  0.00000000E+00 -0.00000000E+00
  0.00000000E+00  0.00000000E+00 -0.00000000E+00
  0.00000000E+00  0.00000000E+00 -0.00000000E+00
  0.00000000E+00  0.00000000E+00 -0.00000000E+00
  0.00000000E+00  0.00000000E+00 -0.00000000E+00
  0.00000000E+00  0.00000000E+00 -0.00000000E+00
  0.00000000E+00  0.00000000E+00 -0.00000000E+00
  0.00000000E+00  0.00000000E+00 -0.00000000E+00
  0.00000000E+00  0.00000000E+00 -0.00000000E+00
  0.00000000E+00  0.00000000E+00 -0.00000000E+00
  0.00000000E+00  0.00000000E+00 -0.00000000E+00
  0.00000000E+00  0.00000000E+00 -0.00000000E+00
  0.00000000E+00  0.00000000E+00 -0.00000000E+00
  0.00000000E+00  0.00000000E+00 -0.00000000E+00
  0.00000000E+00  0.00000000E+00 -0.00000000E+00
  0.00000000E+00  0.00000000E+00 -0.00000000E+00
  0.00000000E+00  0.00000000E+00 -0.00000000E+00
  0.00000000E+00  0.00000000E+00 -0.00000000E+00
  0.00000000E+00  0.00000000E+00 -0.00000000E+00
  0.00000000E+00  0.00000000E+00 -0.00000000E+00
  0.00000000E+00  0.00000000E+00 -0.00000000E+00
  0.00000000E+00  0.00000000E+00 -0.00000000E+00
  0.00000000E+00  0.00000000E+00 -0.00000000E+00
  0.00000000E+00  0.00000000E+00 -0.00000000E+00
  0.00000000E+00  0.00000000E+00 -0.00000000E+00
  0.00000000E+00  0.00000000E+00 -0.00000000E+00
  0.00000000E+00  0.00000000E+00 -0.00000000E+00
  0.00000000E+00  0.00000000E+00 -0.00000000E+00
  0.00000000E+00  0.00000000E+00 -0.00000000E+00
  0.00000000E+00  0.00000000E+00 -0.00000000E+00
  0.00000000E+00  0.00000000E+00 -0.00000000E+00
  0.00000000E+00  0.00000000E+00 -0.00000000E+00
  0.00000000E+00  0.00000000E+00 -0.00000000E+00
  0.00000000E+00  0.00000000E+00 -0.00000000E+00
  0.00000000E+00  0.00000000E+00 -0.00000000E+00
  0.00000000E+00  0.00000000E+00 -0.00000000E+00
  0.00000000E+00  0.00000000E+00 -0.00000000E+00
  0.00000000E+00  0.00000000E+00 -0.00000000E+00
  0.00000000E+00  0.00000000E+00 -0.00000000E+00
  0.00000000E+00  0.00000000E+00 -0.00000000E+00
  0.00000000E+00  0.00000000E+00 -0.00000000E+00
  0.00000000E+00  0.00000000E+00 -0.00000000E+00
  0.00000000E+00  0.00000000E+00 -0.00000000E+00
  0.00000000E+00  0.00000000E+00 -0.00000000E+00
  0.00000000E+00  0.00000000E+00 -0.00000000E+00
  0.00000000E+00  0.00000000E+00 -0.00000000E+00
  0.00000000E+00  0.00000000E+00 -0.00000000E+00
  0.00000000E+00  0.00000000E+00 -0.00000000E+00
  0.00000000E+00  0.00000000E+00 -0.00000000E+00
  0.00000000E+00  0.00000000E+00 -0.00000000E+00
  0.00000000E+00  0.00000000E+00 -0.00000000E+00
  0.00000000E+00  0.00000000E+00 -0.00000000E+00
  0.00000000E+00  0.00000000E+00 -0.00000000E+00
  0.00000000E+00  0.00000000E+00 -0.00000000E+00
  0.00000000E+00  0.00000000E+00 -0.00000000E+00
  0.00000000E+00  0.00000000E+00 -0.00000000E+00
  0.00000000E+00  0.00000000E+00 -0.00000000E+00
  0.00000000E+00  0.00000000E+00 -0.00000000E+00
  0.00000000E+00  0.00000000E+00 -0.00000000E+00
  0.00000000E+00  0.00000000E+00 -0.00000000E+00
  0.00000000E+00  0.00000000E+00 -0.00000000E+00
  0.00000000E+00  0.00000000E+00 -0.00000000E+00
  0.00000000E+00  0.00000000E+00 -0.00000000E+00
  0.00000000E+00  0.00000000E+00 -0.00000000E+00
  0.00000000E+00  0.00000000E+00 -0.00000000E+00
  0.00000000E+00  0.00000000E+00 -0.00000000E+00
  0.00000000E+00  0.00000000E+00 -0.00000000E+00
  0.00000000E+00  0.00000000E+00 -0.00000000E+00
