Cr16 Fe36 N16                           
   1.0000000000000000     
    -0.0000000000000006   -3.5061499999999999   -0.0000000000000002
   -12.0001999999999995    0.0000000000000000   -0.0000000000000007
     0.0000000000000000    0.0000000000000000  -26.8899000000000008
   Cr   Fe   N 
    16    36    16
Selective dynamics
Direct
  0.0000000000000000  0.0000000000000000  0.7662199999999970   T   T   T
  0.0000000000000000  0.7500000000000000  0.7662199999999970   T   T   T
  0.5000000000000000  0.8750000000000000  0.8441499999999991   T   T   T
  0.5000000000000000  0.6250000000000000  0.8441499999999991   T   T   T
  0.0000000000000000  0.0000000000000000  0.9220699999999979   F   F   F
  0.0000000000000000  0.7500000000000000  0.9220699999999979   F   F   F
  0.5000000000000000  0.8750000000000000  0.0000000000000000   F   F   F
  0.5000000000000000  0.6250000000000000  0.0000000000000000   F   F   F
  0.0000000000000000  0.5000000000000000  0.7662199999999970   T   T   T
  0.0000000000000000  0.2500000000000000  0.7662199999999970   T   T   T
  0.5000000000000000  0.3750000000000000  0.8441499999999991   T   T   T
  0.5000000000000000  0.1250000000000000  0.8441499999999991   T   T   T
  0.0000000000000000  0.5000000000000000  0.9220699999999979   F   F   F
  0.0000000000000000  0.2500000000000000  0.9220699999999979   F   F   F
  0.5000000000000000  0.3750000000000000  0.0000000000000000   F   F   F
  0.5000000000000000  0.1250000000000000  0.0000000000000000   F   F   F
  0.0066800000000029  0.2815599999999989  0.3718900000000005   F   F   F
  0.5066800000000029  0.4456899999999990  0.3847999999999985   F   F   F
  0.5066800000000029  0.2608400000000017  0.4243200000000016   F   F   F
  0.0066800000000029  0.4249799999999979  0.4372299999999996   F   F   F
  0.0066800000000029  0.6098300000000023  0.3977199999999996   F   F   F
  0.5066800000000029  0.7739600000000024  0.4106299999999976   F   F   F
  0.5066800000000029  0.5891099999999980  0.4501500000000007   F   F   F
  0.0066800000000029  0.7532500000000013  0.4630599999999987   F   F   F
  0.0066800000000029  0.9380999999999986  0.4235499999999988   F   F   F
  0.5066800000000029  0.1022299999999987  0.4364599999999967   F   F   F
  0.5066800000000029  0.9173800000000014  0.4759799999999998   F   F   F
  0.0066800000000029  0.0815199999999976  0.4888899999999978   F   F   F
  0.0066800000000029  0.2401300000000006  0.4767399999999995   F   F   F
  0.5066800000000029  0.4042699999999968  0.4896600000000007   F   F   F
  0.5066800000000029  0.2194199999999995  0.5291700000000006   T   T   T
  0.0066800000000029  0.3835499999999996  0.5420900000000017   T   T   T
  0.0066800000000029  0.5683999999999969  0.5025699999999986   F   F   F
  0.5066800000000029  0.7325400000000002  0.5154899999999998   F   F   F
  0.5066800000000029  0.5476900000000029  0.5549999999999997   T   T   T
  0.0066800000000029  0.7118200000000030  0.5679200000000009   T   T   T
  0.0066800000000029  0.8966700000000003  0.5283999999999978   T   T   T
  0.5066800000000029  0.0608000000000004  0.5413199999999989   T   T   T
  0.5066800000000029  0.8759599999999992  0.5808299999999988   T   T   T
  0.0066800000000029  0.0400899999999993  0.5937500000000000   T   T   T
  0.0066800000000029  0.1987000000000023  0.5816000000000017   T   T   T
  0.5066800000000029  0.3628399999999985  0.5945099999999996   T   T   T
  0.5066800000000029  0.1779900000000012  0.6340300000000028   T   T   T
  0.0066800000000029  0.3421200000000013  0.6469400000000007   T   T   T
  0.0066800000000029  0.5269699999999986  0.6074300000000008   T   T   T
  0.5066800000000029  0.6911100000000019  0.6203399999999988   T   T   T
  0.5066800000000029  0.5062599999999975  0.6598600000000019   T   T   T
  0.0066800000000029  0.6703899999999976  0.6727699999999999   T   T   T
  0.0066800000000029  0.8552400000000020  0.6332599999999999   T   T   T
  0.5066800000000029  0.0193799999999982  0.6461699999999979   T   T   T
  0.5066800000000029  0.8345300000000009  0.6856900000000010   T   T   T
  0.0066800000000029  0.9986600000000010  0.6985999999999990   T   T   T
  0.5000000000000000  0.8750000000000000  0.7662199999999970   T   T   T
  0.5000000000000000  0.6250000000000000  0.7662199999999970   T   T   T
  0.0000000000000000  0.0000000000000000  0.8441499999999991   T   T   T
  0.0000000000000000  0.7500000000000000  0.8441499999999991   T   T   T
  0.5000000000000000  0.8750000000000000  0.9220699999999979   F   F   F
  0.5000000000000000  0.6250000000000000  0.9220699999999979   F   F   F
  0.0000000000000000  0.0000000000000000  0.0000000000000000   F   F   F
  0.0000000000000000  0.7500000000000000  0.0000000000000000   F   F   F
  0.5000000000000000  0.3750000000000000  0.7662199999999970   T   T   T
  0.5000000000000000  0.1250000000000000  0.7662199999999970   T   T   T
  0.0000000000000000  0.5000000000000000  0.8441499999999991   T   T   T
  0.0000000000000000  0.2500000000000000  0.8441499999999991   T   T   T
  0.5000000000000000  0.3750000000000000  0.9220699999999979   F   F   F
  0.5000000000000000  0.1250000000000000  0.9220699999999979   F   F   F
  0.0000000000000000  0.5000000000000000  0.0000000000000000   F   F   F
  0.0000000000000000  0.2500000000000000  0.0000000000000000   F   F   F

  0.00000000E+00  0.00000000E+00 -0.00000000E+00
  0.00000000E+00  0.00000000E+00 -0.00000000E+00
  0.00000000E+00  0.00000000E+00 -0.00000000E+00
  0.00000000E+00  0.00000000E+00 -0.00000000E+00
  0.00000000E+00  0.00000000E+00 -0.00000000E+00
  0.00000000E+00  0.00000000E+00 -0.00000000E+00
  0.00000000E+00  0.00000000E+00 -0.00000000E+00
  0.00000000E+00  0.00000000E+00 -0.00000000E+00
  0.00000000E+00  0.00000000E+00 -0.00000000E+00
  0.00000000E+00  0.00000000E+00 -0.00000000E+00
  0.00000000E+00  0.00000000E+00 -0.00000000E+00
  0.00000000E+00  0.00000000E+00 -0.00000000E+00
  0.00000000E+00  0.00000000E+00 -0.00000000E+00
  0.00000000E+00  0.00000000E+00 -0.00000000E+00
  0.00000000E+00  0.00000000E+00 -0.00000000E+00
  0.00000000E+00  0.00000000E+00 -0.00000000E+00
  0.00000000E+00  0.00000000E+00 -0.00000000E+00
  0.00000000E+00  0.00000000E+00 -0.00000000E+00
  0.00000000E+00  0.00000000E+00 -0.00000000E+00
  0.00000000E+00  0.00000000E+00 -0.00000000E+00
  0.00000000E+00  0.00000000E+00 -0.00000000E+00
  0.00000000E+00  0.00000000E+00 -0.00000000E+00
  0.00000000E+00  0.00000000E+00 -0.00000000E+00
  0.00000000E+00  0.00000000E+00 -0.00000000E+00
  0.00000000E+00  0.00000000E+00 -0.00000000E+00
  0.00000000E+00  0.00000000E+00 -0.00000000E+00
  0.00000000E+00  0.00000000E+00 -0.00000000E+00
  0.00000000E+00  0.00000000E+00 -0.00000000E+00
  0.00000000E+00  0.00000000E+00 -0.00000000E+00
  0.00000000E+00  0.00000000E+00 -0.00000000E+00
  0.00000000E+00  0.00000000E+00 -0.00000000E+00
  0.00000000E+00  0.00000000E+00 -0.00000000E+00
  0.00000000E+00  0.00000000E+00 -0.00000000E+00
  0.00000000E+00  0.00000000E+00 -0.00000000E+00
  0.00000000E+00  0.00000000E+00 -0.00000000E+00
  0.00000000E+00  0.00000000E+00 -0.00000000E+00
  0.00000000E+00  0.00000000E+00 -0.00000000E+00
  0.00000000E+00  0.00000000E+00 -0.00000000E+00
  0.00000000E+00  0.00000000E+00 -0.00000000E+00
  0.00000000E+00  0.00000000E+00 -0.00000000E+00
  0.00000000E+00  0.00000000E+00 -0.00000000E+00
  0.00000000E+00  0.00000000E+00 -0.00000000E+00
  0.00000000E+00  0.00000000E+00 -0.00000000E+00
  0.00000000E+00  0.00000000E+00 -0.00000000E+00
  0.00000000E+00  0.00000000E+00 -0.00000000E+00
  0.00000000E+00  0.00000000E+00 -0.00000000E+00
  0.00000000E+00  0.00000000E+00 -0.00000000E+00
  0.00000000E+00  0.00000000E+00 -0.00000000E+00
  0.00000000E+00  0.00000000E+00 -0.00000000E+00
  0.00000000E+00  0.00000000E+00 -0.00000000E+00
  0.00000000E+00  0.00000000E+00 -0.00000000E+00
  0.00000000E+00  0.00000000E+00 -0.00000000E+00
  0.00000000E+00  0.00000000E+00 -0.00000000E+00
  0.00000000E+00  0.00000000E+00 -0.00000000E+00
  0.00000000E+00  0.00000000E+00 -0.00000000E+00
  0.00000000E+00  0.00000000E+00 -0.00000000E+00
  0.00000000E+00  0.00000000E+00 -0.00000000E+00
  0.00000000E+00  0.00000000E+00 -0.00000000E+00
  0.00000000E+00  0.00000000E+00 -0.00000000E+00
  0.00000000E+00  0.00000000E+00 -0.00000000E+00
  0.00000000E+00  0.00000000E+00 -0.00000000E+00
  0.00000000E+00  0.00000000E+00 -0.00000000E+00
  0.00000000E+00  0.00000000E+00 -0.00000000E+00
  0.00000000E+00  0.00000000E+00 -0.00000000E+00
  0.00000000E+00  0.00000000E+00 -0.00000000E+00
  0.00000000E+00  0.00000000E+00 -0.00000000E+00
  0.00000000E+00  0.00000000E+00 -0.00000000E+00
  0.00000000E+00  0.00000000E+00 -0.00000000E+00
