DeviceStudio auto-generated KPOINTS file
 0
Monkhorst-pack
 8 8 1 
 0 0 0