total_structure
1.0
   2.9630000000000001    0.0000000000000000    0.0000000000000002
   0.0000000000000025   15.3989999999999991    0.0000000000000009
   0.0000000000000000    0.0000000000000000   48.5220000000000056
Cr Fe N
36 52 36
Selective dynamics
direct
   0.3179800000000000    0.8541699999999999    0.1825254523721198 T T T Cr
   0.3171400000000000    0.9636600000000000    0.2327500927414368 T T T Cr
   0.8244300000000000    0.7978400000000000    0.2323791269939408 T T T Cr
   0.3310200000000000    0.7398700000000000    0.2818927496805572 T T T Cr
   0.8235799999999999    0.9073299999999999    0.2826037673632579 T T T Cr
   0.3327500000000000    0.5208500000000000    0.1825254523721198 T T T Cr
   0.3319100000000000    0.6303400000000000    0.2327500927414368 T T T Cr
   0.8252700000000001    0.6883500000000000    0.1821647912287210 T T T Cr
   0.8391900000000002    0.4645200000000000    0.2323791269939408 T T T Cr
   0.3457900000000000    0.4065500000000000    0.2818927496805572 T T T Cr
   0.8383500000000000    0.5740100000000000    0.2826037673632579 T T T Cr
   0.3475200000000000    0.1875300000000000    0.1825254523721198 T T T Cr
   0.3466800000000000    0.2970200000000000    0.2327500927414368 T T T Cr
   0.8400400000000001    0.3550300000000000    0.1821544866246239 T T T Cr
   0.8539600000000001    0.1311900000000000    0.2323791269939408 T T T Cr
   0.3605600000000000    0.0732200000000000    0.2818927496805572 T T T Cr
   0.8531200000000000    0.2406800000000000    0.2826037673632579 T T T Cr
   0.3190500000000000    0.8541799999999999    0.0329232100902683 F F F Cr
   0.3182000000000000    0.9636700000000000    0.0831478504595853 F F F Cr
   0.8254899999999999    0.7978400000000000    0.0827768847120893 F F F Cr
   0.3320900000000001    0.7398700000000000    0.1322905073987057 F F F Cr
   0.8246500000000000    0.9073299999999999    0.1330015250814063 F F F Cr
   0.3338200000000001    0.5208600000000000    0.0329232100902683 F F F Cr
   0.3329700000000000    0.6303500000000000    0.0831478504595853 F F F Cr
   0.8263400000000001    0.6883500000000000    0.0325625489468695 F F F Cr
   0.8402600000000001    0.4645200000000000    0.0827768847120893 F F F Cr
   0.3468600000000001    0.4065500000000000    0.1322905073987057 F F F Cr
   0.8394100000000000    0.5740100000000000    0.1330015250814063 F F F Cr
   0.3485900000000000    0.1875400000000000    0.0329232100902683 F F F Cr
   0.3477400000000000    0.2970300000000000    0.0831478504595853 F F F Cr
   0.8411000000000000    0.3550300000000000    0.0325522443427723 F F F Cr
   0.8550300000000001    0.1312000000000000    0.0827768847120893 F F F Cr
   0.3616200000000001    0.0732300000000000    0.1322905073987057 F F F Cr
   0.8541799999999999    0.2406900000000000    0.1330015250814063 F F F Cr
   0.8400400000000001    0.0233600000000000    0.1821544866246239 T T T Cr
   0.8411000000000001    0.0233700000000000    0.0325522443427723 F F F Cr
   0.3530400000000001    0.0451600000000000    0.3469251061374222 T T T Fe
   0.3478800000000001    0.1587300000000000    0.3952536993528709 T T T Fe
   0.3467900000000000    0.1101100000000000    0.4774329170273277 F F F Fe
   0.3427100000000000    0.2723000000000000    0.4435925971724166 F F F Fe
   0.3457200000000001    0.0614800000000000    0.5596121347017847 F F F Fe
   0.3416300000000000    0.2236700000000000    0.5257718148468735 F F F Fe
   0.3375500000000000    0.3858699999999999    0.4919211903878652 F F F Fe
   0.3489500000000000    0.2073600000000000    0.3130744816784139 T T T Fe
   0.3437800000000000    0.3209400000000000    0.3614133794979597 T T T Fe
   0.3396899999999999    0.4831299999999999    0.3275730596430484 T T T Fe
   0.3386200000000000    0.4344999999999999    0.4097419727134083 T T T Fe
   0.3345300000000000    0.5967000000000000    0.3759016528584971 T T T Fe
   0.3304300000000001    0.7588900000000000    0.3420613330035859 T T T Fe
   0.3334500000000000    0.5480600000000000    0.4580808705329541 F F F Fe
   0.3293600000000000    0.7102600000000000    0.4242405506780429 T T T Fe
   0.3252700000000000    0.8724700000000000    0.3903899262190346 T T T Fe
   0.3405600000000000    0.1750400000000000    0.6079407279172334 F F F Fe
   0.3364600000000000    0.3372400000000000    0.5741004080623222 F F F Fe
   0.3323800000000000    0.4994300000000000    0.5402600882074110 F F F Fe
   0.3272200000000001    0.6130100000000001    0.5885886814228597 F F F Fe
   0.3282900000000001    0.6616400000000000    0.5064094637484028 F F F Fe
   0.3242000000000000    0.8238400000000000    0.4725691438934915 F F F Fe
   0.3201000000000000    0.9860300000000000    0.4387288240385804 F F F Fe
   0.3231200000000000    0.7752000000000000    0.5547483615679485 F F F Fe
   0.3190300000000000    0.9374000000000000    0.5209080417130374 F F F Fe
   0.3179600000000001    0.8887699999999999    0.6030769547833971 F F F Fe
   0.8304500000000001    0.1350900000000000    0.4363999835126334 F F F Fe
   0.8293799999999999    0.0864600000000000    0.5185792011870903 F F F Fe
   0.8252900000000000    0.2486500000000000    0.4847388813321792 F F F Fe
   0.8366899999999999    0.0701500000000000    0.3058921726227278 T T T Fe
   0.8315300000000000    0.1837200000000000    0.3542207658381764 T T T Fe
   0.8274300000000000    0.3459199999999999    0.3203804459832653 T T T Fe
   0.8263600000000001    0.2972799999999999    0.4025596636577222 T T T Fe
   0.8222700000000002    0.4594800000000000    0.3687193438028111 T T T Fe
   0.8181899999999999    0.6216800000000000    0.3348687193438028 T T T Fe
   0.8212000000000000    0.4108500000000000    0.4508882568731709 F F F Fe
   0.8171000000000002    0.5730499999999999    0.4170479370182597 T T T Fe
   0.8130200000000000    0.7352500000000000    0.3832076171633486 T T T Fe
   0.8089300000000000    0.8974500000000000    0.3493569927043402 T T T Fe
   0.8283100000000000    0.0378300000000000    0.6007584188615472 F F F Fe
   0.8242200000000000    0.2000200000000000    0.5669180990066361 F F F Fe
   0.8201199999999998    0.3622300000000000    0.5330674745476278 F F F Fe
   0.8149600000000000    0.4757900000000000    0.5814063723671736 F F F Fe
   0.8160300000000000    0.5244200000000000    0.4992271546927167 F F F Fe
   0.8119400000000001    0.6866200000000000    0.4653868348378055 F F F Fe
   0.8078600000000001    0.8488200000000000    0.4315362103787972 T T T Fe
   0.8037600000000000    0.0110100000000000    0.3976958905238860 T T T Fe
   0.8108700000000001    0.6379899999999999    0.5475557479081653 F F F Fe
   0.8067700000000001    0.8001900000000000    0.5137154280532541 F F F Fe
   0.8026900000000000    0.9623800000000000    0.4798751081983431 F F F Fe
   0.8056999999999999    0.7515500000000001    0.5958946457277111 F F F Fe
   0.8016100000000000    0.9137599999999999    0.5620543258727998 F F F Fe
   0.8174800000000000    0.9097299999999999    0.2078129508264292 T T T N
   0.3249200000000000    0.7422700000000000    0.2070916285396315 T T T N
   0.3240800000000000    0.8517599999999999    0.2573162689089485 T T T N
   0.8315900000000001    0.7954300000000000    0.1575780058530151 T T T N
   0.3243000000000000    0.9612600000000000    0.1579386669964139 T T T N
   0.8322500000000000    0.5764100000000000    0.2078129508264292 T T T N
   0.8313700000000002    0.6859400000000000    0.2569556077655496 T T T N
   0.3396900000000000    0.4089500000000000    0.2070916285396315 T T T N
   0.3388500000000000    0.5184400000000000    0.2573162689089485 T T T N
   0.8463600000000002    0.4621100000000000    0.1575780058530151 T T T N
   0.3390700000000000    0.6279400000000001    0.1579386669964140 T T T N
   0.8470199999999999    0.2430900000000000    0.2078129508264292 T T T N
   0.8461400000000000    0.3526200000000000    0.2569556077655496 T T T N
   0.3544600000000001    0.0756300000000000    0.2070916285396315 T T T N
   0.3536199999999999    0.1851200000000000    0.2573162689089485 T T T N
   0.8611300000000001    0.1287900000000000    0.1575780058530151 T T T N
   0.3538400000000000    0.2946199999999999    0.1579386669964140 T T T N
   0.8185500000000000    0.9097399999999999    0.0582107085445777 F F F N
   0.3259900000000001    0.7422800000000001    0.0574893862577800 F F F N
   0.3251400000000000    0.8517699999999999    0.1077140266270970 F F F N
   0.8326500000000000    0.7954400000000000    0.0079757635711636 F F F N
   0.3253600000000000    0.9612699999999998    0.0083364247145625 F F F N
   0.8333199999999999    0.5764200000000000    0.0582107085445777 F F F N
   0.8324300000000001    0.6859400000000000    0.1073533654836981 F F F N
   0.3407600000000001    0.4089600000000000    0.0574893862577800 F F F N
   0.3399100000000000    0.5184500000000000    0.1077140266270970 F F F N
   0.8474200000000002    0.4621199999999999    0.0079757635711636 F F F N
   0.3401300000000000    0.6279400000000001    0.0083364247145625 F F F N
   0.8480899999999999    0.2431000000000000    0.0582107085445777 F F F N
   0.8472000000000000    0.3526200000000000    0.1073533654836981 F F F N
   0.3555300000000000    0.0756400000000000    0.0574893862577800 F F F N
   0.3546800000000000    0.1851300000000000    0.1077140266270970 F F F N
   0.8621900000000001    0.1288000000000000    0.0079757635711636 F F F N
   0.3549000000000000    0.2946199999999999    0.0083364247145625 F F F N
   0.8461400000000001    0.0209600000000000    0.2569556077655496 T T T N
   0.8472000000000000    0.0209600000000000    0.1073533654836981 F F F N
