Cr16 Fe36 N16
1.0
   3.5061499999999999    0.0000000000000000    0.0000000000000002
   0.0000000000000019   12.0001999999999995    0.0000000000000007
   0.0000000000000000    0.0000000000000000   26.6616049620000055
Cr Fe N
16 36 16
Selective dynamics
direct
   0.0000000000000000    0.0000000000000000    0.2357817854911476 T T T Cr
  -0.0000000000000000    0.2500000000000000    0.2357817854911476 T T T Cr
   0.5000000000000000    0.1250000000000000    0.1571844951184676 T T T Cr
   0.5000000000000000    0.3750000000000000    0.1571844951184675 T T T Cr
   0.0000000000000000    0.0000000000000000    0.0785972903726800 F F F Cr
  -0.0000000000000000    0.2500000000000000    0.0785972903726800 F F F Cr
   0.5000000000000000    0.1250000000000000   -0.0000000000000000 F F F Cr
   0.5000000000000000    0.3750000000000000   -0.0000000000000000 F F F Cr
  -0.0000000000000000    0.5000000000000000    0.2357817854911476 T T T Cr
  -0.0000000000000000    0.7500000000000000    0.2357817854911476 T T T Cr
   0.5000000000000000    0.6250000000000000    0.1571844951184676 T T T Cr
   0.4999999999999998    0.8749999999999999    0.1571844951184676 T T T Cr
  -0.0000000000000000    0.5000000000000000    0.0785972903726800 F F F Cr
  -0.0000000000000000    0.7500000000000000    0.0785972903726800 F F F Cr
   0.5000000000000000    0.6250000000000000   -0.0000000000000000 F F F Cr
   0.4999999999999998    0.8749999999999999   -0.0000000000000000 F F F Cr
   0.9933200000000000    0.7184400000000000    0.6249256214975494 F F F Fe
   0.4933200000000000    0.5543100000000000    0.6119050771794269 F F F Fe
   0.4933200000000000    0.7391600000000000    0.5720466797005571 F F F Fe
   0.9933200000000000    0.5750200000000000    0.5590261353824344 F F F Fe
   0.9933200000000002    0.3901700000000000    0.5988744472344117 F F F Fe
   0.4933200000000000    0.2260400000000000    0.5858539029162889 F F F Fe
   0.4933200000000000    0.4108899999999999    0.5459955054374194 F F F Fe
   0.9933200000000002    0.2467500000000000    0.5329749611192968 F F F Fe
   0.9933200000000000    0.0619000000000000    0.5728232729712740 F F F Fe
   0.4933200000000000    0.8977699999999998    0.5598027286531514 F F F Fe
   0.4933200000000000    0.0826200000000000    0.5199443311742816 F F F Fe
   0.9933200000000000    0.9184800000000000    0.5069237868561590 F F F Fe
   0.9933200000000000    0.7598700000000000    0.5191778235304573 F F F Fe
   0.4933200000000000    0.5957300000000000    0.5061471935854421 F F F Fe
   0.4933200000000000    0.7805800000000001    0.4662988817334650 F F F Fe
   0.9933200000000002    0.6164500000000001    0.4532682517884498 F F F Fe
   0.9933200000000002    0.4315999999999999    0.4931266492673195 F F F Fe
   0.4933200000000000    0.2674600000000000    0.4800960193223044 F F F Fe
   0.4933200000000000    0.4523100000000000    0.4402477074703272 T T T Fe
   0.9933200000000002    0.2881800000000000    0.4272170775253120 T T T Fe
   0.9933199999999998    0.1033300000000000    0.4670754750041818 F F F Fe
   0.4933200000000000    0.9391999999999999    0.4540448450591664 F F F Fe
   0.4933200000000000    0.1240400000000000    0.4141965332071895 T T T Fe
   0.9933200000000000    0.9599100000000000    0.4011659032621742 T T T Fe
   0.9933200000000000    0.8013000000000000    0.4134199399364725 T T T Fe
   0.4933200000000000    0.6371599999999998    0.4003993956183499 T T T Fe
   0.4933200000000000    0.8220099999999999    0.3605409981394802 T T T Fe
   0.9933200000000002    0.6578799999999999    0.3475204538213576 T T T Fe
   0.9933200000000002    0.4730300000000000    0.3873687656733348 T T T Fe
   0.4933200000000000    0.3088900000000000    0.3743482213552121 T T T Fe
   0.4933200000000000    0.4937400000000000    0.3344898238763425 T T T Fe
   0.9933200000000000    0.3296100000000000    0.3214692795582200 T T T Fe
   0.9933200000000002    0.1447600000000000    0.3613175914101970 T T T Fe
   0.4933200000000000    0.9806200000000000    0.3482970470920744 T T T Fe
   0.4933200000000000    0.1654700000000000    0.3084386496132048 T T T Fe
   0.9933200000000000    0.0013400000000000    0.2954181052950821 T T T Fe
   0.5000000000000000    0.1250000000000000    0.2357817854911476 T T T N
   0.5000000000000000    0.3750000000000000    0.2357817854911475 T T T N
   0.0000000000000000    0.0000000000000000    0.1571844951184676 T T T N
  -0.0000000000000000    0.2500000000000000    0.1571844951184676 T T T N
   0.5000000000000000    0.1250000000000000    0.0785972903726799 F F F N
   0.5000000000000000    0.3750000000000000    0.0785972903726800 F F F N
   0.0000000000000000    0.0000000000000000    0.0000000000000000 F F F N
  -0.0000000000000000    0.2500000000000000   -0.0000000000000000 F F F N
   0.5000000000000000    0.6250000000000000    0.2357817854911476 T T T N
   0.4999999999999998    0.8749999999999999    0.2357817854911476 T T T N
  -0.0000000000000000    0.5000000000000000    0.1571844951184676 T T T N
  -0.0000000000000000    0.7500000000000000    0.1571844951184676 T T T N
   0.5000000000000000    0.6250000000000000    0.0785972903726799 F F F N
   0.4999999999999998    0.8749999999999999    0.0785972903726800 F F F N
  -0.0000000000000000    0.5000000000000000   -0.0000000000000000 F F F N
  -0.0000000000000000    0.7500000000000000   -0.0000000000000000 F F F N
