Cr20 Fe36 Mo4 N24
1.0
   3.5062000000000002    0.0000000000000000    0.0000000000000002
   0.0000000000000019   12.0001999999999995    0.0000000000000007
   0.0000000000000000    0.0000000000000000   28.9848999999999997
Cr Fe Mo N
20 36 4 24
Selective dynamics
direct
   0.6482100000000000    0.3787300000000000    0.3281700000000000 T T T Cr
   0.6482100000000000    0.1287300000000000    0.3281700000000000 T T T Cr
   0.1482100000000000    0.0037300000000000    0.2502500000000000 T T T Cr
   0.6482100000000000    0.3787300000000000    0.1723200000000000 F F F Cr
   0.6482100000000000    0.1287300000000000    0.1723200000000000 F F F Cr
   0.1482100000000000    0.2537300000000000    0.2502500000000000 T T T Cr
   0.6482100000000000    0.8787300000000000    0.3281700000000000 T T T Cr
   0.6482100000000000    0.6287300000000000    0.3281700000000000 T T T Cr
   0.1482100000000000    0.5037300000000000    0.2502500000000000 T T T Cr
   0.6482100000000000    0.8787300000000000    0.1723200000000000 F F F Cr
   0.6482100000000000    0.6287300000000000    0.1723200000000000 F F F Cr
   0.1482100000000000    0.7537300000000000    0.2502500000000000 T T T Cr
   0.1317400000000000    0.0053800000000000    0.0945100000000000 F F F Cr
   0.6317400000000000    0.3803800000000000    0.0165800000000000 F F F Cr
   0.6317400000000000    0.1303800000000000    0.0165800000000000 F F F Cr
   0.1317400000000000    0.2553800000000000    0.0945100000000000 F F F Cr
   0.1317400000000000    0.5053800000000001    0.0945100000000000 F F F Cr
   0.6317400000000000    0.8803800000000001    0.0165800000000000 F F F Cr
   0.6317400000000000    0.6303800000000001    0.0165800000000000 F F F Cr
   0.1317400000000000    0.7553800000000001    0.0945100000000000 F F F Cr
   0.1415300000000000    0.7221700000000000    0.8004300000000000 F F F Fe
   0.6415300000000000    0.5580400000000000    0.7875200000000000 F F F Fe
   0.6415300000000000    0.7428900000000001    0.7480000000000000 F F F Fe
   0.1415300000000000    0.5787500000000000    0.7350900000000000 F F F Fe
   0.1415300000000000    0.3939000000000000    0.7746000000000000 F F F Fe
   0.6415300000000000    0.2297700000000000    0.7616900000000000 F F F Fe
   0.6415300000000000    0.4146200000000000    0.7221700000000000 F F F Fe
   0.1415300000000000    0.2504800000000000    0.7092600000000000 F F F Fe
   0.1415300000000000    0.0656300000000000    0.7487700000000000 F F F Fe
   0.6415300000000000    0.9015000000000000    0.7358600000000000 F F F Fe
   0.6415300000000000    0.0863500000000000    0.6963400000000000 F F F Fe
   0.1415300000000000    0.9222100000000000    0.6834300000000000 F F F Fe
   0.1415300000000000    0.7635999999999999    0.6955800000000000 F F F Fe
   0.6415300000000000    0.5994699999999999    0.6826600000000000 F F F Fe
   0.6415300000000000    0.7843100000000000    0.6431500000000000 F F F Fe
   0.1415300000000000    0.6201800000000000    0.6302300000000000 F F F Fe
   0.1415300000000000    0.4353300000000000    0.6697500000000000 F F F Fe
   0.6415300000000000    0.2712000000000000    0.6568300000000000 F F F Fe
   0.6415300000000000    0.4560500000000000    0.6173200000000000 F F F Fe
   0.1415300000000000    0.2919100000000000    0.6044000000000000 F F F Fe
   0.1415300000000000    0.1070600000000000    0.6439200000000000 F F F Fe
   0.6415300000000000    0.9429300000000000    0.6310000000000000 F F F Fe
   0.6415300000000000    0.1277800000000000    0.5914900000000000 T T T Fe
   0.1415300000000000    0.9636400000000001    0.5785700000000000 T T T Fe
   0.1415300000000000    0.8050300000000000    0.5907200000000000 T T T Fe
   0.6415300000000000    0.6408900000000000    0.5778100000000000 T T T Fe
   0.6415300000000000    0.8257400000000000    0.5382900000000000 T T T Fe
   0.1415300000000000    0.6616100000000000    0.5253800000000000 T T T Fe
   0.1415300000000000    0.4767600000000000    0.5648900000000000 T T T Fe
   0.6415300000000000    0.3126200000000000    0.5519800000000000 T T T Fe
   0.6415300000000000    0.4974700000000000    0.5124600000000000 T T T Fe
   0.1415300000000000    0.3333333333333333    0.4995500000000000 T T T Fe
   0.1415300000000000    0.1484900000000000    0.5390600000000000 T T T Fe
   0.6415300000000000    0.9843499999999999    0.5261500000000000 T T T Fe
   0.6415300000000000    0.1692000000000000    0.4866300000000000 T T T Fe
   0.1415300000000000    0.0050700000000000    0.4737200000000000 T T T Fe
   0.1482100000000000    0.0037300000000000    0.4061000000000000 T T T Mo
   0.1482100000000000    0.2537300000000000    0.4061000000000000 T T T Mo
   0.1482100000000000    0.5037300000000000    0.4061000000000000 T T T Mo
   0.1482100000000000    0.7537300000000000    0.4061000000000000 T T T Mo
   0.6482100000000000    0.3787300000000000    0.4061000000000000 T T T N
   0.1482100000000000    0.0037300000000000    0.3281700000000000 T T T N
   0.1482100000000000    0.2537300000000000    0.3281700000000000 T T T N
   0.6482100000000000    0.1287300000000000    0.4061000000000000 T T T N
   0.6482100000000000    0.3787300000000000    0.2502500000000000 T T T N
   0.1482100000000000    0.0037300000000000    0.1723200000000000 F F F N
   0.1482100000000000    0.2537300000000000    0.1723200000000000 F F F N
   0.6482100000000000    0.1287300000000000    0.2502500000000000 T T T N
   0.6482100000000000    0.8787300000000000    0.4061000000000000 T T T N
   0.1482100000000000    0.5037300000000000    0.3281700000000000 T T T N
   0.1482100000000000    0.7537300000000000    0.3281700000000000 T T T N
   0.6482100000000000    0.6287300000000000    0.4061000000000000 T T T N
   0.6482100000000000    0.8787300000000000    0.2502500000000000 T T T N
   0.1482100000000000    0.5037300000000000    0.1723200000000000 F F F N
   0.1482100000000000    0.7537300000000000    0.1723200000000000 F F F N
   0.6482100000000000    0.6287300000000000    0.2502500000000000 T T T N
   0.6317400000000000    0.3803800000000000    0.0945100000000000 F F F N
   0.1317400000000000    0.0053800000000000    0.0165800000000000 F F F N
   0.1317400000000000    0.2553800000000000    0.0165800000000000 F F F N
   0.6317400000000000    0.1303800000000000    0.0945100000000000 F F F N
   0.6317400000000000    0.8803800000000001    0.0945100000000000 F F F N
   0.1317400000000000    0.5053800000000001    0.0165800000000000 F F F N
   0.1317400000000000    0.7553800000000001    0.0165800000000000 F F F N
   0.6317400000000000    0.6303800000000001    0.0945100000000000 F F F N
