Optimistic_Structure
1.0
   3.5061499999999999    0.0000000000000000    0.0000000000000002
   0.0000000000000019   12.0001999999999995    0.0000000000000007
   0.0000000000000000    0.0000000000000000   27.1216049620000028
Cr Fe N W
12 36 16 4
Selective dynamics
direct
   0.5000000000000000    0.1250000000000000    0.1545185441964701 T T T Cr
   0.5000000000000000    0.3750000000000000    0.1545185441964701 T T T Cr
   0.0000000000000000    0.0000000000000000    0.0772642293822965 F F F Cr
  -0.0000000000000000    0.2500000000000000    0.0772642293822965 F F F Cr
   0.5000000000000000    0.1250000000000000   -0.0000000000000000 F F F Cr
   0.5000000000000000    0.3750000000000000   -0.0000000000000000 F F F Cr
   0.5000000000000000    0.6250000000000000    0.1545185441964701 T T T Cr
   0.4999999999999998    0.8749999999999999    0.1545185441964701 T T T Cr
  -0.0000000000000000    0.5000000000000000    0.0772642293822965 F F F Cr
  -0.0000000000000000    0.7500000000000000    0.0772642293822965 F F F Cr
   0.5000000000000000    0.6250000000000000   -0.0000000000000000 F F F Cr
   0.4999999999999998    0.8749999999999999   -0.0000000000000000 F F F Cr
   0.9933200000000000    0.7184400000000000    0.6242816409546079 F F F Fe
   0.4933200000000000    0.5543100000000000    0.6114819335078552 F F F Fe
   0.4933200000000000    0.7391600000000000    0.5722995602858820 F F F Fe
   0.9933200000000000    0.5750200000000000    0.5594998528391293 F F F Fe
   0.9933200000000002    0.3901700000000000    0.5986723114929794 F F F Fe
   0.4933200000000000    0.2260400000000000    0.5858726040462264 F F F Fe
   0.4933200000000000    0.4108899999999999    0.5466902308242534 F F F Fe
   0.9933200000000002    0.2467500000000000    0.5338905233775006 F F F Fe
   0.9933200000000000    0.0619000000000000    0.5730629820313506 F F F Fe
   0.4933200000000000    0.8977699999999998    0.5602632745845979 F F F Fe
   0.4933200000000000    0.0826200000000000    0.5210809013626249 F F F Fe
   0.9933200000000000    0.9184800000000000    0.5082811939158719 F F F Fe
   0.9933200000000000    0.7598700000000000    0.5203273941852792 F F F Fe
   0.4933200000000000    0.5957300000000000    0.5075177721704034 F F F Fe
   0.4933200000000000    0.7805800000000001    0.4683453135165534 F F F Fe
   0.9933200000000002    0.6164500000000001    0.4555356915016776 F F F Fe
   0.9933200000000002    0.4315999999999999    0.4947180647236505 F F F Fe
   0.4933200000000000    0.2674600000000000    0.4819084427087748 F F F Fe
   0.4933200000000000    0.4523100000000000    0.4427359840549247 F F F Fe
   0.9933200000000002    0.2881800000000000    0.4299263620400489 F F F Fe
   0.9933199999999998    0.1033300000000000    0.4691087352620219 F F F Fe
   0.4933200000000000    0.9391999999999999    0.4562991132471459 F F F Fe
   0.4933200000000000    0.1240400000000000    0.4171266545932961 T T T Fe
   0.9933200000000000    0.9599100000000000    0.4043170325784202 T T T Fe
   0.9933200000000000    0.8013000000000000    0.4163632328478273 T T T Fe
   0.4933200000000000    0.6371599999999998    0.4035635254010747 T T T Fe
   0.4933200000000000    0.8220099999999999    0.3643811521791016 T T T Fe
   0.9933200000000002    0.6578799999999999    0.3515814447323488 T T T Fe
   0.9933200000000002    0.4730300000000000    0.3907539033861988 T T T Fe
   0.4933200000000000    0.3088900000000000    0.3779541959394460 T T T Fe
   0.4933200000000000    0.4937400000000000    0.3387718227174729 T T T Fe
   0.9933200000000000    0.3296100000000000    0.3259721152707202 T T T Fe
   0.9933200000000002    0.1447600000000000    0.3651445739245702 T T T Fe
   0.4933200000000000    0.9806200000000000    0.3523448664778173 T T T Fe
   0.4933200000000000    0.1654700000000000    0.3131624932558442 T T T Fe
   0.9933200000000000    0.0013400000000000    0.3003627858090915 T T T Fe
   0.5000000000000000    0.1250000000000000    0.2317827735787666 T T T N
   0.5000000000000000    0.3750000000000000    0.2317827735787666 T T T N
   0.0000000000000000    0.0000000000000000    0.1545185441964701 T T T N
  -0.0000000000000000    0.2500000000000000    0.1545185441964701 T T T N
   0.5000000000000000    0.1250000000000000    0.0772642293822965 F F F N
   0.5000000000000000    0.3750000000000000    0.0772642293822965 F F F N
   0.0000000000000000    0.0000000000000000    0.0000000000000000 F F F N
  -0.0000000000000000    0.2500000000000000   -0.0000000000000000 F F F N
   0.5000000000000000    0.6250000000000000    0.2317827735787666 T T T N
   0.4999999999999998    0.8749999999999999    0.2317827735787666 T T T N
  -0.0000000000000000    0.5000000000000000    0.1545185441964701 T T T N
  -0.0000000000000000    0.7500000000000000    0.1545185441964701 T T T N
   0.5000000000000000    0.6250000000000000    0.0772642293822965 F F F N
   0.4999999999999998    0.8749999999999999    0.0772642293822965 F F F N
  -0.0000000000000000    0.5000000000000000   -0.0000000000000000 F F F N
  -0.0000000000000000    0.7500000000000000   -0.0000000000000000 F F F N
   0.0000000000000000    0.0000000000000000    0.2317827735787666 T T T W
  -0.0000000000000000    0.2500000000000000    0.2317827735787666 T T T W
  -0.0000000000000000    0.5000000000000000    0.2317827735787666 T T T W
  -0.0000000000000000    0.7500000000000000    0.2317827735787666 T T T W
