Cr36 Fe45 W7 N36
1.0
   2.7260000000000000    0.0000000000000000    0.0000000000000002
   0.0000000000000023   14.1679999999999993    0.0000000000000009
   0.0000000000000000    0.0000000000000000   48.5219999999999985
Cr Fe W N
36 45 7 36
Selective dynamics
direct
   0.3402200000000000    0.8342000000000001    0.1864100000000000 T T T Cr
   0.3398500000000000    0.9438900000000000    0.2383800000000000 T T T Cr
   0.8396200000000000    0.8041900000000000    0.2424400000000000 T T T Cr
   0.3366600000000000    0.7370800000000000    0.2961500000000000 T T T Cr
   0.8391800000000000    0.9167300000000000    0.2921700000000000 T T T Cr
   0.3424900000000000    0.5052900000000000    0.1843700000000000 T T T Cr
   0.3411600000000000    0.6162600000000000    0.2368100000000000 T T T Cr
   0.8405600000000000    0.6954300000000000    0.1877900000000000 T T T Cr
   0.8396200000000000    0.4771100000000000    0.2393400000000000 T T T Cr
   0.3371300000000000    0.4036000000000000    0.2868600000000000 T T T Cr
   0.8378500000000000    0.5692600000000000    0.2919200000000000 T T T Cr
   0.3474100000000000    0.1683100000000000    0.1841100000000000 T T T Cr
   0.3412800000000000    0.2841300000000000    0.2335100000000000 T T T Cr
   0.8425500000000000    0.3646600000000000    0.1863400000000000 T T T Cr
   0.8385700000000000    0.1407000000000000    0.2358400000000000 T T T Cr
   0.3366500000000000    0.0740200000000000    0.2841500000000000 T T T Cr
   0.8365899999999999    0.2453000000000000    0.2857000000000000 T T T Cr
   0.3190500000000000    0.8541800000000001    0.0329200000000000 F F F Cr
   0.3182000000000000    0.9636700000000000    0.0831500000000000 F F F Cr
   0.8254899999999999    0.7978400000000000    0.0827800000000000 F F F Cr
   0.3320900000000000    0.7398700000000000    0.1322900000000000 F F F Cr
   0.8246500000000000    0.9073300000000000    0.1330000000000000 F F F Cr
   0.3338200000000000    0.5208600000000000    0.0329200000000000 F F F Cr
   0.3329700000000000    0.6303500000000000    0.0831500000000000 F F F Cr
   0.8263400000000000    0.6883500000000000    0.0325600000000000 F F F Cr
   0.8402600000000000    0.4645200000000000    0.0827800000000000 F F F Cr
   0.3468600000000000    0.4065500000000000    0.1322900000000000 F F F Cr
   0.8394100000000000    0.5740100000000000    0.1330000000000000 F F F Cr
   0.3485900000000000    0.1875400000000000    0.0329200000000000 F F F Cr
   0.3477400000000000    0.2970300000000000    0.0831500000000000 F F F Cr
   0.8411000000000000    0.3550300000000000    0.0325500000000000 F F F Cr
   0.8550300000000000    0.1312000000000000    0.0827800000000000 F F F Cr
   0.3616200000000000    0.0732300000000000    0.1322900000000000 F F F Cr
   0.8541800000000001    0.2406900000000000    0.1330000000000000 F F F Cr
   0.8436700000000000    0.0267600000000000    0.1858700000000000 T T T Cr
   0.8411000000000000    0.0233700000000000    0.0325500000000000 F F F Cr
   0.3284800000000000    0.9996200000000000    0.3605400000000000 T T T Fe
   0.3295700000000000    0.0997800000000000    0.3991700000000000 T T T Fe
   0.3467900000000000    0.1101100000000000    0.4774300000000000 F F F Fe
   0.3427100000000000    0.2723000000000000    0.4435900000000000 T T T Fe
   0.3457200000000000    0.0614800000000000    0.5596100000000001 F F F Fe
   0.3416300000000000    0.2236700000000000    0.5257700000000000 F F F Fe
   0.3375500000000000    0.3858700000000000    0.4919200000000000 F F F Fe
   0.3324800000000000    0.2996600000000000    0.3663100000000000 T T T Fe
   0.3292100000000000    0.3883400000000000    0.4094300000000000 T T T Fe
   0.3277600000000000    0.5880500000000000    0.3756400000000000 T T T Fe
   0.3334500000000000    0.5480600000000000    0.4580800000000000 T T T Fe
   0.3226400000000000    0.6702900000000001    0.4255300000000000 T T T Fe
   0.3246500000000000    0.8524800000000000    0.3834100000000000 T T T Fe
   0.3405600000000000    0.1750400000000000    0.6079400000000000 F F F Fe
   0.3364600000000000    0.3372400000000000    0.5741000000000001 F F F Fe
   0.3323800000000000    0.4994300000000000    0.5402600000000000 F F F Fe
   0.3272200000000000    0.6130100000000001    0.5885899999999999 F F F Fe
   0.3282900000000000    0.6616400000000000    0.5064100000000000 F F F Fe
   0.3242000000000000    0.8238400000000000    0.4725700000000000 F F F Fe
   0.3201000000000000    0.9860300000000000    0.4387300000000000 T T T Fe
   0.3231200000000000    0.7752000000000000    0.5547500000000000 F F F Fe
   0.3190300000000000    0.9374000000000000    0.5209100000000000 F F F Fe
   0.3179600000000000    0.8887699999999999    0.6030799999999999 F F F Fe
   0.8304500000000000    0.1350900000000000    0.4364000000000000 T T T Fe
   0.8293800000000000    0.0864600000000000    0.5185800000000000 F F F Fe
   0.8252900000000000    0.2486500000000000    0.4847400000000000 F F F Fe
   0.8318000000000000    0.1610600000000000    0.3628900000000000 T T T Fe
   0.8326800000000000    0.2478200000000000    0.4035000000000000 T T T Fe
   0.8297200000000000    0.4491300000000000    0.3718300000000000 T T T Fe
   0.8212000000000000    0.4108500000000000    0.4508900000000000 T T T Fe
   0.8270500000000000    0.5314400000000000    0.4153500000000000 T T T Fe
   0.8235800000000000    0.7229500000000000    0.3896800000000000 T T T Fe
   0.8283100000000000    0.0378300000000000    0.6007600000000000 F F F Fe
   0.8242200000000000    0.2000200000000000    0.5669200000000000 F F F Fe
   0.8201200000000000    0.3622300000000000    0.5330700000000000 F F F Fe
   0.8149600000000000    0.4757900000000000    0.5814100000000000 F F F Fe
   0.8160300000000000    0.5244200000000000    0.4992300000000000 F F F Fe
   0.8119400000000000    0.6866200000000000    0.4653900000000000 T T T Fe
   0.8176700000000000    0.8249400000000000    0.4293400000000000 T T T Fe
   0.8259300000000001    0.9640400000000000    0.4010200000000000 T T T Fe
   0.8108700000000000    0.6379899999999999    0.5475600000000000 F F F Fe
   0.8067700000000000    0.8001900000000000    0.5137200000000000 F F F Fe
   0.8026900000000000    0.9623800000000000    0.4798800000000000 F F F Fe
   0.8057000000000000    0.7515500000000001    0.5958900000000000 F F F Fe
   0.8016100000000000    0.9137600000000000    0.5620500000000000 F F F Fe
   0.3337000000000000    0.1884100000000000    0.3237900000000000 T T T W
   0.3323800000000000    0.4853300000000000    0.3316700000000000 T T T W
   0.3252800000000000    0.7474400000000000    0.3487000000000000 T T T W
   0.8334200000000000    0.0510400000000000    0.3235800000000000 T T T W
   0.8343200000000000    0.3458500000000000    0.3250700000000000 T T T W
   0.8274800000000000    0.6329300000000000    0.3326400000000000 T T T W
   0.8260400000000000    0.8794400000000000    0.3347600000000000 T T T W
   0.8385600000000000    0.9023900000000000    0.2116800000000000 T T T N
   0.3395500000000000    0.7405300000000000    0.2160700000000000 T T T N
   0.3399900000000000    0.8528100000000000    0.2700900000000000 T T T N
   0.8384500000000000    0.7960400000000000    0.1593600000000000 T T T N
   0.3341900000000000    0.9600100000000000    0.1601900000000000 T T T N
   0.8418500000000000    0.5746400000000000    0.2104900000000000 T T T N
   0.8372900000000000    0.6883000000000000    0.2704800000000000 T T T N
   0.3425300000000000    0.4098200000000000    0.2133700000000000 T T T N
   0.3391800000000000    0.5235400000000000    0.2662900000000000 T T T N
   0.8439100000000000    0.4641200000000000    0.1581800000000000 T T T N
   0.3401300000000000    0.6315100000000000    0.1607900000000000 T T T N
   0.8421600000000000    0.2412500000000000    0.2073100000000000 T T T N
   0.8378500000000000    0.3543200000000000    0.2607700000000000 T T T N
   0.3405900000000000    0.0683600000000000    0.2125700000000000 T T T N
   0.3378900000000000    0.1883700000000000    0.2621600000000000 T T T N
   0.8469400000000000    0.1279400000000000    0.1580100000000000 T T T N
   0.3466900000000000    0.2963600000000000    0.1598600000000000 T T T N
   0.8185500000000000    0.9097400000000000    0.0582100000000000 F F F N
   0.3259900000000000    0.7422800000000001    0.0574900000000000 F F F N
   0.3251400000000000    0.8517700000000000    0.1077100000000000 F F F N
   0.8326500000000000    0.7954400000000000    0.0079800000000000 F F F N
   0.3253600000000000    0.9612700000000000    0.0083400000000000 F F F N
   0.8333199999999999    0.5764200000000000    0.0582100000000000 F F F N
   0.8324300000000000    0.6859400000000000    0.1073500000000000 F F F N
   0.3407600000000000    0.4089600000000000    0.0574900000000000 F F F N
   0.3399100000000000    0.5184500000000000    0.1077100000000000 F F F N
   0.8474200000000000    0.4621200000000000    0.0079800000000000 F F F N
   0.3401300000000000    0.6279400000000001    0.0083400000000000 F F F N
   0.8480900000000000    0.2431000000000000    0.0582100000000000 F F F N
   0.8472000000000000    0.3526200000000000    0.1073500000000000 F F F N
   0.3555300000000000    0.0756400000000000    0.0574900000000000 F F F N
   0.3546800000000000    0.1851300000000000    0.1077100000000000 F F F N
   0.8621900000000000    0.1288000000000000    0.0079800000000000 F F F N
   0.3549000000000000    0.2946200000000000    0.0083400000000000 F F F N
   0.8379799999999999    0.0198500000000000    0.2602400000000000 T T T N
   0.8472000000000000    0.0209600000000000    0.1073500000000000 F F F N
