Cr24 Fe36 N24
1.0
   3.5062000000000002    0.0000000000000000    0.0000000000000002
   0.0000000000000019   12.0001999999999995    0.0000000000000007
   0.0000000000000000    0.0000000000000000   28.9848999999999997
Cr Fe N
24 36 24
Selective dynamics
direct
   0.1485400000000000    0.0029600000000000    0.3888500000000000 T T T Cr
   0.6485400000000000    0.3779600000000000    0.3109300000000000 T T T Cr
   0.6485400000000000    0.1279600000000000    0.3109300000000000 T T T Cr
   0.1485400000000000    0.2529600000000000    0.3888500000000000 T T T Cr
   0.1485400000000000    0.0029600000000000    0.2330000000000000 F F F Cr
   0.6485400000000000    0.3779600000000000    0.1550700000000000 F F F Cr
   0.6485400000000000    0.1279600000000000    0.1550700000000000 F F F Cr
   0.1485400000000000    0.2529600000000000    0.2330000000000000 F F F Cr
   0.1485400000000000    0.5029600000000000    0.3888500000000000 T T T Cr
   0.6485400000000000    0.8779600000000000    0.3109300000000000 T T T Cr
   0.6485400000000000    0.6279600000000000    0.3109300000000000 T T T Cr
   0.1485400000000000    0.7529600000000000    0.3888500000000000 T T T Cr
   0.1485400000000000    0.5029600000000000    0.2330000000000000 F F F Cr
   0.6485400000000000    0.8779600000000000    0.1550700000000000 F F F Cr
   0.6485400000000000    0.6279600000000000    0.1550700000000000 F F F Cr
   0.1485400000000000    0.7529600000000000    0.2330000000000000 F F F Cr
   0.1320800000000000    0.0046100000000000    0.0772600000000000 F F F Cr
   0.6320800000000000    0.3796100000000000    0.9993400000000000 F F F Cr
   0.6320800000000000    0.1296100000000000    0.9993400000000000 F F F Cr
   0.1320800000000000    0.2546100000000000    0.0772600000000000 F F F Cr
   0.1320800000000000    0.5046100000000000    0.0772600000000000 F F F Cr
   0.6320800000000000    0.8796100000000000    0.9993400000000000 F F F Cr
   0.6320800000000000    0.6296100000000000    0.9993400000000000 F F F Cr
   0.1320800000000000    0.7546100000000000    0.0772600000000000 F F F Cr
   0.1418600000000000    0.7214000000000000    0.7831900000000001 F F F Fe
   0.6418600000000000    0.5572600000000000    0.7702700000000000 F F F Fe
   0.6418600000000000    0.7421100000000000    0.7307600000000000 F F F Fe
   0.1418600000000000    0.5779800000000000    0.7178400000000000 F F F Fe
   0.1418600000000000    0.3931300000000000    0.7573500000000000 F F F Fe
   0.6418600000000000    0.2289900000000000    0.7444400000000000 F F F Fe
   0.6418600000000000    0.4138400000000000    0.7049299999999999 F F F Fe
   0.1418600000000000    0.2497100000000000    0.6920100000000000 F F F Fe
   0.1418600000000000    0.0648600000000000    0.7315199999999999 F F F Fe
   0.6418600000000000    0.9007200000000000    0.7186100000000000 F F F Fe
   0.6418600000000000    0.0855700000000000    0.6791000000000000 F F F Fe
   0.1418600000000000    0.9214400000000000    0.6661800000000000 F F F Fe
   0.1418600000000000    0.7628300000000000    0.6783300000000000 F F F Fe
   0.6418600000000000    0.5986900000000001    0.6654099999999999 F F F Fe
   0.6418600000000000    0.7835400000000000    0.6259000000000000 F F F Fe
   0.1418600000000000    0.6194100000000000    0.6129900000000000 F F F Fe
   0.1418600000000000    0.4345600000000000    0.6525000000000000 F F F Fe
   0.6418600000000000    0.2704200000000000    0.6395800000000000 F F F Fe
   0.6418600000000000    0.4552700000000000    0.6000700000000000 F F F Fe
   0.1418600000000000    0.2911400000000000    0.5871600000000000 F F F Fe
   0.1418600000000000    0.1062900000000000    0.6266699999999999 F F F Fe
   0.6418600000000000    0.9421500000000000    0.6137500000000000 F F F Fe
   0.6418600000000000    0.1270000000000000    0.5742400000000000 T T T Fe
   0.1418600000000000    0.9628700000000000    0.5613300000000000 T T T Fe
   0.1418600000000000    0.8042500000000000    0.5734700000000000 T T T Fe
   0.6418600000000000    0.6401200000000000    0.5605599999999999 T T T Fe
   0.6418600000000000    0.8249700000000000    0.5210500000000000 T T T Fe
   0.1418600000000000    0.6608300000000000    0.5081300000000000 T T T Fe
   0.1418600000000000    0.4759800000000000    0.5476400000000000 T T T Fe
   0.6418600000000000    0.3118500000000000    0.5347300000000000 T T T Fe
   0.6418600000000000    0.4967000000000000    0.4952200000000000 T T T Fe
   0.1418600000000000    0.3325600000000000    0.4823000000000000 T T T Fe
   0.1418600000000000    0.1477100000000000    0.5218100000000000 T T T Fe
   0.6418600000000000    0.9835800000000000    0.5089000000000000 T T T Fe
   0.6418600000000000    0.1684300000000000    0.4693900000000000 T T T Fe
   0.1418600000000000    0.0042900000000000    0.4564700000000000 T T T Fe
   0.6485400000000000    0.3779600000000000    0.3888500000000000 T T T N
   0.1485400000000000    0.0029600000000000    0.3109300000000000 T T T N
   0.1485400000000000    0.2529600000000000    0.3109300000000000 T T T N
   0.6485400000000000    0.1279600000000000    0.3888500000000000 T T T N
   0.6485400000000000    0.3779600000000000    0.2330000000000000 F F F N
   0.1485400000000000    0.0029600000000000    0.1550700000000000 F F F N
   0.1485400000000000    0.2529600000000000    0.1550700000000000 F F F N
   0.6485400000000000    0.1279600000000000    0.2330000000000000 F F F N
   0.6485400000000000    0.8779600000000000    0.3888500000000000 T T T N
   0.1485400000000000    0.5029600000000000    0.3109300000000000 T T T N
   0.1485400000000000    0.7529600000000000    0.3109300000000000 T T T N
   0.6485400000000000    0.6279600000000000    0.3888500000000000 T T T N
   0.6485400000000000    0.8779600000000000    0.2330000000000000 F F F N
   0.1485400000000000    0.5029600000000000    0.1550700000000000 F F F N
   0.1485400000000000    0.7529600000000000    0.1550700000000000 F F F N
   0.6485400000000000    0.6279600000000000    0.2330000000000000 F F F N
   0.6320800000000000    0.3796100000000000    0.0772600000000000 F F F N
   0.1320800000000000    0.0046100000000000    0.9993400000000000 F F F N
   0.1320800000000000    0.2546100000000000    0.9993400000000000 F F F N
   0.6320800000000000    0.1296100000000000    0.0772600000000000 F F F N
   0.6320800000000000    0.8796100000000000    0.0772600000000000 F F F N
   0.1320800000000000    0.5046100000000000    0.9993400000000000 F F F N
   0.1320800000000000    0.7546100000000000    0.9993400000000000 F F F N
   0.6320800000000000    0.6296100000000000    0.0772600000000000 F F F N
