Cr16 Fe36 N16
1.0
   3.5061499999999999    0.0000000000000000    0.0000000000000002
   0.0000000000000019   12.0001999999999995    0.0000000000000007
   0.0000000000000000    0.0000000000000000   26.8899000000000008
Cr Fe N
16 36 16
Selective dynamics
direct
   0.0000000000000000    0.0000000000000000    0.2337800000000000 F F F Cr
   0.0000000000000000    0.2500000000000000    0.2337800000000000 F F F Cr
   0.5000000000000000    0.1250000000000000    0.1558500000000000 F F F Cr
   0.5000000000000000    0.3750000000000000    0.1558500000000000 F F F Cr
   0.0000000000000000    0.0000000000000000    0.0779300000000000 F F F Cr
   0.0000000000000000    0.2500000000000000    0.0779300000000000 F F F Cr
   0.5000000000000000    0.1250000000000000    0.0000000000000000 F F F Cr
   0.5000000000000000    0.3750000000000000    0.0000000000000000 F F F Cr
   0.0000000000000000    0.5000000000000000    0.2337800000000000 F F F Cr
   0.0000000000000000    0.7500000000000000    0.2337800000000000 F F F Cr
   0.5000000000000000    0.6250000000000000    0.1558500000000000 F F F Cr
   0.5000000000000000    0.8750000000000000    0.1558500000000000 F F F Cr
   0.0000000000000000    0.5000000000000000    0.0779300000000000 F F F Cr
   0.0000000000000000    0.7500000000000000    0.0779300000000000 F F F Cr
   0.5000000000000000    0.6250000000000000    0.0000000000000000 F F F Cr
   0.5000000000000000    0.8750000000000000    0.0000000000000000 F F F Cr
   0.9933200000000000    0.7184400000000000    0.6281099999999999 F F F Fe
   0.4933200000000000    0.5543100000000000    0.6152000000000000 F F F Fe
   0.4933200000000000    0.7391600000000000    0.5756800000000000 F F F Fe
   0.9933200000000000    0.5750200000000000    0.5627700000000000 F F F Fe
   0.9933200000000000    0.3901700000000000    0.6022800000000000 F F F Fe
   0.4933200000000000    0.2260400000000000    0.5893699999999999 F F F Fe
   0.4933200000000000    0.4108900000000000    0.5498499999999999 F F F Fe
   0.9933200000000000    0.2467500000000000    0.5369400000000000 F F F Fe
   0.9933200000000000    0.0619000000000000    0.5764500000000000 F F F Fe
   0.4933200000000000    0.8977700000000000    0.5635400000000000 F F F Fe
   0.4933200000000000    0.0826200000000000    0.5240200000000000 F F F Fe
   0.9933200000000000    0.9184800000000000    0.5111100000000000 F F F Fe
   0.9933200000000000    0.7598700000000000    0.5232599999999999 F F F Fe
   0.4933200000000000    0.5957300000000000    0.5103400000000000 F F F Fe
   0.4933200000000000    0.7805800000000001    0.4708300000000000 F F F Fe
   0.9933200000000000    0.6164500000000001    0.4579100000000000 F F F Fe
   0.9933200000000000    0.4316000000000000    0.4974300000000000 F F F Fe
   0.4933200000000000    0.2674600000000000    0.4845100000000000 F F F Fe
   0.4933200000000000    0.4523100000000000    0.4450000000000000 F F F Fe
   0.9933200000000000    0.2881800000000000    0.4320800000000000 F F F Fe
   0.9933200000000000    0.1033300000000000    0.4716000000000000 F F F Fe
   0.4933200000000000    0.9392000000000000    0.4586800000000000 F F F Fe
   0.4933200000000000    0.1240400000000000    0.4191700000000000 F F F Fe
   0.9933200000000000    0.9599100000000000    0.4062500000000000 F F F Fe
   0.9933200000000000    0.8013000000000000    0.4184000000000000 F F F Fe
   0.4933200000000000    0.6371599999999999    0.4054900000000000 F F F Fe
   0.4933200000000000    0.8220100000000000    0.3659700000000000 F F F Fe
   0.9933200000000000    0.6578800000000000    0.3530600000000000 F F F Fe
   0.9933200000000000    0.4730300000000000    0.3925700000000000 F F F Fe
   0.4933200000000000    0.3088900000000000    0.3796600000000000 F F F Fe
   0.4933200000000000    0.4937400000000000    0.3401400000000000 F F F Fe
   0.9933200000000000    0.3296100000000000    0.3272300000000000 F F F Fe
   0.9933200000000000    0.1447600000000000    0.3667400000000000 F F F Fe
   0.4933200000000000    0.9806200000000000    0.3538300000000000 F F F Fe
   0.4933200000000000    0.1654700000000000    0.3143100000000000 F F F Fe
   0.9933200000000000    0.0013400000000000    0.3014000000000000 F F F Fe
   0.5000000000000000    0.1250000000000000    0.2337800000000000 F F F N
   0.5000000000000000    0.3750000000000000    0.2337800000000000 F F F N
   0.0000000000000000    0.0000000000000000    0.1558500000000000 F F F N
   0.0000000000000000    0.2500000000000000    0.1558500000000000 F F F N
   0.5000000000000000    0.1250000000000000    0.0779300000000000 F F F N
   0.5000000000000000    0.3750000000000000    0.0779300000000000 F F F N
   0.0000000000000000    0.0000000000000000    0.0000000000000000 F F F N
   0.0000000000000000    0.2500000000000000    0.0000000000000000 F F F N
   0.5000000000000000    0.6250000000000000    0.2337800000000000 F F F N
   0.5000000000000000    0.8750000000000000    0.2337800000000000 F F F N
   0.0000000000000000    0.5000000000000000    0.1558500000000000 F F F N
   0.0000000000000000    0.7500000000000000    0.1558500000000000 F F F N
   0.5000000000000000    0.6250000000000000    0.0779300000000000 F F F N
   0.5000000000000000    0.8750000000000000    0.0779300000000000 F F F N
   0.0000000000000000    0.5000000000000000    0.0000000000000000 F F F N
   0.0000000000000000    0.7500000000000000    0.0000000000000000 F F F N
