Cr24 Fe36 N24
1.0
   3.5062000000000002    0.0000000000000000    0.0000000000000002
   0.0000000000000019   12.0001999999999995    0.0000000000000007
   0.0000000000000000    0.0000000000000000   28.9848999999999997
Cr Fe N
24 36 24
Selective dynamics
direct
   0.1440500000000000    0.0017200000000000    0.4060900000000000 T T T Cr
   0.6440500000000000    0.3767200000000000    0.3281600000000000 T T T Cr
   0.6440500000000000    0.1267200000000000    0.3281600000000000 T T T Cr
   0.1440500000000000    0.2517200000000000    0.4060900000000000 T T T Cr
   0.1440500000000000    0.0017200000000000    0.2502300000000000 T T T Cr
   0.6440500000000000    0.3767200000000000    0.1723100000000000 F F F Cr
   0.6440500000000000    0.1267200000000000    0.1723100000000000 F F F Cr
   0.1440500000000000    0.2517200000000000    0.2502300000000000 T T T Cr
   0.1440500000000000    0.5017200000000001    0.4060900000000000 T T T Cr
   0.6440500000000000    0.8767200000000001    0.3281600000000000 T T T Cr
   0.6440500000000000    0.6267200000000001    0.3281600000000000 T T T Cr
   0.1440500000000000    0.7517200000000001    0.4060900000000000 T T T Cr
   0.1440500000000000    0.5017200000000001    0.2502300000000000 T T T Cr
   0.6440500000000000    0.8767200000000001    0.1723100000000000 F F F Cr
   0.6440500000000000    0.6267200000000001    0.1723100000000000 F F F Cr
   0.1440500000000000    0.7517200000000001    0.2502300000000000 T T T Cr
   0.1275900000000000    0.0033700000000000    0.0945000000000000 F F F Cr
   0.6275900000000000    0.3783700000000000    0.0165700000000000 F F F Cr
   0.6275900000000000    0.1283700000000000    0.0165700000000000 F F F Cr
   0.1275900000000000    0.2533700000000000    0.0945000000000000 F F F Cr
   0.1275900000000000    0.5033700000000000    0.0945000000000000 F F F Cr
   0.6275900000000000    0.8783700000000000    0.0165700000000000 F F F Cr
   0.6275900000000000    0.6283700000000000    0.0165700000000000 F F F Cr
   0.1275900000000000    0.7533700000000000    0.0945000000000000 F F F Cr
   0.1373800000000000    0.7201700000000000    0.8004200000000000 F F F Fe
   0.6373799999999999    0.5560300000000000    0.7875000000000000 F F F Fe
   0.6373799999999999    0.7408800000000000    0.7479900000000000 F F F Fe
   0.1373800000000000    0.5767400000000000    0.7350800000000000 F F F Fe
   0.1373800000000000    0.3919000000000000    0.7745900000000000 F F F Fe
   0.6373799999999999    0.2277600000000000    0.7616700000000000 F F F Fe
   0.6373799999999999    0.4126100000000000    0.7221600000000000 F F F Fe
   0.1373800000000000    0.2484800000000000    0.7092500000000000 F F F Fe
   0.1373800000000000    0.0636300000000000    0.7487600000000000 F F F Fe
   0.6373799999999999    0.8994900000000000    0.7358400000000000 F F F Fe
   0.6373799999999999    0.0843400000000000    0.6963300000000000 F F F Fe
   0.1373800000000000    0.9202100000000000    0.6834200000000000 F F F Fe
   0.1373800000000000    0.7615900000000000    0.6955600000000000 F F F Fe
   0.6373799999999999    0.5974600000000000    0.6826500000000000 F F F Fe
   0.6373799999999999    0.7823099999999999    0.6431400000000000 F F F Fe
   0.1373800000000000    0.6181700000000000    0.6302200000000000 F F F Fe
   0.1373800000000000    0.4333200000000000    0.6697300000000000 F F F Fe
   0.6373799999999999    0.2691900000000000    0.6568200000000000 F F F Fe
   0.6373799999999999    0.4540400000000000    0.6173100000000000 F F F Fe
   0.1373800000000000    0.2899000000000000    0.6043900000000000 F F F Fe
   0.1373800000000000    0.1050500000000000    0.6439000000000000 F F F Fe
   0.6373799999999999    0.9409200000000000    0.6309900000000001 F F F Fe
   0.6373799999999999    0.1257700000000000    0.5914800000000000 F F F Fe
   0.1373800000000000    0.9616300000000000    0.5785600000000000 T T T Fe
   0.1373800000000000    0.8030200000000000    0.5907100000000000 F F F Fe
   0.6373799999999999    0.6388900000000000    0.5777900000000000 T T T Fe
   0.6373799999999999    0.8237400000000000    0.5382800000000000 T T T Fe
   0.1373800000000000    0.6596000000000000    0.5253700000000000 T T T Fe
   0.1373800000000000    0.4747500000000000    0.5648800000000000 T T T Fe
   0.6373799999999999    0.3106200000000000    0.5519600000000000 T T T Fe
   0.6373799999999999    0.4954700000000000    0.5124500000000000 T T T Fe
   0.1373800000000000    0.3313300000000000    0.4995400000000000 T T T Fe
   0.1373800000000000    0.1464800000000000    0.5390500000000000 T T T Fe
   0.6373799999999999    0.9823499999999999    0.5261300000000000 T T T Fe
   0.6373799999999999    0.1672000000000000    0.4866200000000000 T T T Fe
   0.1373800000000000    0.0030600000000000    0.4737100000000000 T T T Fe
   0.6440500000000000    0.3767200000000000    0.4060900000000000 T T T N
   0.1440500000000000    0.0017200000000000    0.3281600000000000 T T T N
   0.1440500000000000    0.2517200000000000    0.3281600000000000 T T T N
   0.6440500000000000    0.1267200000000000    0.4060900000000000 T T T N
   0.6440500000000000    0.3767200000000000    0.2502300000000000 T T T N
   0.1440500000000000    0.0017200000000000    0.1723100000000000 F F F N
   0.1440500000000000    0.2517200000000000    0.1723100000000000 F F F N
   0.6440500000000000    0.1267200000000000    0.2502300000000000 T T T N
   0.6440500000000000    0.8767200000000001    0.4060900000000000 T T T N
   0.1440500000000000    0.5017200000000001    0.3281600000000000 T T T N
   0.1440500000000000    0.7517200000000001    0.3281600000000000 T T T N
   0.6440500000000000    0.6267200000000001    0.4060900000000000 T T T N
   0.6440500000000000    0.8767200000000001    0.2502300000000000 T T T N
   0.1440500000000000    0.5017200000000001    0.1723100000000000 F F F N
   0.1440500000000000    0.7517200000000001    0.1723100000000000 F F F N
   0.6440500000000000    0.6267200000000001    0.2502300000000000 T T T N
   0.6275900000000000    0.3783700000000000    0.0945000000000000 F F F N
   0.1275900000000000    0.0033700000000000    0.0165700000000000 F F F N
   0.1275900000000000    0.2533700000000000    0.0165700000000000 F F F N
   0.6275900000000000    0.1283700000000000    0.0945000000000000 F F F N
   0.6275900000000000    0.8783700000000000    0.0945000000000000 F F F N
   0.1275900000000000    0.5033700000000000    0.0165700000000000 F F F N
   0.1275900000000000    0.7533700000000000    0.0165700000000000 F F F N
   0.6275900000000000    0.6283700000000000    0.0945000000000000 F F F N
