Cr16 Fe36 N16
1.0
  -0.0000000000000006   -3.5061499999999999   -0.0000000000000002
 -12.0001999999999995    0.0000000000000000   -0.0000000000000007
   0.0000000000000000    0.0000000000000000  -26.8899000000000008
Cr Fe N
16 36 16
Selective dynamics
direct
   0.0000000000000000    0.0000000000000000    0.7662200000000000 T T T Cr
   0.0000000000000000    0.7500000000000000    0.7662200000000000 T T T Cr
   0.5000000000000000    0.8750000000000000    0.8441500000000000 T T T Cr
   0.5000000000000000    0.6250000000000000    0.8441500000000001 T T T Cr
   0.0000000000000000    0.0000000000000000    0.9220699999999999 F F F Cr
   0.0000000000000000    0.7500000000000000    0.9220699999999999 F F F Cr
   0.5000000000000000    0.8750000000000000    0.0000000000000000 F F F Cr
   0.5000000000000000    0.6250000000000000    0.0000000000000000 F F F Cr
   0.0000000000000000    0.5000000000000000    0.7662200000000000 T T T Cr
   0.0000000000000000    0.2500000000000000    0.7662200000000000 T T T Cr
   0.5000000000000000    0.3750000000000000    0.8441500000000000 T T T Cr
   0.5000000000000000    0.1250000000000001    0.8441500000000000 T T T Cr
   0.0000000000000000    0.5000000000000000    0.9220699999999999 F F F Cr
   0.0000000000000000    0.2500000000000000    0.9220699999999999 F F F Cr
   0.5000000000000000    0.3750000000000000    0.0000000000000000 F F F Cr
   0.5000000000000000    0.1250000000000001    0.0000000000000000 F F F Cr
   0.0066800000000000    0.2815600000000000    0.3718900000000001 F F F Fe
   0.5066800000000000    0.4456900000000000    0.3848000000000000 F F F Fe
   0.5066800000000000    0.2608400000000000    0.4243200000000000 F F F Fe
   0.0066800000000000    0.4249799999999999    0.4372300000000000 F F F Fe
   0.0066800000000000    0.6098300000000000    0.3977200000000000 F F F Fe
   0.5066800000000000    0.7739600000000000    0.4106300000000001 F F F Fe
   0.5066800000000000    0.5891100000000000    0.4501500000000001 F F F Fe
   0.0066800000000000    0.7532500000000001    0.4630600000000000 F F F Fe
   0.0066800000000000    0.9381000000000000    0.4235500000000000 F F F Fe
   0.5066800000000000    0.1022300000000002    0.4364600000000000 F F F Fe
   0.5066800000000000    0.9173800000000000    0.4759800000000000 F F F Fe
   0.0066800000000000    0.0815200000000000    0.4888900000000000 F F F Fe
   0.0066800000000000    0.2401300000000000    0.4767400000000001 F F F Fe
   0.5066800000000000    0.4042700000000000    0.4896600000000000 F F F Fe
   0.5066800000000000    0.2194199999999999    0.5291700000000000 T T T Fe
   0.0066800000000000    0.3835499999999998    0.5420900000000001 T T T Fe
   0.0066800000000000    0.5684000000000000    0.5025700000000000 F F F Fe
   0.5066800000000000    0.7325400000000000    0.5154900000000000 F F F Fe
   0.5066800000000000    0.5476900000000000    0.5549999999999999 T T T Fe
   0.0066800000000000    0.7118200000000001    0.5679200000000000 T T T Fe
   0.0066800000000000    0.8966700000000000    0.5284000000000000 T T T Fe
   0.5066800000000000    0.0608000000000001    0.5413200000000000 T T T Fe
   0.5066800000000000    0.8759600000000001    0.5808300000000000 T T T Fe
   0.0066800000000000    0.0400900000000000    0.5937500000000000 T T T Fe
   0.0066800000000000    0.1987000000000000    0.5816000000000001 T T T Fe
   0.5066800000000000    0.3628400000000002    0.5945100000000000 T T T Fe
   0.5066800000000000    0.1779900000000001    0.6340300000000000 T T T Fe
   0.0066800000000000    0.3421200000000000    0.6469400000000000 T T T Fe
   0.0066800000000000    0.5269699999999999    0.6074300000000000 T T T Fe
   0.5066800000000000    0.6911099999999999    0.6203400000000000 T T T Fe
   0.5066800000000000    0.5062599999999999    0.6598600000000001 T T T Fe
   0.0066800000000000    0.6703900000000000    0.6727699999999999 T T T Fe
   0.0066800000000000    0.8552400000000000    0.6332599999999999 T T T Fe
   0.5066800000000000    0.0193800000000000    0.6461700000000001 T T T Fe
   0.5066800000000000    0.8345300000000000    0.6856900000000000 T T T Fe
   0.0066800000000000    0.9986600000000000    0.6986000000000000 T T T Fe
   0.5000000000000000    0.8750000000000000    0.7662200000000000 T T T N
   0.5000000000000000    0.6250000000000000    0.7662200000000001 T T T N
   0.0000000000000000    0.0000000000000000    0.8441500000000000 T T T N
   0.0000000000000000    0.7500000000000000    0.8441500000000000 T T T N
   0.5000000000000000    0.8750000000000000    0.9220700000000001 F F F N
   0.5000000000000000    0.6250000000000000    0.9220699999999999 F F F N
   0.0000000000000000    0.0000000000000000    0.0000000000000000 F F F N
   0.0000000000000000    0.7500000000000000    0.0000000000000000 F F F N
   0.5000000000000000    0.3750000000000000    0.7662200000000000 T T T N
   0.5000000000000000    0.1250000000000001    0.7662200000000000 T T T N
   0.0000000000000000    0.5000000000000000    0.8441500000000000 T T T N
   0.0000000000000000    0.2500000000000000    0.8441500000000000 T T T N
   0.5000000000000000    0.3750000000000000    0.9220700000000001 F F F N
   0.5000000000000000    0.1250000000000001    0.9220699999999999 F F F N
   0.0000000000000000    0.5000000000000000    0.0000000000000000 F F F N
   0.0000000000000000    0.2500000000000000    0.0000000000000000 F F F N
