Cr30 Fe54 W6 N36
1.0
   3.0750000000000002    0.0000000000000000    0.0000000000000002
   0.0000000000000026   16.0000000000000000    0.0000000000000010
   0.0000000000000000    0.0000000000000000   45.0000000000000000
Cr Fe W N
30 54 6 36
Selective dynamics
direct
   0.3179800000000000    0.8541700000000000    0.1771300000000000 T T T Cr
   0.3171400000000000    0.9636600000000000    0.2258700000000000 T T T Cr
   0.8244300000000000    0.7978400000000000    0.2255100000000000 T T T Cr
   0.3327500000000000    0.5208500000000000    0.1771300000000000 T T T Cr
   0.3319100000000000    0.6303400000000000    0.2258700000000000 T T T Cr
   0.8252699999999999    0.6883500000000000    0.1767800000000000 T T T Cr
   0.8391900000000000    0.4645200000000000    0.2255100000000000 T T T Cr
   0.3475200000000000    0.1875300000000000    0.1771300000000000 T T T Cr
   0.3466800000000000    0.2970200000000000    0.2258700000000000 T T T Cr
   0.8400400000000000    0.3550300000000000    0.1767700000000000 T T T Cr
   0.8539600000000001    0.1311900000000000    0.2255100000000000 T T T Cr
   0.3190500000000000    0.8541800000000001    0.0319500000000000 F F F Cr
   0.3182000000000000    0.9636700000000000    0.0806900000000000 F F F Cr
   0.8254899999999999    0.7978400000000000    0.0803300000000000 F F F Cr
   0.3320900000000000    0.7398700000000000    0.1283800000000000 F F F Cr
   0.8246500000000000    0.9073300000000000    0.1290700000000000 F F F Cr
   0.3338200000000000    0.5208600000000000    0.0319500000000000 F F F Cr
   0.3329700000000000    0.6303500000000000    0.0806900000000000 F F F Cr
   0.8263400000000000    0.6883500000000000    0.0316000000000000 F F F Cr
   0.8402600000000000    0.4645200000000000    0.0803300000000000 F F F Cr
   0.3468600000000000    0.4065500000000000    0.1283800000000000 F F F Cr
   0.8394100000000000    0.5740100000000000    0.1290700000000000 F F F Cr
   0.3485900000000000    0.1875400000000000    0.0319500000000000 F F F Cr
   0.3477400000000000    0.2970300000000000    0.0806900000000000 F F F Cr
   0.8411000000000000    0.3550300000000000    0.0315900000000000 F F F Cr
   0.8550300000000000    0.1312000000000000    0.0803300000000000 F F F Cr
   0.3616200000000000    0.0732300000000000    0.1283800000000000 F F F Cr
   0.8541800000000001    0.2406900000000000    0.1290700000000000 F F F Cr
   0.8400400000000000    0.0233600000000000    0.1767700000000000 T T T Cr
   0.8411000000000000    0.0233700000000000    0.0315900000000000 F F F Cr
   0.3530400000000000    0.0286600000000000    0.3510200000000000 T T T Fe
   0.3478800000000000    0.1409000000000000    0.3982200000000000 T T T Fe
   0.3467900000000000    0.0900100000000000    0.4778400000000000 T T T Fe
   0.3427100000000000    0.2531300000000000    0.4454300000000000 T T T Fe
   0.3457200000000000    0.0391300000000000    0.5574500000000000 F F F Fe
   0.3416300000000000    0.2022400000000000    0.5250500000000000 F F F Fe
   0.3375500000000000    0.3653700000000000    0.4926400000000000 T T T Fe
   0.3489500000000000    0.1917800000000000    0.3186100000000000 T T T Fe
   0.3437800000000000    0.3040200000000000    0.3658200000000000 T T T Fe
   0.3396900000000000    0.4671400000000000    0.3334200000000000 T T T Fe
   0.3386200000000000    0.4162500000000000    0.4130200000000000 T T T Fe
   0.3345300000000000    0.5793800000000000    0.3806200000000000 T T T Fe
   0.3304300000000000    0.7425000000000000    0.3482200000000000 T T T Fe
   0.3334500000000000    0.5284799999999999    0.4602400000000000 T T T Fe
   0.3293600000000000    0.6916099999999999    0.4278300000000000 T T T Fe
   0.3252700000000000    0.8547400000000001    0.3954200000000000 T T T Fe
   0.3405600000000000    0.1513600000000000    0.6046600000000000 F F F Fe
   0.3364600000000000    0.3144800000000000    0.5722500000000000 F F F Fe
   0.3323800000000000    0.4776000000000000    0.5398500000000001 F F F Fe
   0.3272200000000000    0.5898400000000000    0.5870600000000000 F F F Fe
   0.3282900000000000    0.6407200000000000    0.5074400000000000 F F F Fe
   0.3242000000000000    0.8038500000000000    0.4750400000000000 T T T Fe
   0.3201000000000000    0.9669700000000000    0.4426300000000000 T T T Fe
   0.3231200000000000    0.7529500000000000    0.5546500000000000 F F F Fe
   0.3190300000000000    0.9160800000000000    0.5222500000000000 F F F Fe
   0.3179600000000000    0.8652000000000000    0.6018600000000000 F F F Fe
   0.8304500000000000    0.1161200000000000    0.4380900000000000 T T T Fe
   0.8293800000000000    0.0652400000000000    0.5177000000000000 F F F Fe
   0.8252900000000000    0.2283500000000000    0.4853000000000000 T T T Fe
   0.8366900000000000    0.0547800000000000    0.3112700000000000 T T T Fe
   0.8315300000000000    0.1670100000000000    0.3584700000000000 T T T Fe
   0.8274300000000000    0.3301300000000000    0.3260700000000000 T T T Fe
   0.8263600000000000    0.2792400000000000    0.4056800000000000 T T T Fe
   0.8222699999999999    0.4423600000000000    0.3732800000000000 T T T Fe
   0.8181900000000000    0.6054900000000000    0.3408700000000000 T T T Fe
   0.8212000000000000    0.3914800000000000    0.4528900000000000 T T T Fe
   0.8171000000000000    0.5546000000000000    0.4204800000000000 T T T Fe
   0.8130200000000000    0.7177200000000000    0.3880800000000000 T T T Fe
   0.8089300000000000    0.8808500000000000    0.3556700000000000 T T T Fe
   0.8283100000000000    0.0143500000000000    0.5973200000000000 F F F Fe
   0.8242200000000000    0.1774700000000000    0.5649200000000000 F F F Fe
   0.8201200000000000    0.3405900000000000    0.5325000000000000 F F F Fe
   0.8149600000000000    0.4528200000000000    0.5797200000000000 F F F Fe
   0.8160300000000000    0.5037100000000000    0.5001000000000000 T T T Fe
   0.8119400000000000    0.6668300000000000    0.4677000000000000 T T T Fe
   0.8078600000000000    0.8299600000000000    0.4352800000000000 T T T Fe
   0.8030800000000000    0.0063900000000000    0.3902300000000000 T T T Fe
   0.8108700000000000    0.6159500000000000    0.5473000000000000 F F F Fe
   0.8067700000000000    0.7790700000000000    0.5149000000000000 F F F Fe
   0.8026900000000000    0.9421900000000000    0.4825000000000000 T T T Fe
   0.8057000000000000    0.7281800000000000    0.5945200000000000 F F F Fe
   0.8016100000000000    0.8913000000000000    0.5621100000000000 F F F Fe
   0.3238700000000000    0.9110900000000000    0.3161700000000000 T T T Fe
   0.8118500000000000    0.7695300000000000    0.3084300000000000 T T T Fe
   0.3310200000000000    0.7398700000000000    0.2735600000000000 T T T W
   0.8235800000000000    0.9073300000000000    0.2742500000000000 T T T W
   0.3457900000000000    0.4065500000000000    0.2735600000000000 T T T W
   0.8383500000000000    0.5740100000000000    0.2742500000000000 T T T W
   0.3605600000000000    0.0732200000000000    0.2735600000000000 T T T W
   0.8531200000000000    0.2406800000000000    0.2742500000000000 T T T W
   0.8174800000000000    0.9097300000000000    0.2016700000000000 T T T N
   0.3249200000000000    0.7422700000000000    0.2009700000000000 T T T N
   0.3240800000000000    0.8517600000000000    0.2497100000000000 T T T N
   0.8315900000000001    0.7954300000000000    0.1529200000000000 F F F N
   0.3243000000000000    0.9612600000000000    0.1532700000000000 F F F N
   0.8322500000000000    0.5764100000000000    0.2016700000000000 T T T N
   0.8313700000000001    0.6859400000000000    0.2493600000000000 T T T N
   0.3396900000000000    0.4089500000000000    0.2009700000000000 T T T N
   0.3388500000000000    0.5184400000000000    0.2497100000000000 T T T N
   0.8463600000000000    0.4621100000000000    0.1529200000000000 F F F N
   0.3390700000000000    0.6279400000000001    0.1532700000000000 F F F N
   0.8470200000000000    0.2430900000000000    0.2016700000000000 T T T N
   0.8461400000000000    0.3526200000000000    0.2493600000000000 T T T N
   0.3544600000000000    0.0756300000000000    0.2009700000000000 T T T N
   0.3536200000000000    0.1851200000000000    0.2497100000000000 T T T N
   0.8611300000000000    0.1287900000000000    0.1529200000000000 F F F N
   0.3538400000000000    0.2946200000000000    0.1532700000000000 F F F N
   0.8185500000000000    0.9097400000000000    0.0564900000000000 F F F N
   0.3259900000000000    0.7422800000000001    0.0557900000000000 F F F N
   0.3251400000000000    0.8517700000000000    0.1045300000000000 F F F N
   0.8326500000000000    0.7954400000000000    0.0077400000000000 F F F N
   0.3253600000000000    0.9612700000000000    0.0080900000000000 F F F N
   0.8333199999999999    0.5764200000000000    0.0564900000000000 F F F N
   0.8324300000000000    0.6859400000000000    0.1041800000000000 F F F N
   0.3407600000000000    0.4089600000000000    0.0557900000000000 F F F N
   0.3399100000000000    0.5184500000000000    0.1045300000000000 F F F N
   0.8474200000000000    0.4621200000000000    0.0077400000000000 F F F N
   0.3401300000000000    0.6279400000000001    0.0080900000000000 F F F N
   0.8480900000000000    0.2431000000000000    0.0564900000000000 F F F N
   0.8472000000000000    0.3526200000000000    0.1041800000000000 F F F N
   0.3555300000000000    0.0756400000000000    0.0557900000000000 F F F N
   0.3546800000000000    0.1851300000000000    0.1045300000000000 F F F N
   0.8621900000000000    0.1288000000000000    0.0077400000000000 F F F N
   0.3549000000000000    0.2946200000000000    0.0080900000000000 F F F N
   0.8461400000000000    0.0209600000000000    0.2493600000000000 T T T N
   0.8472000000000000    0.0209600000000000    0.1041800000000000 F F F N
