Ti66 Mo1
1.0
6.309760 0.000000 0.000000
0.000000 9.464640 0.000000
0.000000 0.000000 18.918326
Ti Mo
66 1
Selective dynamics
direct
0.627679 0.041672 0.499204 F F F Ti
0.629538 0.041624 0.658309 F F F Ti
0.125114 0.041626 0.816567 F F F Ti
0.625260 0.041607 0.816957 F F F Ti
0.125589 0.376018 0.499451 F F F Ti
0.625227 0.378635 0.498374 F F F Ti
0.125692 0.376274 0.658415 F F F Ti
0.625770 0.377339 0.659422 F F F Ti
0.125383 0.374748 0.817191 F F F Ti
0.625103 0.374976 0.817458 F F F Ti
0.125323 0.707165 0.499506 F F F Ti
0.624819 0.705107 0.498313 F F F Ti
0.125410 0.706662 0.658465 F F F Ti
0.625372 0.705992 0.659442 F F F Ti
0.125290 0.708365 0.817212 F F F Ti
0.625082 0.708236 0.817468 F F F Ti
0.389104 0.215430 0.577965 F F F Ti
0.859291 0.217913 0.577584 F F F Ti
0.376101 0.208537 0.737560 F F F Ti
0.874435 0.209261 0.737970 F F F Ti
0.374920 0.208028 0.896281 F F F Ti
0.875303 0.208094 0.896355 F F F Ti
0.375636 0.541404 0.579159 F F F Ti
0.875144 0.541291 0.579131 F F F Ti
0.374847 0.541501 0.738261 F F F Ti
0.875880 0.541351 0.738354 F F F Ti
0.374933 0.541604 0.896549 F F F Ti
0.875306 0.541578 0.896565 F F F Ti
0.388397 0.868134 0.578061 F F F Ti
0.859670 0.865487 0.577735 F F F Ti
0.375922 0.874712 0.737525 F F F Ti
0.874453 0.873950 0.737931 F F F Ti
0.374887 0.875184 0.896261 F F F Ti
0.875294 0.875139 0.896341 F F F Ti
0.124968 0.625072 0.356362 F F F Ti
0.625045 0.625030 0.355955 F F F Ti
0.124942 0.625120 0.118850 F F F Ti
0.624857 0.625096 0.118825 F F F Ti
0.125012 0.124876 0.356931 F F F Ti
0.625211 0.125019 0.356475 F F F Ti
0.124996 0.124930 0.118951 F F F Ti
0.624849 0.124943 0.118905 F F F Ti
0.124995 0.374864 0.039495 F F F Ti
0.624902 0.374880 0.039524 F F F Ti
0.124978 0.875120 0.039450 F F F Ti
0.624858 0.875103 0.039490 F F F Ti
0.124958 0.374887 0.277172 F F F Ti
0.625001 0.374898 0.277069 F F F Ti
0.125020 0.875117 0.277423 F F F Ti
0.624955 0.875084 0.277300 F F F Ti
0.374919 0.875068 0.158452 F F F Ti
0.875019 0.875071 0.158442 F F F Ti
0.374933 0.374941 0.158375 F F F Ti
0.875065 0.374939 0.158351 F F F Ti
0.374740 0.375002 0.395758 F F F Ti
0.875597 0.375159 0.395712 F F F Ti
0.374947 0.875097 0.396356 F F F Ti
0.875346 0.874811 0.396185 F F F Ti
0.374832 0.625075 0.237559 F F F Ti
0.875121 0.625058 0.237542 F F F Ti
0.374913 0.625105 -0.000004 F F F Ti
0.875028 0.625097 0.000008 F F F Ti
0.374856 0.124935 0.237798 F F F Ti
0.875169 0.124932 0.237765 F F F Ti
0.374892 0.124933 -0.000133 F F F Ti
0.875064 0.124922 -0.000094 F F F Ti
0.113839 0.042674 0.615299 T T T Mo

0.000000 0.000000 0.000000
0.000000 0.000000 0.000000
0.000000 0.000000 0.000000
0.000000 0.000000 0.000000
0.000000 0.000000 0.000000
0.000000 0.000000 0.000000
0.000000 0.000000 0.000000
0.000000 0.000000 0.000000
0.000000 0.000000 0.000000
0.000000 0.000000 0.000000
0.000000 0.000000 0.000000
0.000000 0.000000 0.000000
0.000000 0.000000 0.000000
0.000000 0.000000 0.000000
0.000000 0.000000 0.000000
0.000000 0.000000 0.000000
0.000000 0.000000 0.000000
0.000000 0.000000 0.000000
0.000000 0.000000 0.000000
0.000000 0.000000 0.000000
0.000000 0.000000 0.000000
0.000000 0.000000 0.000000
0.000000 0.000000 0.000000
0.000000 0.000000 0.000000
0.000000 0.000000 0.000000
0.000000 0.000000 0.000000
0.000000 0.000000 0.000000
0.000000 0.000000 0.000000
0.000000 0.000000 0.000000
0.000000 0.000000 0.000000
0.000000 0.000000 0.000000
0.000000 0.000000 0.000000
0.000000 0.000000 0.000000
0.000000 0.000000 0.000000
0.000000 0.000000 0.000000
0.000000 0.000000 0.000000
0.000000 0.000000 0.000000
0.000000 0.000000 0.000000
0.000000 0.000000 0.000000
0.000000 0.000000 0.000000
0.000000 0.000000 0.000000
0.000000 0.000000 0.000000
0.000000 0.000000 0.000000
0.000000 0.000000 0.000000
0.000000 0.000000 0.000000
0.000000 0.000000 0.000000
0.000000 0.000000 0.000000
0.000000 0.000000 0.000000
0.000000 0.000000 0.000000
0.000000 0.000000 0.000000
0.000000 0.000000 0.000000
0.000000 0.000000 0.000000
0.000000 0.000000 0.000000
0.000000 0.000000 0.000000
0.000000 0.000000 0.000000
0.000000 0.000000 0.000000
0.000000 0.000000 0.000000
0.000000 0.000000 0.000000
0.000000 0.000000 0.000000
0.000000 0.000000 0.000000
0.000000 0.000000 0.000000
0.000000 0.000000 0.000000
0.000000 0.000000 0.000000
0.000000 0.000000 0.000000
0.000000 0.000000 0.000000
0.000000 0.000000 0.000000
0.000000 0.000000 0.000000
