Ti66 Al1
1.0
6.309760 0.000000 0.000000
0.000000 9.464640 0.000000
0.000000 0.000000 18.918326
Ti Al
66 1
Selective dynamics
direct
0.629825 0.041671 0.499757 F F F Ti
0.628557 0.041609 0.658979 F F F Ti
0.125115 0.041642 0.816824 F F F Ti
0.625178 0.041625 0.817216 F F F Ti
0.125535 0.376475 0.499792 F F F Ti
0.625553 0.378846 0.498501 F F F Ti
0.125765 0.376042 0.658857 F F F Ti
0.625605 0.378257 0.660188 F F F Ti
0.125283 0.374722 0.817404 F F F Ti
0.625094 0.374911 0.817666 F F F Ti
0.125257 0.706644 0.499818 F F F Ti
0.625164 0.704856 0.498425 F F F Ti
0.125487 0.706911 0.658893 F F F Ti
0.625180 0.705234 0.660183 F F F Ti
0.125181 0.708466 0.817433 F F F Ti
0.625081 0.708383 0.817685 F F F Ti
0.393582 0.217799 0.579520 F F F Ti
0.854336 0.220775 0.579683 F F F Ti
0.375448 0.208289 0.737804 F F F Ti
0.875211 0.208731 0.738106 F F F Ti
0.374908 0.208069 0.896455 F F F Ti
0.875256 0.208108 0.896508 F F F Ti
0.375661 0.541341 0.579421 F F F Ti
0.875148 0.541222 0.579446 F F F Ti
0.374547 0.541550 0.738605 F F F Ti
0.876161 0.541400 0.738703 F F F Ti
0.374936 0.541614 0.896699 F F F Ti
0.875229 0.541591 0.896717 F F F Ti
0.392578 0.865834 0.579519 F F F Ti
0.855049 0.862694 0.579719 F F F Ti
0.375293 0.874977 0.737761 F F F Ti
0.875222 0.874500 0.738060 F F F Ti
0.374882 0.875176 0.896440 F F F Ti
0.875245 0.875152 0.896498 F F F Ti
0.125033 0.625060 0.356527 F F F Ti
0.625080 0.625027 0.356102 F F F Ti
0.124944 0.625106 0.118950 F F F Ti
0.624872 0.625085 0.118926 F F F Ti
0.125065 0.124862 0.357232 F F F Ti
0.625353 0.124975 0.356759 F F F Ti
0.124998 0.124927 0.119068 F F F Ti
0.624868 0.124940 0.119025 F F F Ti
0.124977 0.374850 0.039587 F F F Ti
0.624879 0.374869 0.039625 F F F Ti
0.124963 0.875116 0.039547 F F F Ti
0.624838 0.875097 0.039596 F F F Ti
0.125004 0.374873 0.277335 F F F Ti
0.625039 0.374875 0.277223 F F F Ti
0.125084 0.875144 0.277625 F F F Ti
0.624994 0.875110 0.277482 F F F Ti
0.374918 0.875078 0.158588 F F F Ti
0.875052 0.875078 0.158578 F F F Ti
0.374927 0.374929 0.158500 F F F Ti
0.875067 0.374930 0.158470 F F F Ti
0.374774 0.375023 0.395981 F F F Ti
0.875647 0.375232 0.395902 F F F Ti
0.375073 0.875128 0.396686 F F F Ti
0.875339 0.874691 0.396431 F F F Ti
0.374856 0.625083 0.237687 F F F Ti
0.875149 0.625057 0.237669 F F F Ti
0.374911 0.625091 0.000123 F F F Ti
0.875007 0.625093 0.000133 F F F Ti
0.374861 0.124928 0.237977 F F F Ti
0.875214 0.124928 0.237934 F F F Ti
0.374911 0.124936 0.000015 F F F Ti
0.875036 0.124927 0.000043 F F F Ti
0.112716 0.043033 0.575875 T T T Al

0.000000 0.000000 0.000000
0.000000 0.000000 0.000000
0.000000 0.000000 0.000000
0.000000 0.000000 0.000000
0.000000 0.000000 0.000000
0.000000 0.000000 0.000000
0.000000 0.000000 0.000000
0.000000 0.000000 0.000000
0.000000 0.000000 0.000000
0.000000 0.000000 0.000000
0.000000 0.000000 0.000000
0.000000 0.000000 0.000000
0.000000 0.000000 0.000000
0.000000 0.000000 0.000000
0.000000 0.000000 0.000000
0.000000 0.000000 0.000000
0.000000 0.000000 0.000000
0.000000 0.000000 0.000000
0.000000 0.000000 0.000000
0.000000 0.000000 0.000000
0.000000 0.000000 0.000000
0.000000 0.000000 0.000000
0.000000 0.000000 0.000000
0.000000 0.000000 0.000000
0.000000 0.000000 0.000000
0.000000 0.000000 0.000000
0.000000 0.000000 0.000000
0.000000 0.000000 0.000000
0.000000 0.000000 0.000000
0.000000 0.000000 0.000000
0.000000 0.000000 0.000000
0.000000 0.000000 0.000000
0.000000 0.000000 0.000000
0.000000 0.000000 0.000000
0.000000 0.000000 0.000000
0.000000 0.000000 0.000000
0.000000 0.000000 0.000000
0.000000 0.000000 0.000000
0.000000 0.000000 0.000000
0.000000 0.000000 0.000000
0.000000 0.000000 0.000000
0.000000 0.000000 0.000000
0.000000 0.000000 0.000000
0.000000 0.000000 0.000000
0.000000 0.000000 0.000000
0.000000 0.000000 0.000000
0.000000 0.000000 0.000000
0.000000 0.000000 0.000000
0.000000 0.000000 0.000000
0.000000 0.000000 0.000000
0.000000 0.000000 0.000000
0.000000 0.000000 0.000000
0.000000 0.000000 0.000000
0.000000 0.000000 0.000000
0.000000 0.000000 0.000000
0.000000 0.000000 0.000000
0.000000 0.000000 0.000000
0.000000 0.000000 0.000000
0.000000 0.000000 0.000000
0.000000 0.000000 0.000000
0.000000 0.000000 0.000000
0.000000 0.000000 0.000000
0.000000 0.000000 0.000000
0.000000 0.000000 0.000000
0.000000 0.000000 0.000000
0.000000 0.000000 0.000000
0.000000 0.000000 0.000000
