Ti66 Nb1
1.0
6.309760 0.000000 0.000000
0.000000 9.464640 0.000000
0.000000 0.000000 18.918326
Ti Nb
66 1
Selective dynamics
direct
0.123699 0.040927 0.499325 F F F Ti
0.625217 0.041479 0.499905 F F F Ti
0.626834 0.041109 0.658853 F F F Ti
0.124979 0.041654 0.817179 F F F Ti
0.625124 0.041608 0.817229 F F F Ti
0.124755 0.375187 0.499924 F F F Ti
0.624853 0.375028 0.499988 F F F Ti
0.124140 0.376090 0.658830 F F F Ti
0.625149 0.375167 0.658652 F F F Ti
0.124926 0.375079 0.817224 F F F Ti
0.625121 0.375098 0.817229 F F F Ti
0.124925 0.708200 0.499960 F F F Ti
0.625082 0.708209 0.499951 F F F Ti
0.124970 0.708341 0.658587 F F F Ti
0.625083 0.708237 0.658606 F F F Ti
0.124998 0.708350 0.817174 F F F Ti
0.625014 0.708341 0.817185 F F F Ti
0.873332 0.208623 0.579157 F F F Ti
0.375589 0.208692 0.738451 F F F Ti
0.874923 0.208417 0.737936 F F F Ti
0.375006 0.208344 0.896495 F F F Ti
0.874991 0.208336 0.896464 F F F Ti
0.374999 0.541675 0.579290 F F F Ti
0.874846 0.541772 0.579267 F F F Ti
0.375055 0.541779 0.737917 F F F Ti
0.874872 0.541788 0.737930 F F F Ti
0.375003 0.541693 0.896464 F F F Ti
0.874990 0.541690 0.896466 F F F Ti
0.375464 0.873993 0.579153 F F F Ti
0.874937 0.874856 0.579259 F F F Ti
0.375076 0.874920 0.737910 F F F Ti
0.875171 0.874942 0.737899 F F F Ti
0.374998 0.874991 0.896458 F F F Ti
0.875014 0.874991 0.896457 F F F Ti
0.125010 0.624934 0.356806 F F F Ti
0.624947 0.624939 0.356801 F F F Ti
0.125003 0.624989 0.118943 F F F Ti
0.624991 0.624990 0.118943 F F F Ti
0.124983 0.125017 0.356725 F F F Ti
0.624975 0.124999 0.356772 F F F Ti
0.125001 0.124999 0.118943 F F F Ti
0.624990 0.124999 0.118943 F F F Ti
0.124995 0.375002 0.039652 F F F Ti
0.625002 0.375004 0.039654 F F F Ti
0.124997 0.874996 0.039648 F F F Ti
0.625002 0.874994 0.039650 F F F Ti
0.124995 0.375003 0.277499 F F F Ti
0.624987 0.374998 0.277500 F F F Ti
0.124995 0.874978 0.277489 F F F Ti
0.624989 0.874984 0.277491 F F F Ti
0.375001 0.874992 0.158573 F F F Ti
0.874995 0.874992 0.158571 F F F Ti
0.375000 0.375000 0.158575 F F F Ti
0.874998 0.375001 0.158574 F F F Ti
0.374989 0.374982 0.396432 F F F Ti
0.874920 0.375014 0.396410 F F F Ti
0.375052 0.874921 0.396387 F F F Ti
0.874873 0.874889 0.396370 F F F Ti
0.374998 0.624982 0.237870 F F F Ti
0.875002 0.624984 0.237868 F F F Ti
0.374998 0.624997 0.000007 F F F Ti
0.875004 0.624998 0.000008 F F F Ti
0.375007 0.124998 0.237856 F F F Ti
0.874982 0.124999 0.237852 F F F Ti
0.374999 0.124991 0.000020 F F F Ti
0.874995 0.124997 0.000012 F F F Ti
0.280843 0.145019 0.608703 T T T Nb

0.000000 0.000000 0.000000
0.000000 0.000000 0.000000
0.000000 0.000000 0.000000
0.000000 0.000000 0.000000
0.000000 0.000000 0.000000
0.000000 0.000000 0.000000
0.000000 0.000000 0.000000
0.000000 0.000000 0.000000
0.000000 0.000000 0.000000
0.000000 0.000000 0.000000
0.000000 0.000000 0.000000
0.000000 0.000000 0.000000
0.000000 0.000000 0.000000
0.000000 0.000000 0.000000
0.000000 0.000000 0.000000
0.000000 0.000000 0.000000
0.000000 0.000000 0.000000
0.000000 0.000000 0.000000
0.000000 0.000000 0.000000
0.000000 0.000000 0.000000
0.000000 0.000000 0.000000
0.000000 0.000000 0.000000
0.000000 0.000000 0.000000
0.000000 0.000000 0.000000
0.000000 0.000000 0.000000
0.000000 0.000000 0.000000
0.000000 0.000000 0.000000
0.000000 0.000000 0.000000
0.000000 0.000000 0.000000
0.000000 0.000000 0.000000
0.000000 0.000000 0.000000
0.000000 0.000000 0.000000
0.000000 0.000000 0.000000
0.000000 0.000000 0.000000
0.000000 0.000000 0.000000
0.000000 0.000000 0.000000
0.000000 0.000000 0.000000
0.000000 0.000000 0.000000
0.000000 0.000000 0.000000
0.000000 0.000000 0.000000
0.000000 0.000000 0.000000
0.000000 0.000000 0.000000
0.000000 0.000000 0.000000
0.000000 0.000000 0.000000
0.000000 0.000000 0.000000
0.000000 0.000000 0.000000
0.000000 0.000000 0.000000
0.000000 0.000000 0.000000
0.000000 0.000000 0.000000
0.000000 0.000000 0.000000
0.000000 0.000000 0.000000
0.000000 0.000000 0.000000
0.000000 0.000000 0.000000
0.000000 0.000000 0.000000
0.000000 0.000000 0.000000
0.000000 0.000000 0.000000
0.000000 0.000000 0.000000
0.000000 0.000000 0.000000
0.000000 0.000000 0.000000
0.000000 0.000000 0.000000
0.000000 0.000000 0.000000
0.000000 0.000000 0.000000
0.000000 0.000000 0.000000
0.000000 0.000000 0.000000
0.000000 0.000000 0.000000
0.000000 0.000000 0.000000
0.000000 0.000000 0.000000
