beta_Ti
1.0
8.805261 0.000000 0.000000
-4.402630 7.625580 0.000000
0.000000 0.000000 32.288801
Ti
36
direct
0.055556 0.944452 0.492181 Ti
0.055556 0.444452 0.492181 Ti
0.555556 0.944452 0.492181 Ti
0.555556 0.444452 0.492181 Ti
0.222223 0.277785 0.692630 Ti
0.222223 0.777785 0.692630 Ti
0.722223 0.277785 0.692630 Ti
0.722223 0.777785 0.692630 Ti
0.388889 0.111119 0.721265 Ti
0.388889 0.611119 0.721265 Ti
0.888889 0.111119 0.721265 Ti
0.888889 0.611119 0.721265 Ti
0.222223 0.277785 0.520816 Ti
0.222223 0.777785 0.520816 Ti
0.722223 0.277785 0.520816 Ti
0.722223 0.777785 0.520816 Ti
0.388889 0.111119 0.549452 Ti
0.388889 0.611119 0.549452 Ti
0.888889 0.111119 0.549452 Ti
0.888889 0.611119 0.549452 Ti
0.055556 0.944452 0.578087 Ti
0.055556 0.444452 0.578087 Ti
0.555556 0.944452 0.578087 Ti
0.555556 0.444452 0.578087 Ti
0.222223 0.277785 0.606723 Ti
0.222223 0.777785 0.606723 Ti
0.722223 0.277785 0.606723 Ti
0.722223 0.777785 0.606723 Ti
0.388889 0.111119 0.635358 Ti
0.388889 0.611119 0.635358 Ti
0.888889 0.111119 0.635358 Ti
0.888889 0.611119 0.635358 Ti
0.055556 0.944452 0.663994 Ti
0.055556 0.444452 0.663994 Ti
0.555556 0.944452 0.663994 Ti
0.555556 0.444452 0.663994 Ti
