beta_Ti
1.0
8.805261 0.000000 0.000000
-4.402631 7.625580 0.000000
0.000000 0.000000 35.883422
Ti
36
direct
0.083333 0.916670 0.556986 Ti
0.083333 0.416670 0.556986 Ti
0.583333 0.916670 0.556986 Ti
0.583333 0.416670 0.556986 Ti
0.250000 0.250004 0.737354 Ti
0.250000 0.750004 0.737354 Ti
0.750000 0.250004 0.737354 Ti
0.750000 0.750004 0.737354 Ti
0.416667 0.083337 0.763121 Ti
0.416667 0.583337 0.763121 Ti
0.916667 0.083337 0.763121 Ti
0.916667 0.583337 0.763121 Ti
0.250000 0.250004 0.582753 Ti
0.250000 0.750004 0.582753 Ti
0.750000 0.250004 0.582753 Ti
0.750000 0.750004 0.582753 Ti
0.416667 0.083337 0.608520 Ti
0.416667 0.583337 0.608520 Ti
0.916667 0.083337 0.608520 Ti
0.916667 0.583337 0.608520 Ti
0.083333 0.916670 0.634286 Ti
0.083333 0.416670 0.634286 Ti
0.583333 0.916670 0.634286 Ti
0.583333 0.416670 0.634286 Ti
0.250000 0.250004 0.660053 Ti
0.250000 0.750004 0.660053 Ti
0.750000 0.250004 0.660053 Ti
0.750000 0.750004 0.660053 Ti
0.416667 0.083337 0.685820 Ti
0.416667 0.583337 0.685820 Ti
0.916667 0.083337 0.685820 Ti
0.916667 0.583337 0.685820 Ti
0.083333 0.916670 0.711587 Ti
0.083333 0.416670 0.711587 Ti
0.583333 0.916670 0.711587 Ti
0.583333 0.416670 0.711587 Ti
