Ti66 Mo1
1.0
6.309760 0.000000 0.000000
0.000000 9.464640 0.000000
0.000000 0.000000 18.918326
Ti Mo
66 1
Selective dynamics
direct
0.125157 0.042080 0.500019 F F F Ti
0.625478 0.041759 0.500034 F F F Ti
0.125113 0.041556 0.658650 F F F Ti
0.625082 0.041517 0.658664 F F F Ti
0.125055 0.041582 0.817049 F F F Ti
0.624938 0.041565 0.817068 F F F Ti
0.125464 0.376136 0.500985 F F F Ti
0.625372 0.375205 0.502414 F F F Ti
0.124970 0.375103 0.658897 F F F Ti
0.625078 0.375043 0.659069 F F F Ti
0.124985 0.375009 0.817117 F F F Ti
0.624903 0.375011 0.817158 F F F Ti
0.125185 0.707980 0.499810 F F F Ti
0.624269 0.709030 0.500149 F F F Ti
0.125006 0.708587 0.658646 F F F Ti
0.624876 0.708715 0.658732 F F F Ti
0.124991 0.708255 0.817085 F F F Ti
0.624890 0.708282 0.817116 F F F Ti
0.374937 0.208126 0.579645 F F F Ti
0.875379 0.208139 0.579735 F F F Ti
0.375018 0.208235 0.737947 F F F Ti
0.875014 0.208225 0.737971 F F F Ti
0.374987 0.208315 0.896250 F F F Ti
0.875034 0.208322 0.896218 F F F Ti
0.375136 0.542377 0.579883 F F F Ti
0.874982 0.542539 0.579929 F F F Ti
0.375004 0.541803 0.738012 F F F Ti
0.874957 0.541832 0.738028 F F F Ti
0.374947 0.541607 0.896394 F F F Ti
0.875012 0.541623 0.896375 F F F Ti
0.374840 0.875225 0.579266 F F F Ti
0.875222 0.875100 0.579288 F F F Ti
0.374966 0.875004 0.737882 F F F Ti
0.874999 0.874995 0.737889 F F F Ti
0.374979 0.874789 0.896288 F F F Ti
0.875068 0.874779 0.896262 F F F Ti
0.125630 0.624459 0.356874 F F F Ti
0.624910 0.626928 0.356530 F F F Ti
0.125321 0.623786 0.118979 F F F Ti
0.624785 0.624155 0.118921 F F F Ti
0.631309 0.125220 0.356765 F F F Ti
0.125422 0.123992 0.118386 F F F Ti
0.624929 0.124259 0.117051 F F F Ti
0.125207 0.374603 0.039517 F F F Ti
0.624842 0.374989 0.039286 F F F Ti
0.125117 0.874249 0.039284 F F F Ti
0.625006 0.874046 0.039079 F F F Ti
0.629588 0.374701 0.277479 F F F Ti
0.125378 0.873924 0.276938 F F F Ti
0.625513 0.872927 0.277390 F F F Ti
0.375521 0.873060 0.158004 F F F Ti
0.874832 0.872605 0.157794 F F F Ti
0.375663 0.373887 0.158580 F F F Ti
0.874549 0.374490 0.157918 F F F Ti
0.388436 0.381736 0.399541 F F F Ti
0.860916 0.384364 0.400468 F F F Ti
0.374742 0.876083 0.396205 F F F Ti
0.875933 0.874988 0.396350 F F F Ti
0.374381 0.622980 0.238031 F F F Ti
0.876141 0.623548 0.237919 F F F Ti
0.374850 0.624557 -0.000036 F F F Ti
0.875169 0.624575 -0.000052 F F F Ti
0.387440 0.120023 0.235164 F F F Ti
0.861140 0.118730 0.233701 F F F Ti
0.374740 0.124661 -0.000423 F F F Ti
0.875445 0.124661 -0.000456 F F F Ti
0.110850 0.242259 0.321645 T T T Mo

0.000000 0.000000 0.000000
0.000000 0.000000 0.000000
0.000000 0.000000 0.000000
0.000000 0.000000 0.000000
0.000000 0.000000 0.000000
0.000000 0.000000 0.000000
0.000000 0.000000 0.000000
0.000000 0.000000 0.000000
0.000000 0.000000 0.000000
0.000000 0.000000 0.000000
0.000000 0.000000 0.000000
0.000000 0.000000 0.000000
0.000000 0.000000 0.000000
0.000000 0.000000 0.000000
0.000000 0.000000 0.000000
0.000000 0.000000 0.000000
0.000000 0.000000 0.000000
0.000000 0.000000 0.000000
0.000000 0.000000 0.000000
0.000000 0.000000 0.000000
0.000000 0.000000 0.000000
0.000000 0.000000 0.000000
0.000000 0.000000 0.000000
0.000000 0.000000 0.000000
0.000000 0.000000 0.000000
0.000000 0.000000 0.000000
0.000000 0.000000 0.000000
0.000000 0.000000 0.000000
0.000000 0.000000 0.000000
0.000000 0.000000 0.000000
0.000000 0.000000 0.000000
0.000000 0.000000 0.000000
0.000000 0.000000 0.000000
0.000000 0.000000 0.000000
0.000000 0.000000 0.000000
0.000000 0.000000 0.000000
0.000000 0.000000 0.000000
0.000000 0.000000 0.000000
0.000000 0.000000 0.000000
0.000000 0.000000 0.000000
0.000000 0.000000 0.000000
0.000000 0.000000 0.000000
0.000000 0.000000 0.000000
0.000000 0.000000 0.000000
0.000000 0.000000 0.000000
0.000000 0.000000 0.000000
0.000000 0.000000 0.000000
0.000000 0.000000 0.000000
0.000000 0.000000 0.000000
0.000000 0.000000 0.000000
0.000000 0.000000 0.000000
0.000000 0.000000 0.000000
0.000000 0.000000 0.000000
0.000000 0.000000 0.000000
0.000000 0.000000 0.000000
0.000000 0.000000 0.000000
0.000000 0.000000 0.000000
0.000000 0.000000 0.000000
0.000000 0.000000 0.000000
0.000000 0.000000 0.000000
0.000000 0.000000 0.000000
0.000000 0.000000 0.000000
0.000000 0.000000 0.000000
0.000000 0.000000 0.000000
0.000000 0.000000 0.000000
0.000000 0.000000 0.000000
0.000000 0.000000 0.000000
