Ti72
1.0
8.805261 0.000000 0.000000
-4.402630 7.625579 0.000000
0.000000 0.000000 17.288801
Ti
72
direct
0.000000 0.000000 0.485397 Ti
1.000000 0.500000 0.485397 Ti
0.500000 0.000000 0.485397 Ti
0.500000 0.500000 0.485397 Ti
0.166667 0.333333 0.859758 Ti
0.166667 0.833333 0.859758 Ti
0.666667 0.333333 0.859758 Ti
0.666667 0.833333 0.859758 Ti
0.333333 0.166667 0.913238 Ti
0.333333 0.666667 0.913238 Ti
0.833333 0.166667 0.913238 Ti
0.833333 0.666667 0.913238 Ti
0.166667 0.333333 0.538877 Ti
0.166667 0.833333 0.538877 Ti
0.666667 0.333333 0.538877 Ti
0.666667 0.833333 0.538877 Ti
0.333333 0.166667 0.592357 Ti
0.333333 0.666667 0.592357 Ti
0.833333 0.166667 0.592357 Ti
0.833333 0.666667 0.592357 Ti
0.000000 0.000000 0.645837 Ti
1.000000 0.500000 0.645837 Ti
0.500000 0.000000 0.645837 Ti
0.500000 0.500000 0.645837 Ti
0.166667 0.333333 0.699317 Ti
0.166667 0.833333 0.699317 Ti
0.666667 0.333333 0.699317 Ti
0.666667 0.833333 0.699317 Ti
0.333333 0.166667 0.752797 Ti
0.333333 0.666667 0.752797 Ti
0.833333 0.166667 0.752797 Ti
0.833333 0.666667 0.752797 Ti
0.000000 0.000000 0.806277 Ti
1.000000 0.500000 0.806277 Ti
0.500000 0.000000 0.806277 Ti
0.500000 0.500000 0.806277 Ti
0.111111 0.888889 -0.000000 Ti
0.111111 0.888889 0.265757 Ti
0.111111 0.555556 -0.000000 Ti
0.222222 0.777778 0.132878 Ti
0.111111 0.555556 0.265757 Ti
0.444444 0.888889 -0.000000 Ti
0.111111 0.222222 -0.000000 Ti
0.222222 0.777778 0.398636 Ti
0.222222 0.444444 0.132878 Ti
0.444444 0.888889 0.265757 Ti
0.111111 0.222222 0.265757 Ti
0.444444 0.555556 -0.000000 Ti
0.222222 0.444444 0.398636 Ti
0.555556 0.777778 0.132878 Ti
0.222222 0.111111 0.132878 Ti
0.444444 0.555556 0.265757 Ti
0.777778 0.888889 -0.000000 Ti
0.444444 0.222222 -0.000000 Ti
0.555556 0.777778 0.398636 Ti
0.222222 0.111111 0.398636 Ti
0.555556 0.444444 0.132878 Ti
0.777778 0.888889 0.265757 Ti
0.444444 0.222222 0.265757 Ti
0.777778 0.555556 -0.000000 Ti
0.555556 0.444444 0.398636 Ti
0.888889 0.777778 0.132878 Ti
0.555556 0.111111 0.132878 Ti
0.777778 0.555556 0.265757 Ti
0.777778 0.222222 -0.000000 Ti
0.888889 0.777778 0.398636 Ti
0.555556 0.111111 0.398636 Ti
0.888889 0.444444 0.132878 Ti
0.777778 0.222222 0.265757 Ti
0.888889 0.444444 0.398636 Ti
0.888889 0.111111 0.132878 Ti
0.888889 0.111111 0.398636 Ti

0.000000 0.000000 0.000000
0.000000 0.000000 0.000000
0.000000 0.000000 0.000000
0.000000 0.000000 0.000000
0.000000 0.000000 0.000000
0.000000 0.000000 0.000000
0.000000 0.000000 0.000000
0.000000 0.000000 0.000000
0.000000 0.000000 0.000000
0.000000 0.000000 0.000000
0.000000 0.000000 0.000000
0.000000 0.000000 0.000000
0.000000 0.000000 0.000000
0.000000 0.000000 0.000000
0.000000 0.000000 0.000000
0.000000 0.000000 0.000000
0.000000 0.000000 0.000000
0.000000 0.000000 0.000000
0.000000 0.000000 0.000000
0.000000 0.000000 0.000000
0.000000 0.000000 0.000000
0.000000 0.000000 0.000000
0.000000 0.000000 0.000000
0.000000 0.000000 0.000000
0.000000 0.000000 0.000000
0.000000 0.000000 0.000000
0.000000 0.000000 0.000000
0.000000 0.000000 0.000000
0.000000 0.000000 0.000000
0.000000 0.000000 0.000000
0.000000 0.000000 0.000000
0.000000 0.000000 0.000000
0.000000 0.000000 0.000000
0.000000 0.000000 0.000000
0.000000 0.000000 0.000000
0.000000 0.000000 0.000000
0.000000 0.000000 0.000000
0.000000 0.000000 0.000000
0.000000 0.000000 0.000000
0.000000 0.000000 0.000000
0.000000 0.000000 0.000000
0.000000 0.000000 0.000000
0.000000 0.000000 0.000000
0.000000 0.000000 0.000000
0.000000 0.000000 0.000000
0.000000 0.000000 0.000000
0.000000 0.000000 0.000000
0.000000 0.000000 0.000000
0.000000 0.000000 0.000000
0.000000 0.000000 0.000000
0.000000 0.000000 0.000000
0.000000 0.000000 0.000000
0.000000 0.000000 0.000000
0.000000 0.000000 0.000000
0.000000 0.000000 0.000000
0.000000 0.000000 0.000000
0.000000 0.000000 0.000000
0.000000 0.000000 0.000000
0.000000 0.000000 0.000000
0.000000 0.000000 0.000000
0.000000 0.000000 0.000000
0.000000 0.000000 0.000000
0.000000 0.000000 0.000000
0.000000 0.000000 0.000000
0.000000 0.000000 0.000000
0.000000 0.000000 0.000000
0.000000 0.000000 0.000000
0.000000 0.000000 0.000000
0.000000 0.000000 0.000000
0.000000 0.000000 0.000000
0.000000 0.000000 0.000000
0.000000 0.000000 0.000000
