Ti36
1.0
8.805261 0.000000 0.000000
-4.402630 7.625579 0.000000
0.000000 0.000000 17.288801
Ti
36
direct
0.000000 0.000000 0.485397 Ti
1.000000 0.500000 0.485397 Ti
0.500000 0.000000 0.485397 Ti
0.500000 0.500000 0.485397 Ti
0.166667 0.333333 0.859758 Ti
0.166667 0.833333 0.859758 Ti
0.666667 0.333333 0.859758 Ti
0.666667 0.833333 0.859758 Ti
0.333333 0.166667 0.913238 Ti
0.333333 0.666667 0.913238 Ti
0.833333 0.166667 0.913238 Ti
0.833333 0.666667 0.913238 Ti
0.166667 0.333333 0.538877 Ti
0.166667 0.833333 0.538877 Ti
0.666667 0.333333 0.538877 Ti
0.666667 0.833333 0.538877 Ti
0.333333 0.166667 0.592357 Ti
0.333333 0.666667 0.592357 Ti
0.833333 0.166667 0.592357 Ti
0.833333 0.666667 0.592357 Ti
0.000000 0.000000 0.645837 Ti
1.000000 0.500000 0.645837 Ti
0.500000 0.000000 0.645837 Ti
0.500000 0.500000 0.645837 Ti
0.166667 0.333333 0.699317 Ti
0.166667 0.833333 0.699317 Ti
0.666667 0.333333 0.699317 Ti
0.666667 0.833333 0.699317 Ti
0.333333 0.166667 0.752797 Ti
0.333333 0.666667 0.752797 Ti
0.833333 0.166667 0.752797 Ti
0.833333 0.666667 0.752797 Ti
0.000000 0.000000 0.806277 Ti
1.000000 0.500000 0.806277 Ti
0.500000 0.000000 0.806277 Ti
0.500000 0.500000 0.806277 Ti

0.000000 0.000000 0.000000
0.000000 0.000000 0.000000
0.000000 0.000000 0.000000
0.000000 0.000000 0.000000
0.000000 0.000000 0.000000
0.000000 0.000000 0.000000
0.000000 0.000000 0.000000
0.000000 0.000000 0.000000
0.000000 0.000000 0.000000
0.000000 0.000000 0.000000
0.000000 0.000000 0.000000
0.000000 0.000000 0.000000
0.000000 0.000000 0.000000
0.000000 0.000000 0.000000
0.000000 0.000000 0.000000
0.000000 0.000000 0.000000
0.000000 0.000000 0.000000
0.000000 0.000000 0.000000
0.000000 0.000000 0.000000
0.000000 0.000000 0.000000
0.000000 0.000000 0.000000
0.000000 0.000000 0.000000
0.000000 0.000000 0.000000
0.000000 0.000000 0.000000
0.000000 0.000000 0.000000
0.000000 0.000000 0.000000
0.000000 0.000000 0.000000
0.000000 0.000000 0.000000
0.000000 0.000000 0.000000
0.000000 0.000000 0.000000
0.000000 0.000000 0.000000
0.000000 0.000000 0.000000
0.000000 0.000000 0.000000
0.000000 0.000000 0.000000
0.000000 0.000000 0.000000
0.000000 0.000000 0.000000
