Ti72
1.0
8.805261 0.000000 0.000000
-4.402630 7.625579 0.000000
0.000000 0.000000 18.388801
Ti
72
direct
0.000000 0.000000 0.486270 Ti
1.000000 0.500000 0.486270 Ti
0.500000 0.000000 0.486270 Ti
0.500000 0.500000 0.486270 Ti
0.166667 0.333333 0.838237 Ti
0.166667 0.833333 0.838237 Ti
0.666667 0.333333 0.838237 Ti
0.666667 0.833333 0.838237 Ti
0.333333 0.166667 0.888518 Ti
0.333333 0.666667 0.888518 Ti
0.833333 0.166667 0.888518 Ti
0.833333 0.666667 0.888518 Ti
0.166667 0.333333 0.536551 Ti
0.166667 0.833333 0.536551 Ti
0.666667 0.333333 0.536551 Ti
0.666667 0.833333 0.536551 Ti
0.333333 0.166667 0.586832 Ti
0.333333 0.666667 0.586832 Ti
0.833333 0.166667 0.586832 Ti
0.833333 0.666667 0.586832 Ti
0.000000 0.000000 0.637113 Ti
1.000000 0.500000 0.637113 Ti
0.500000 0.000000 0.637113 Ti
0.500000 0.500000 0.637113 Ti
0.166667 0.333333 0.687394 Ti
0.166667 0.833333 0.687394 Ti
0.666667 0.333333 0.687394 Ti
0.666667 0.833333 0.687394 Ti
0.333333 0.166667 0.737675 Ti
0.333333 0.666667 0.737675 Ti
0.833333 0.166667 0.737675 Ti
0.833333 0.666667 0.737675 Ti
0.000000 0.000000 0.787956 Ti
1.000000 0.500000 0.787956 Ti
0.500000 0.000000 0.787956 Ti
0.500000 0.500000 0.787956 Ti
0.111111 0.888889 -0.000000 Ti
0.111111 0.888889 0.249860 Ti
0.111111 0.555556 -0.000000 Ti
0.222222 0.777778 0.124930 Ti
0.111111 0.555556 0.249860 Ti
0.444444 0.888889 -0.000000 Ti
0.111111 0.222222 -0.000000 Ti
0.222222 0.777778 0.374790 Ti
0.222222 0.444444 0.124930 Ti
0.444444 0.888889 0.249860 Ti
0.111111 0.222222 0.249860 Ti
0.444444 0.555556 -0.000000 Ti
0.222222 0.444444 0.374790 Ti
0.555556 0.777778 0.124930 Ti
0.222222 0.111111 0.124930 Ti
0.444444 0.555556 0.249860 Ti
0.777778 0.888889 -0.000000 Ti
0.444444 0.222222 -0.000000 Ti
0.555556 0.777778 0.374790 Ti
0.222222 0.111111 0.374790 Ti
0.555556 0.444444 0.124930 Ti
0.777778 0.888889 0.249860 Ti
0.444444 0.222222 0.249860 Ti
0.777778 0.555556 -0.000000 Ti
0.555556 0.444444 0.374790 Ti
0.888889 0.777778 0.124930 Ti
0.555556 0.111111 0.124930 Ti
0.777778 0.555556 0.249860 Ti
0.777778 0.222222 -0.000000 Ti
0.888889 0.777778 0.374790 Ti
0.555556 0.111111 0.374790 Ti
0.888889 0.444444 0.124930 Ti
0.777778 0.222222 0.249860 Ti
0.888889 0.444444 0.374790 Ti
0.888889 0.111111 0.124930 Ti
0.888889 0.111111 0.374790 Ti

0.000000 0.000000 0.000000
0.000000 0.000000 0.000000
0.000000 0.000000 0.000000
0.000000 0.000000 0.000000
0.000000 0.000000 0.000000
0.000000 0.000000 0.000000
0.000000 0.000000 0.000000
0.000000 0.000000 0.000000
0.000000 0.000000 0.000000
0.000000 0.000000 0.000000
0.000000 0.000000 0.000000
0.000000 0.000000 0.000000
0.000000 0.000000 0.000000
0.000000 0.000000 0.000000
0.000000 0.000000 0.000000
0.000000 0.000000 0.000000
0.000000 0.000000 0.000000
0.000000 0.000000 0.000000
0.000000 0.000000 0.000000
0.000000 0.000000 0.000000
0.000000 0.000000 0.000000
0.000000 0.000000 0.000000
0.000000 0.000000 0.000000
0.000000 0.000000 0.000000
0.000000 0.000000 0.000000
0.000000 0.000000 0.000000
0.000000 0.000000 0.000000
0.000000 0.000000 0.000000
0.000000 0.000000 0.000000
0.000000 0.000000 0.000000
0.000000 0.000000 0.000000
0.000000 0.000000 0.000000
0.000000 0.000000 0.000000
0.000000 0.000000 0.000000
0.000000 0.000000 0.000000
0.000000 0.000000 0.000000
0.000000 0.000000 0.000000
0.000000 0.000000 0.000000
0.000000 0.000000 0.000000
0.000000 0.000000 0.000000
0.000000 0.000000 0.000000
0.000000 0.000000 0.000000
0.000000 0.000000 0.000000
0.000000 0.000000 0.000000
0.000000 0.000000 0.000000
0.000000 0.000000 0.000000
0.000000 0.000000 0.000000
0.000000 0.000000 0.000000
0.000000 0.000000 0.000000
0.000000 0.000000 0.000000
0.000000 0.000000 0.000000
0.000000 0.000000 0.000000
0.000000 0.000000 0.000000
0.000000 0.000000 0.000000
0.000000 0.000000 0.000000
0.000000 0.000000 0.000000
0.000000 0.000000 0.000000
0.000000 0.000000 0.000000
0.000000 0.000000 0.000000
0.000000 0.000000 0.000000
0.000000 0.000000 0.000000
0.000000 0.000000 0.000000
0.000000 0.000000 0.000000
0.000000 0.000000 0.000000
0.000000 0.000000 0.000000
0.000000 0.000000 0.000000
0.000000 0.000000 0.000000
0.000000 0.000000 0.000000
0.000000 0.000000 0.000000
0.000000 0.000000 0.000000
0.000000 0.000000 0.000000
0.000000 0.000000 0.000000
