Ti66 Sn1
1.0
6.309760 0.000000 0.000000
0.000000 9.464640 0.000000
0.000000 0.000000 18.918326
Ti Sn
66 1
Selective dynamics
direct
0.161059 -0.002040 0.494421 T T T Ti
0.588941 -0.002040 0.494421 T T T Ti
0.155636 0.062647 0.637028 T T T Ti
0.594364 0.062647 0.637028 T T T Ti
0.125000 0.041667 0.817153 F F F Ti
0.625000 0.041667 0.817153 F F F Ti
0.184909 0.294244 0.513676 T T T Ti
0.565091 0.294244 0.513676 T T T Ti
0.139799 0.369106 0.656226 T T T Ti
0.610201 0.369106 0.656226 T T T Ti
0.125000 0.375000 0.817153 F F F Ti
0.625000 0.375000 0.817153 F F F Ti
0.102276 0.678606 0.485951 T T T Ti
0.647724 0.678606 0.485951 T T T Ti
0.099230 0.682427 0.648256 T T T Ti
0.650770 0.682427 0.648256 T T T Ti
0.125000 0.708333 0.817153 F F F Ti
0.625000 0.708333 0.817153 F F F Ti
0.875000 0.183547 0.533871 T T T Ti
0.375000 0.208333 0.737865 F F F Ti
0.875000 0.208333 0.737865 F F F Ti
0.375000 0.208333 0.896441 F F F Ti
0.875000 0.208333 0.896441 F F F Ti
0.375000 0.528216 0.563348 T T T Ti
0.875000 0.480644 0.562745 T T T Ti
0.375000 0.541667 0.737865 F F F Ti
0.875000 0.541667 0.737865 F F F Ti
0.375000 0.541667 0.896441 F F F Ti
0.875000 0.541667 0.896441 F F F Ti
0.375000 0.824107 0.578168 T T T Ti
0.875000 0.879809 0.580160 T T T Ti
0.375000 0.875000 0.737865 F F F Ti
0.875000 0.875000 0.737865 F F F Ti
0.375000 0.875000 0.896441 F F F Ti
0.875000 0.875000 0.896441 F F F Ti
0.098736 0.659163 0.355508 T T T Ti
0.651264 0.659163 0.355508 T T T Ti
0.125000 0.625000 0.118932 F F F Ti
0.625000 0.625000 0.118932 F F F Ti
0.140051 0.152132 0.376210 T T T Ti
0.609949 0.152132 0.376210 T T T Ti
0.125000 0.125000 0.118932 F F F Ti
0.625000 0.125000 0.118932 F F F Ti
0.125000 0.375000 0.039644 F F F Ti
0.625000 0.375000 0.039644 F F F Ti
0.125000 0.875000 0.039644 F F F Ti
0.625000 0.875000 0.039644 F F F Ti
0.108066 0.388914 0.280403 T T T Ti
0.641934 0.388914 0.280403 T T T Ti
0.112577 0.900279 0.276214 T T T Ti
0.637423 0.900279 0.276214 T T T Ti
0.375000 0.875000 0.158576 F F F Ti
0.875000 0.875000 0.158576 F F F Ti
0.374999 0.375000 0.158576 F F F Ti
0.874999 0.375000 0.158576 F F F Ti
0.875000 0.422013 0.421423 T T T Ti
0.375000 0.872295 0.388363 T T T Ti
0.875000 0.901946 0.401186 T T T Ti
0.375000 0.647414 0.248117 T T T Ti
0.875000 0.630345 0.238531 T T T Ti
0.375000 0.625000 0.000000 F F F Ti
0.875000 0.625000 0.000000 F F F Ti
0.375000 0.145038 0.249272 T T T Ti
0.875000 0.139378 0.250755 T T T Ti
0.375000 0.125000 0.000000 F F F Ti
0.875000 0.125000 0.000000 F F F Ti
0.375000 0.441519 0.403589 T T T Sn

0.000000 0.000000 0.000000
0.000000 0.000000 0.000000
0.000000 0.000000 0.000000
0.000000 0.000000 0.000000
0.000000 0.000000 0.000000
0.000000 0.000000 0.000000
0.000000 0.000000 0.000000
0.000000 0.000000 0.000000
0.000000 0.000000 0.000000
0.000000 0.000000 0.000000
0.000000 0.000000 0.000000
0.000000 0.000000 0.000000
0.000000 0.000000 0.000000
0.000000 0.000000 0.000000
0.000000 0.000000 0.000000
0.000000 0.000000 0.000000
0.000000 0.000000 0.000000
0.000000 0.000000 0.000000
0.000000 0.000000 0.000000
0.000000 0.000000 0.000000
0.000000 0.000000 0.000000
0.000000 0.000000 0.000000
0.000000 0.000000 0.000000
0.000000 0.000000 0.000000
0.000000 0.000000 0.000000
0.000000 0.000000 0.000000
0.000000 0.000000 0.000000
0.000000 0.000000 0.000000
0.000000 0.000000 0.000000
0.000000 0.000000 0.000000
0.000000 0.000000 0.000000
0.000000 0.000000 0.000000
0.000000 0.000000 0.000000
0.000000 0.000000 0.000000
0.000000 0.000000 0.000000
0.000000 0.000000 0.000000
0.000000 0.000000 0.000000
0.000000 0.000000 0.000000
0.000000 0.000000 0.000000
0.000000 0.000000 0.000000
0.000000 0.000000 0.000000
0.000000 0.000000 0.000000
0.000000 0.000000 0.000000
0.000000 0.000000 0.000000
0.000000 0.000000 0.000000
0.000000 0.000000 0.000000
0.000000 0.000000 0.000000
0.000000 0.000000 0.000000
0.000000 0.000000 0.000000
0.000000 0.000000 0.000000
0.000000 0.000000 0.000000
0.000000 0.000000 0.000000
0.000000 0.000000 0.000000
0.000000 0.000000 0.000000
0.000000 0.000000 0.000000
0.000000 0.000000 0.000000
0.000000 0.000000 0.000000
0.000000 0.000000 0.000000
0.000000 0.000000 0.000000
0.000000 0.000000 0.000000
0.000000 0.000000 0.000000
0.000000 0.000000 0.000000
0.000000 0.000000 0.000000
0.000000 0.000000 0.000000
0.000000 0.000000 0.000000
0.000000 0.000000 0.000000
0.000000 0.000000 0.000000
