Ti66 Mo1
1.0
6.309760 0.000000 0.000000
0.000000 9.464640 0.000000
0.000000 0.000000 18.918326
Ti Mo
66 1
Selective dynamics
direct
0.125150 0.042220 0.500294 F F F Ti
0.625678 0.042252 0.499908 F F F Ti
0.125099 0.041882 0.658643 F F F Ti
0.625081 0.041868 0.658615 F F F Ti
0.125047 0.041710 0.817057 F F F Ti
0.624969 0.041701 0.817064 F F F Ti
0.125334 0.376964 0.500669 F F F Ti
0.625468 0.375663 0.501331 F F F Ti
0.125001 0.375399 0.658741 F F F Ti
0.625047 0.375338 0.658822 F F F Ti
0.124999 0.375133 0.817088 F F F Ti
0.624941 0.375134 0.817108 F F F Ti
0.125154 0.710264 0.499740 F F F Ti
0.624129 0.709852 0.500025 F F F Ti
0.125017 0.708907 0.658563 F F F Ti
0.624847 0.708886 0.658641 F F F Ti
0.125002 0.708452 0.817069 F F F Ti
0.624924 0.708442 0.817091 F F F Ti
0.375099 0.208662 0.579473 F F F Ti
0.875213 0.208708 0.579578 F F F Ti
0.375036 0.208455 0.737877 F F F Ti
0.875005 0.208453 0.737900 F F F Ti
0.375014 0.208415 0.896240 F F F Ti
0.875026 0.208421 0.896219 F F F Ti
0.375079 0.542667 0.579576 F F F Ti
0.874982 0.542833 0.579606 F F F Ti
0.374993 0.541935 0.737910 F F F Ti
0.874974 0.541959 0.737920 F F F Ti
0.374974 0.541712 0.896349 F F F Ti
0.875012 0.541725 0.896336 F F F Ti
0.375138 0.875630 0.579309 F F F Ti
0.874912 0.875458 0.579347 F F F Ti
0.375004 0.875167 0.737861 F F F Ti
0.874971 0.875151 0.737868 F F F Ti
0.375001 0.874921 0.896295 F F F Ti
0.875045 0.874914 0.896276 F F F Ti
0.125548 0.624225 0.356719 F F F Ti
0.624361 0.626595 0.356519 F F F Ti
0.125236 0.624268 0.118884 F F F Ti
0.624833 0.624515 0.118855 F F F Ti
0.631671 0.125728 0.356495 F F F Ti
0.125389 0.124538 0.118393 F F F Ti
0.624860 0.124657 0.117413 F F F Ti
0.125137 0.374845 0.039443 F F F Ti
0.624899 0.375120 0.039302 F F F Ti
0.125102 0.874546 0.039319 F F F Ti
0.625017 0.874379 0.039163 F F F Ti
0.627130 0.375190 0.277323 F F F Ti
0.125314 0.873598 0.276678 F F F Ti
0.625742 0.874063 0.277222 F F F Ti
0.375525 0.873864 0.158066 F F F Ti
0.874786 0.873536 0.157891 F F F Ti
0.375305 0.374512 0.158446 F F F Ti
0.875046 0.375011 0.158062 F F F Ti
0.383092 0.380689 0.397922 F F F Ti
0.866687 0.383167 0.398355 F F F Ti
0.375020 0.876168 0.396065 F F F Ti
0.875306 0.874627 0.396259 F F F Ti
0.374565 0.623616 0.237884 F F F Ti
0.875732 0.623854 0.237849 F F F Ti
0.374899 0.624747 -0.000082 F F F Ti
0.875112 0.624759 -0.000091 F F F Ti
0.383444 0.122990 0.235588 F F F Ti
0.865665 0.122650 0.234294 F F F Ti
0.374830 0.124831 -0.000391 F F F Ti
0.875322 0.124837 -0.000409 F F F Ti
0.113059 0.171443 0.345477 T T T Mo

0.000000 0.000000 0.000000
0.000000 0.000000 0.000000
0.000000 0.000000 0.000000
0.000000 0.000000 0.000000
0.000000 0.000000 0.000000
0.000000 0.000000 0.000000
0.000000 0.000000 0.000000
0.000000 0.000000 0.000000
0.000000 0.000000 0.000000
0.000000 0.000000 0.000000
0.000000 0.000000 0.000000
0.000000 0.000000 0.000000
0.000000 0.000000 0.000000
0.000000 0.000000 0.000000
0.000000 0.000000 0.000000
0.000000 0.000000 0.000000
0.000000 0.000000 0.000000
0.000000 0.000000 0.000000
0.000000 0.000000 0.000000
0.000000 0.000000 0.000000
0.000000 0.000000 0.000000
0.000000 0.000000 0.000000
0.000000 0.000000 0.000000
0.000000 0.000000 0.000000
0.000000 0.000000 0.000000
0.000000 0.000000 0.000000
0.000000 0.000000 0.000000
0.000000 0.000000 0.000000
0.000000 0.000000 0.000000
0.000000 0.000000 0.000000
0.000000 0.000000 0.000000
0.000000 0.000000 0.000000
0.000000 0.000000 0.000000
0.000000 0.000000 0.000000
0.000000 0.000000 0.000000
0.000000 0.000000 0.000000
0.000000 0.000000 0.000000
0.000000 0.000000 0.000000
0.000000 0.000000 0.000000
0.000000 0.000000 0.000000
0.000000 0.000000 0.000000
0.000000 0.000000 0.000000
0.000000 0.000000 0.000000
0.000000 0.000000 0.000000
0.000000 0.000000 0.000000
0.000000 0.000000 0.000000
0.000000 0.000000 0.000000
0.000000 0.000000 0.000000
0.000000 0.000000 0.000000
0.000000 0.000000 0.000000
0.000000 0.000000 0.000000
0.000000 0.000000 0.000000
0.000000 0.000000 0.000000
0.000000 0.000000 0.000000
0.000000 0.000000 0.000000
0.000000 0.000000 0.000000
0.000000 0.000000 0.000000
0.000000 0.000000 0.000000
0.000000 0.000000 0.000000
0.000000 0.000000 0.000000
0.000000 0.000000 0.000000
0.000000 0.000000 0.000000
0.000000 0.000000 0.000000
0.000000 0.000000 0.000000
0.000000 0.000000 0.000000
0.000000 0.000000 0.000000
0.000000 0.000000 0.000000
