total_Ti
1.0
8.805261 0.000000 0.000000
-4.402630 7.625580 0.000000
0.000000 0.000000 17.988801
Ti
72
direct
0.967272 0.027818 0.485965 Ti
0.967272 0.527818 0.485965 Ti
0.467272 0.027818 0.485965 Ti
0.467272 0.527818 0.485965 Ti
0.133938 0.361151 0.845758 Ti
0.133938 0.861151 0.845758 Ti
0.633938 0.361151 0.845758 Ti
0.633938 0.861151 0.845758 Ti
0.300605 0.194485 0.897157 Ti
0.300605 0.694485 0.897157 Ti
0.800605 0.194485 0.897157 Ti
0.800605 0.694485 0.897157 Ti
0.133938 0.361151 0.537364 Ti
0.133938 0.861151 0.537364 Ti
0.633938 0.361151 0.537364 Ti
0.633938 0.861151 0.537364 Ti
0.300605 0.194485 0.588763 Ti
0.300605 0.694485 0.588763 Ti
0.800605 0.194485 0.588763 Ti
0.800605 0.694485 0.588763 Ti
0.967272 0.027818 0.640162 Ti
0.967272 0.527818 0.640162 Ti
0.467272 0.027818 0.640162 Ti
0.467272 0.527818 0.640162 Ti
0.133938 0.361151 0.691561 Ti
0.133938 0.861151 0.691561 Ti
0.633938 0.361151 0.691561 Ti
0.633938 0.861151 0.691561 Ti
0.300605 0.194485 0.742960 Ti
0.300605 0.694485 0.742960 Ti
0.800605 0.194485 0.742960 Ti
0.800605 0.694485 0.742960 Ti
0.967272 0.027818 0.794359 Ti
0.967272 0.527818 0.794359 Ti
0.467272 0.027818 0.794359 Ti
0.467272 0.527818 0.794359 Ti
0.111111 0.888889 -0.000000 Ti
0.111111 0.888889 0.255416 Ti
0.111111 0.555556 -0.000000 Ti
0.222222 0.777778 0.127708 Ti
0.111111 0.555556 0.255416 Ti
0.444444 0.888889 -0.000000 Ti
0.111111 0.222222 -0.000000 Ti
0.222222 0.777778 0.383123 Ti
0.222222 0.444444 0.127708 Ti
0.444444 0.888889 0.255416 Ti
0.111111 0.222222 0.255416 Ti
0.444444 0.555556 -0.000000 Ti
0.222222 0.444444 0.383123 Ti
0.555556 0.777778 0.127708 Ti
0.222222 0.111111 0.127708 Ti
0.444444 0.555556 0.255416 Ti
0.777778 0.888889 -0.000000 Ti
0.444444 0.222222 -0.000000 Ti
0.555556 0.777778 0.383123 Ti
0.222222 0.111111 0.383123 Ti
0.555556 0.444444 0.127708 Ti
0.777778 0.888889 0.255416 Ti
0.444444 0.222222 0.255416 Ti
0.777778 0.555556 -0.000000 Ti
0.555556 0.444444 0.383123 Ti
0.888889 0.777778 0.127708 Ti
0.555556 0.111111 0.127708 Ti
0.777778 0.555556 0.255416 Ti
0.777778 0.222222 -0.000000 Ti
0.888889 0.777778 0.383123 Ti
0.555556 0.111111 0.383123 Ti
0.888889 0.444444 0.127708 Ti
0.777778 0.222222 0.255416 Ti
0.888889 0.444444 0.383123 Ti
0.888889 0.111111 0.127708 Ti
0.888889 0.111111 0.383123 Ti
