alpha_Ti
1.0
6.309760 0.000000 0.000000
0.000000 9.464640 0.000000
0.000000 0.000000 18.600004
Ti
32
direct
0.125000 0.625000 0.362903 Ti
0.625000 0.625000 0.362903 Ti
0.125000 0.625000 0.120968 Ti
0.625000 0.625000 0.120968 Ti
0.125000 0.125000 0.362903 Ti
0.625000 0.125000 0.362903 Ti
0.125000 0.125000 0.120968 Ti
0.625000 0.125000 0.120968 Ti
0.125000 0.375000 0.040323 Ti
0.625000 0.375000 0.040323 Ti
0.125000 0.875000 0.040323 Ti
0.625000 0.875000 0.040323 Ti
0.125000 0.375000 0.282258 Ti
0.625000 0.375000 0.282258 Ti
0.125000 0.875000 0.282258 Ti
0.625000 0.875000 0.282258 Ti
0.375000 0.875000 0.161290 Ti
0.875000 0.875000 0.161290 Ti
0.374999 0.375000 0.161290 Ti
0.874999 0.375000 0.161290 Ti
0.375000 0.375000 0.403226 Ti
0.875000 0.375000 0.403226 Ti
0.375000 0.875000 0.403226 Ti
0.875000 0.875000 0.403226 Ti
0.375000 0.625000 0.241935 Ti
0.875000 0.625000 0.241935 Ti
0.375000 0.625000 -0.000000 Ti
0.875000 0.625000 -0.000000 Ti
0.375000 0.125000 0.241935 Ti
0.875000 0.125000 0.241935 Ti
0.375000 0.125000 -0.000000 Ti
0.875000 0.125000 -0.000000 Ti
