Ti83
1.0
6.391540 0.000000 0.000000
0.000000 9.587310 0.000000
0.000000 0.000000 23.271695
Ti
83
Selective dynamics
direct
0.629131 0.082324 0.580368 F F F Ti
0.124083 0.082792 0.710073 F F F Ti
0.625101 0.083139 0.709595 F F F Ti
0.124970 0.083319 0.838477 F F F Ti
0.624944 0.083325 0.838444 F F F Ti
0.123377 0.419054 0.580359 F F F Ti
0.625082 0.416873 0.580502 F F F Ti
0.124819 0.416786 0.709547 F F F Ti
0.624669 0.416768 0.709543 F F F Ti
0.124999 0.416673 0.838427 F F F Ti
0.624949 0.416682 0.838429 F F F Ti
0.124989 0.750110 0.580572 F F F Ti
0.625214 0.749770 0.580526 F F F Ti
0.124903 0.749828 0.709567 F F F Ti
0.625198 0.749773 0.709591 F F F Ti
0.124986 0.749953 0.838443 F F F Ti
0.624980 0.749946 0.838451 F F F Ti
0.872275 0.250776 0.645366 F F F Ti
0.374957 0.249993 0.773988 F F F Ti
0.874768 0.250088 0.774044 F F F Ti
0.374995 0.250007 0.902875 F F F Ti
0.874971 0.250012 0.902881 F F F Ti
0.375021 0.583373 0.645053 F F F Ti
0.874721 0.583557 0.645104 F F F Ti
0.374963 0.583311 0.773985 F F F Ti
0.874969 0.583307 0.774000 F F F Ti
0.374990 0.583320 0.902875 F F F Ti
0.874995 0.583317 0.902877 F F F Ti
0.376272 0.915036 0.645355 F F F Ti
0.875004 0.916374 0.645153 F F F Ti
0.375100 0.916519 0.774045 F F F Ti
0.874789 0.916499 0.774044 F F F Ti
0.375000 0.916647 0.902882 F F F Ti
0.874969 0.916647 0.902882 F F F Ti
0.124992 0.166689 0.386673 F F F Ti
0.625185 0.166708 0.386653 F F F Ti
0.125027 0.666809 0.386752 F F F Ti
0.624941 0.666751 0.386726 F F F Ti
0.124998 0.166667 0.000009 F F F Ti
0.624993 0.166667 0.000010 F F F Ti
0.124998 0.666673 0.000003 F F F Ti
0.624986 0.666672 0.000005 F F F Ti
0.124999 0.833335 0.096680 F F F Ti
0.624992 0.833334 0.096680 F F F Ti
0.125055 0.833405 0.483415 F F F Ti
0.625184 0.833222 0.483370 F F F Ti
0.125000 0.333334 0.096678 F F F Ti
0.624991 0.333334 0.096678 F F F Ti
0.124750 0.333845 0.483171 F F F Ti
0.625377 0.333466 0.483318 F F F Ti
0.375112 0.583501 0.483356 F F F Ti
0.874834 0.583533 0.483340 F F F Ti
0.374998 0.583330 0.096680 F F F Ti
0.875006 0.583331 0.096680 F F F Ti
0.374996 0.083336 0.096678 F F F Ti
0.875005 0.083335 0.096679 F F F Ti
0.376023 0.083092 0.482970 F F F Ti
0.875281 0.083379 0.483308 F F F Ti
0.375066 0.416733 0.386680 F F F Ti
0.874941 0.416753 0.386671 F F F Ti
0.375031 0.916607 0.386668 F F F Ti
0.875011 0.916672 0.386711 F F F Ti
0.374993 0.416671 0.000008 F F F Ti
0.874993 0.416672 0.000010 F F F Ti
0.374995 0.916664 0.000014 F F F Ti
0.874990 0.916663 0.000014 F F F Ti
0.375007 0.083336 0.290025 F F F Ti
0.875000 0.083329 0.290028 F F F Ti
0.124997 0.166669 0.193359 F F F Ti
0.625002 0.166669 0.193356 F F F Ti
0.124996 0.333352 0.290029 F F F Ti
0.625006 0.333353 0.290022 F F F Ti
0.374997 0.416675 0.193358 F F F Ti
0.874997 0.416676 0.193358 F F F Ti
0.374998 0.583353 0.290036 F F F Ti
0.875008 0.583359 0.290036 F F F Ti
0.125001 0.666676 0.193366 F F F Ti
0.624994 0.666673 0.193364 F F F Ti
0.124987 0.833334 0.290036 F F F Ti
0.625017 0.833328 0.290030 F F F Ti
0.374997 0.916665 0.193359 F F F Ti
0.874996 0.916665 0.193359 F F F Ti
0.245511 0.162441 0.600277 T T T Ti

0.000000 0.000000 0.000000
0.000000 0.000000 0.000000
0.000000 0.000000 0.000000
0.000000 0.000000 0.000000
0.000000 0.000000 0.000000
0.000000 0.000000 0.000000
0.000000 0.000000 0.000000
0.000000 0.000000 0.000000
0.000000 0.000000 0.000000
0.000000 0.000000 0.000000
0.000000 0.000000 0.000000
0.000000 0.000000 0.000000
0.000000 0.000000 0.000000
0.000000 0.000000 0.000000
0.000000 0.000000 0.000000
0.000000 0.000000 0.000000
0.000000 0.000000 0.000000
0.000000 0.000000 0.000000
0.000000 0.000000 0.000000
0.000000 0.000000 0.000000
0.000000 0.000000 0.000000
0.000000 0.000000 0.000000
0.000000 0.000000 0.000000
0.000000 0.000000 0.000000
0.000000 0.000000 0.000000
0.000000 0.000000 0.000000
0.000000 0.000000 0.000000
0.000000 0.000000 0.000000
0.000000 0.000000 0.000000
0.000000 0.000000 0.000000
0.000000 0.000000 0.000000
0.000000 0.000000 0.000000
0.000000 0.000000 0.000000
0.000000 0.000000 0.000000
0.000000 0.000000 0.000000
0.000000 0.000000 0.000000
0.000000 0.000000 0.000000
0.000000 0.000000 0.000000
0.000000 0.000000 0.000000
0.000000 0.000000 0.000000
0.000000 0.000000 0.000000
0.000000 0.000000 0.000000
0.000000 0.000000 0.000000
0.000000 0.000000 0.000000
0.000000 0.000000 0.000000
0.000000 0.000000 0.000000
0.000000 0.000000 0.000000
0.000000 0.000000 0.000000
0.000000 0.000000 0.000000
0.000000 0.000000 0.000000
0.000000 0.000000 0.000000
0.000000 0.000000 0.000000
0.000000 0.000000 0.000000
0.000000 0.000000 0.000000
0.000000 0.000000 0.000000
0.000000 0.000000 0.000000
0.000000 0.000000 0.000000
0.000000 0.000000 0.000000
0.000000 0.000000 0.000000
0.000000 0.000000 0.000000
0.000000 0.000000 0.000000
0.000000 0.000000 0.000000
0.000000 0.000000 0.000000
0.000000 0.000000 0.000000
0.000000 0.000000 0.000000
0.000000 0.000000 0.000000
0.000000 0.000000 0.000000
0.000000 0.000000 0.000000
0.000000 0.000000 0.000000
0.000000 0.000000 0.000000
0.000000 0.000000 0.000000
0.000000 0.000000 0.000000
0.000000 0.000000 0.000000
0.000000 0.000000 0.000000
0.000000 0.000000 0.000000
0.000000 0.000000 0.000000
0.000000 0.000000 0.000000
0.000000 0.000000 0.000000
0.000000 0.000000 0.000000
0.000000 0.000000 0.000000
0.000000 0.000000 0.000000
0.000000 0.000000 0.000000
0.000000 0.000000 0.000000
