total_Ti
1.0
4.756512 0.000000 0.000000
0.000000 4.675432 0.000000
0.000000 0.000000 20.711800
Ti
24
direct
0.333333 0.750000 0.347850 Ti
0.333333 0.750000 0.208710 Ti
0.333333 0.750000 0.069570 Ti
0.833334 0.750000 0.278280 Ti
0.833334 0.750000 0.139140 Ti
0.833334 0.750000 -0.000000 Ti
0.166666 0.250000 0.278280 Ti
0.166666 0.250000 0.139140 Ti
0.166666 0.250000 -0.000000 Ti
0.666667 0.250000 0.347850 Ti
0.666667 0.250000 0.208710 Ti
0.666667 0.250000 0.069570 Ti
0.666667 0.750000 0.867228 Ti
0.166667 0.250000 0.867228 Ti
0.166667 0.750000 0.789907 Ti
0.666667 0.250000 0.789907 Ti
0.666667 0.750000 0.712586 Ti
0.166667 0.250000 0.712586 Ti
0.166667 0.750000 0.635266 Ti
0.666667 0.250000 0.635266 Ti
0.666667 0.750000 0.557945 Ti
0.166667 0.250000 0.557945 Ti
0.166667 0.750000 0.480625 Ti
0.666667 0.250000 0.480625 Ti
