Ti66 Cr1
1.0
6.309760 0.000000 0.000000
0.000000 9.464640 0.000000
0.000000 0.000000 18.918326
Ti Cr
66 1
Selective dynamics
direct
0.627111 0.041477 0.500066 F F F Ti
0.125179 0.041764 0.658614 F F F Ti
0.625160 0.041694 0.658672 F F F Ti
0.125095 0.041688 0.817252 F F F Ti
0.625058 0.041680 0.817273 F F F Ti
0.125613 0.377714 0.500674 F F F Ti
0.625886 0.375147 0.500566 F F F Ti
0.125266 0.375138 0.658881 F F F Ti
0.625128 0.375061 0.658890 F F F Ti
0.125070 0.374951 0.817301 F F F Ti
0.625033 0.374935 0.817313 F F F Ti
0.125320 0.708396 0.500250 F F F Ti
0.624571 0.707559 0.500639 F F F Ti
0.125199 0.708574 0.658797 F F F Ti
0.624962 0.708580 0.658877 F F F Ti
0.125064 0.708405 0.817297 F F F Ti
0.625022 0.708417 0.817316 F F F Ti
0.375486 0.208521 0.579453 F F F Ti
0.875152 0.208792 0.579715 F F F Ti
0.375107 0.208287 0.737998 F F F Ti
0.875110 0.208307 0.738039 F F F Ti
0.374974 0.208262 0.896607 F F F Ti
0.875107 0.208264 0.896609 F F F Ti
0.375458 0.541878 0.579747 F F F Ti
0.875023 0.541999 0.579800 F F F Ti
0.375107 0.541750 0.738094 F F F Ti
0.875074 0.541758 0.738104 F F F Ti
0.375006 0.541539 0.896551 F F F Ti
0.875068 0.541540 0.896546 F F F Ti
0.375110 0.875312 0.579271 F F F Ti
0.875236 0.874910 0.579470 F F F Ti
0.375030 0.875136 0.737978 F F F Ti
0.875117 0.875108 0.738015 F F F Ti
0.374979 0.875055 0.896589 F F F Ti
0.875112 0.875053 0.896591 F F F Ti
0.125987 0.624238 0.356634 F F F Ti
0.624546 0.623864 0.356345 F F F Ti
0.125230 0.624677 0.118806 F F F Ti
0.625064 0.624698 0.118769 F F F Ti
0.630969 0.124565 0.356873 F F F Ti
0.125412 0.124747 0.119063 F F F Ti
0.624778 0.124804 0.118976 F F F Ti
0.125127 0.374796 0.039686 F F F Ti
0.624962 0.374810 0.039663 F F F Ti
0.125157 0.874890 0.039630 F F F Ti
0.625011 0.874909 0.039601 F F F Ti
0.125221 0.375141 0.277603 F F F Ti
0.625644 0.374357 0.277398 F F F Ti
0.125299 0.872299 0.277043 F F F Ti
0.625655 0.874498 0.276995 F F F Ti
0.375221 0.874772 0.158480 F F F Ti
0.875143 0.874554 0.158330 F F F Ti
0.375096 0.374489 0.158645 F F F Ti
0.875175 0.374679 0.158474 F F F Ti
0.378453 0.377817 0.396825 F F F Ti
0.871852 0.380361 0.396913 F F F Ti
0.380985 0.870127 0.396350 F F F Ti
0.867379 0.866555 0.396414 F F F Ti
0.375541 0.624344 0.237573 F F F Ti
0.874936 0.624212 0.237545 F F F Ti
0.375062 0.624900 0.000011 F F F Ti
0.875058 0.624900 0.000008 F F F Ti
0.375127 0.124438 0.238325 F F F Ti
0.874964 0.124493 0.237401 F F F Ti
0.375023 0.124880 0.000099 F F F Ti
0.875093 0.124884 0.000106 F F F Ti
0.108834 0.103119 0.383923 T T T Cr
