total_Ti
1.0
8.805261 0.000000 0.000000
-4.402630 7.625580 0.000000
0.000000 0.000000 33.288801
Ti
72
direct
0.055556 0.944452 0.492416 Ti
0.055556 0.444452 0.492416 Ti
0.555556 0.944452 0.492416 Ti
0.555556 0.444452 0.492416 Ti
0.222223 0.277785 0.686843 Ti
0.222223 0.777785 0.686843 Ti
0.722223 0.277785 0.686843 Ti
0.722223 0.777785 0.686843 Ti
0.388889 0.111119 0.714618 Ti
0.388889 0.611119 0.714618 Ti
0.888889 0.111119 0.714618 Ti
0.888889 0.611119 0.714618 Ti
0.222223 0.277785 0.520191 Ti
0.222223 0.777785 0.520191 Ti
0.722223 0.277785 0.520191 Ti
0.722223 0.777785 0.520191 Ti
0.388889 0.111119 0.547966 Ti
0.388889 0.611119 0.547966 Ti
0.888889 0.111119 0.547966 Ti
0.888889 0.611119 0.547966 Ti
0.055556 0.944452 0.575742 Ti
0.055556 0.444452 0.575742 Ti
0.555556 0.944452 0.575742 Ti
0.555556 0.444452 0.575742 Ti
0.222223 0.277785 0.603517 Ti
0.222223 0.777785 0.603517 Ti
0.722223 0.277785 0.603517 Ti
0.722223 0.777785 0.603517 Ti
0.388889 0.111119 0.631292 Ti
0.388889 0.611119 0.631292 Ti
0.888889 0.111119 0.631292 Ti
0.888889 0.611119 0.631292 Ti
0.055556 0.944452 0.659068 Ti
0.055556 0.444452 0.659068 Ti
0.555556 0.944452 0.659068 Ti
0.555556 0.444452 0.659068 Ti
0.111111 0.888889 -0.000000 Ti
0.111111 0.888889 0.138023 Ti
0.111111 0.555556 -0.000000 Ti
0.222222 0.777778 0.069011 Ti
0.111111 0.555556 0.138023 Ti
0.444444 0.888889 -0.000000 Ti
0.111111 0.222222 -0.000000 Ti
0.222222 0.777778 0.207034 Ti
0.222222 0.444444 0.069011 Ti
0.444444 0.888889 0.138023 Ti
0.111111 0.222222 0.138023 Ti
0.444444 0.555556 -0.000000 Ti
0.222222 0.444444 0.207034 Ti
0.555556 0.777778 0.069011 Ti
0.222222 0.111111 0.069011 Ti
0.444444 0.555556 0.138023 Ti
0.777778 0.888889 -0.000000 Ti
0.444444 0.222222 -0.000000 Ti
0.555556 0.777778 0.207034 Ti
0.222222 0.111111 0.207034 Ti
0.555556 0.444444 0.069011 Ti
0.777778 0.888889 0.138023 Ti
0.444444 0.222222 0.138023 Ti
0.777778 0.555556 -0.000000 Ti
0.555556 0.444444 0.207034 Ti
0.888889 0.777778 0.069011 Ti
0.555556 0.111111 0.069011 Ti
0.777778 0.555556 0.138023 Ti
0.777778 0.222222 -0.000000 Ti
0.888889 0.777778 0.207034 Ti
0.555556 0.111111 0.207034 Ti
0.888889 0.444444 0.069011 Ti
0.777778 0.222222 0.138023 Ti
0.888889 0.444444 0.207034 Ti
0.888889 0.111111 0.069011 Ti
0.888889 0.111111 0.207034 Ti
