alpha_Ti
1.0
8.805261 0.000000 0.000000
-4.402630 7.625580 0.000000
0.000000 0.000000 18.388801
Ti
36
direct
0.166666 0.833342 -0.000000 Ti
0.166666 0.833342 0.249860 Ti
0.166666 0.500009 -0.000000 Ti
0.277778 0.722231 0.124930 Ti
0.166666 0.500009 0.249860 Ti
0.500000 0.833342 -0.000000 Ti
0.166666 0.166675 -0.000000 Ti
0.277778 0.722231 0.374790 Ti
0.277778 0.388897 0.124930 Ti
0.500000 0.833342 0.249860 Ti
0.166666 0.166675 0.249860 Ti
0.500000 0.500009 -0.000000 Ti
0.277778 0.388897 0.374790 Ti
0.611111 0.722231 0.124930 Ti
0.277778 0.055564 0.124930 Ti
0.500000 0.500009 0.249860 Ti
0.833333 0.833342 -0.000000 Ti
0.500000 0.166675 0.000000 Ti
0.611111 0.722231 0.374790 Ti
0.277778 0.055564 0.374790 Ti
0.611111 0.388897 0.124930 Ti
0.833333 0.833342 0.249860 Ti
0.500000 0.166675 0.249860 Ti
0.833333 0.500009 -0.000000 Ti
0.611111 0.388897 0.374790 Ti
0.944444 0.722231 0.124930 Ti
0.611111 0.055564 0.124930 Ti
0.833333 0.500009 0.249860 Ti
0.833333 0.166675 -0.000000 Ti
0.944444 0.722231 0.374790 Ti
0.611111 0.055564 0.374790 Ti
0.944444 0.388897 0.124930 Ti
0.833333 0.166675 0.249860 Ti
0.944444 0.388897 0.374790 Ti
0.944444 0.055564 0.124930 Ti
0.944444 0.055564 0.374790 Ti
