Zr1 Ti96
1.0
9.513020 0.000000 0.000000
0.000000 9.350860 0.000000
0.000000 0.000000 18.547230
Ti Zr
96 1
Selective dynamics
direct
0.145978 0.368445 0.405064 T T T Ti
0.640676 0.349973 0.401229 T T T Ti
0.150030 0.856431 0.392122 T T T Ti
0.678438 0.894492 0.395270 T T T Ti
0.158868 0.372420 0.236410 T T T Ti
0.661912 0.374264 0.234024 T T T Ti
0.162490 0.875850 0.234924 T T T Ti
0.662153 0.871320 0.234630 T T T Ti
0.166641 0.375021 0.077647 F F F Ti
0.666685 0.374997 0.077650 F F F Ti
0.166644 0.874990 0.077641 F F F Ti
0.666680 0.874989 0.077636 F F F Ti
0.406769 0.377414 0.311504 T T T Ti
0.899786 0.375610 0.321827 T T T Ti
0.409529 0.882658 0.318903 T T T Ti
0.913906 0.882556 0.312677 T T T Ti
0.416691 0.374989 0.155303 F F F Ti
0.916651 0.374962 0.155277 F F F Ti
0.416648 0.874984 0.155331 F F F Ti
0.916676 0.874984 0.155269 F F F Ti
0.416683 0.375032 0.000054 F F F Ti
0.916625 0.375016 0.000024 F F F Ti
0.416678 0.874972 0.000063 F F F Ti
0.916643 0.874988 0.000011 F F F Ti
0.100214 0.124391 0.321826 T T T Ti
0.593231 0.122586 0.311503 T T T Ti
0.086094 0.617445 0.312676 T T T Ti
0.590471 0.617343 0.318902 T T T Ti
0.083350 0.125047 0.155277 F F F Ti
0.583309 0.125020 0.155303 F F F Ti
0.083324 0.625027 0.155269 F F F Ti
0.583353 0.625025 0.155331 F F F Ti
0.083377 0.124987 0.000024 F F F Ti
0.583317 0.124971 0.000055 F F F Ti
0.083357 0.625020 0.000013 F F F Ti
0.583324 0.625031 0.000064 F F F Ti
0.359323 0.150027 0.401229 T T T Ti
0.854021 0.131555 0.405064 T T T Ti
0.321561 0.605508 0.395270 T T T Ti
0.849969 0.643569 0.392122 T T T Ti
0.338087 0.125738 0.234024 T T T Ti
0.841131 0.127582 0.236410 T T T Ti
0.337846 0.628682 0.234630 T T T Ti
0.837509 0.624152 0.234924 T T T Ti
0.333314 0.125011 0.077650 F F F Ti
0.833358 0.124987 0.077647 F F F Ti
0.333320 0.625021 0.077637 F F F Ti
0.833355 0.625019 0.077641 F F F Ti
0.375026 0.375015 0.823920 F F F Ti
0.874932 0.374894 0.823896 F F F Ti
0.375017 0.874940 0.823856 F F F Ti
0.875071 0.875074 0.823797 F F F Ti
0.125078 0.125100 0.823895 F F F Ti
0.624977 0.124987 0.823920 F F F Ti
0.124927 0.624930 0.823800 F F F Ti
0.624990 0.625051 0.823857 F F F Ti
0.124973 0.375023 0.910159 F F F Ti
0.625004 0.374983 0.910166 F F F Ti
0.125009 0.874975 0.910112 F F F Ti
0.624995 0.874997 0.910129 F F F Ti
0.375002 0.125016 0.910166 F F F Ti
0.875032 0.124976 0.910158 F F F Ti
0.375010 0.625004 0.910130 F F F Ti
0.874997 0.625028 0.910112 F F F Ti
0.388894 0.383841 0.659662 T T T Ti
0.889364 0.371288 0.648638 T T T Ti
0.386379 0.893309 0.652120 T T T Ti
0.888602 0.881293 0.666180 T T T Ti
0.110635 0.128710 0.648638 T T T Ti
0.611104 0.116156 0.659661 T T T Ti
0.111396 0.618702 0.666180 T T T Ti
0.613620 0.606686 0.652121 T T T Ti
0.144911 0.380764 0.568192 T T T Ti
0.643842 0.341788 0.573316 T T T Ti
0.128910 0.861503 0.580286 T T T Ti
0.666007 0.878771 0.577360 T T T Ti
0.356157 0.158211 0.573315 T T T Ti
0.855089 0.119236 0.568191 T T T Ti
0.333993 0.621227 0.577361 T T T Ti
0.871089 0.638495 0.580287 T T T Ti
0.408590 0.398118 0.490942 T T T Ti
0.896200 0.374975 0.487890 T T T Ti
0.327320 -0.062868 0.491387 T T T Ti
0.912458 0.875720 0.482718 T T T Ti
0.103800 0.125025 0.487890 T T T Ti
0.591410 0.101882 0.490942 T T T Ti
0.087541 0.624280 0.482718 T T T Ti
0.672680 0.562867 0.491387 T T T Ti
0.125401 0.875003 0.737628 F F F Ti
0.625200 0.875063 0.737701 F F F Ti
0.374789 0.624917 0.737704 F F F Ti
0.874593 0.624984 0.737633 F F F Ti
0.124766 0.374929 0.737686 F F F Ti
0.625060 0.374591 0.737715 F F F Ti
0.374931 0.125388 0.737709 F F F Ti
0.875226 0.125053 0.737682 F F F Ti
0.500000 0.750000 0.484974 T T T Zr

0.000000 0.000000 0.000000
0.000000 0.000000 0.000000
0.000000 0.000000 0.000000
0.000000 0.000000 0.000000
0.000000 0.000000 0.000000
0.000000 0.000000 0.000000
0.000000 0.000000 0.000000
0.000000 0.000000 0.000000
0.000000 0.000000 0.000000
0.000000 0.000000 0.000000
0.000000 0.000000 0.000000
0.000000 0.000000 0.000000
0.000000 0.000000 0.000000
0.000000 0.000000 0.000000
0.000000 0.000000 0.000000
0.000000 0.000000 0.000000
0.000000 0.000000 0.000000
0.000000 0.000000 0.000000
0.000000 0.000000 0.000000
0.000000 0.000000 0.000000
0.000000 0.000000 0.000000
0.000000 0.000000 0.000000
0.000000 0.000000 0.000000
0.000000 0.000000 0.000000
0.000000 0.000000 0.000000
0.000000 0.000000 0.000000
0.000000 0.000000 0.000000
0.000000 0.000000 0.000000
0.000000 0.000000 0.000000
0.000000 0.000000 0.000000
0.000000 0.000000 0.000000
0.000000 0.000000 0.000000
0.000000 0.000000 0.000000
0.000000 0.000000 0.000000
0.000000 0.000000 0.000000
0.000000 0.000000 0.000000
0.000000 0.000000 0.000000
0.000000 0.000000 0.000000
0.000000 0.000000 0.000000
0.000000 0.000000 0.000000
0.000000 0.000000 0.000000
0.000000 0.000000 0.000000
0.000000 0.000000 0.000000
0.000000 0.000000 0.000000
0.000000 0.000000 0.000000
0.000000 0.000000 0.000000
0.000000 0.000000 0.000000
0.000000 0.000000 0.000000
0.000000 0.000000 0.000000
0.000000 0.000000 0.000000
0.000000 0.000000 0.000000
0.000000 0.000000 0.000000
0.000000 0.000000 0.000000
0.000000 0.000000 0.000000
0.000000 0.000000 0.000000
0.000000 0.000000 0.000000
0.000000 0.000000 0.000000
0.000000 0.000000 0.000000
0.000000 0.000000 0.000000
0.000000 0.000000 0.000000
0.000000 0.000000 0.000000
0.000000 0.000000 0.000000
0.000000 0.000000 0.000000
0.000000 0.000000 0.000000
0.000000 0.000000 0.000000
0.000000 0.000000 0.000000
0.000000 0.000000 0.000000
0.000000 0.000000 0.000000
0.000000 0.000000 0.000000
0.000000 0.000000 0.000000
0.000000 0.000000 0.000000
0.000000 0.000000 0.000000
0.000000 0.000000 0.000000
0.000000 0.000000 0.000000
0.000000 0.000000 0.000000
0.000000 0.000000 0.000000
0.000000 0.000000 0.000000
0.000000 0.000000 0.000000
0.000000 0.000000 0.000000
0.000000 0.000000 0.000000
0.000000 0.000000 0.000000
0.000000 0.000000 0.000000
0.000000 0.000000 0.000000
0.000000 0.000000 0.000000
0.000000 0.000000 0.000000
0.000000 0.000000 0.000000
0.000000 0.000000 0.000000
0.000000 0.000000 0.000000
0.000000 0.000000 0.000000
0.000000 0.000000 0.000000
0.000000 0.000000 0.000000
0.000000 0.000000 0.000000
0.000000 0.000000 0.000000
0.000000 0.000000 0.000000
0.000000 0.000000 0.000000
0.000000 0.000000 0.000000
0.000000 0.000000 0.000000
