Ti66 Al1
1.0
6.309760 0.000000 0.000000
0.000000 9.464640 0.000000
0.000000 0.000000 18.918326
Ti Al
66 1
Selective dynamics
direct
0.080044 0.050164 0.486272 T T T Ti
0.604756 0.025481 0.484001 T T T Ti
0.124053 0.058695 0.646302 T T T Ti
0.604585 0.050631 0.645473 T T T Ti
0.125106 0.041702 0.817448 F F F Ti
0.625521 0.041534 0.817478 F F F Ti
0.609593 0.375208 0.465594 T T T Ti
0.114745 0.375046 0.648340 T T T Ti
0.635967 0.375039 0.652319 T T T Ti
0.125032 0.375020 0.817353 F F F Ti
0.625630 0.375016 0.817654 F F F Ti
0.080475 0.699745 0.486226 T T T Ti
0.604278 0.724597 0.483963 T T T Ti
0.124218 0.691285 0.646275 T T T Ti
0.604410 0.699333 0.645439 T T T Ti
0.125125 0.708292 0.817450 F F F Ti
0.625504 0.708440 0.817476 F F F Ti
0.375777 0.222446 0.557262 T T T Ti
0.843131 0.227108 0.553311 T T T Ti
0.374782 0.208787 0.738400 F F F Ti
0.876257 0.208231 0.738303 F F F Ti
0.375092 0.208358 0.896505 F F F Ti
0.875287 0.208358 0.896497 F F F Ti
0.375633 0.527454 0.557144 T T T Ti
0.843264 0.522924 0.553289 T T T Ti
0.374782 0.541214 0.738395 F F F Ti
0.876292 0.541770 0.738298 F F F Ti
0.375093 0.541630 0.896513 F F F Ti
0.875291 0.541623 0.896505 F F F Ti
0.341237 0.875241 0.561803 T T T Ti
0.870607 0.874755 0.575322 T T T Ti
0.374464 0.875006 0.738435 F F F Ti
0.876109 0.874903 0.738193 F F F Ti
0.375129 0.874968 0.896584 F F F Ti
0.875263 0.874952 0.896562 F F F Ti
0.208203 0.608568 0.368642 T T T Ti
0.690563 0.606839 0.369414 T T T Ti
0.124907 0.624838 0.118652 F F F Ti
0.625617 0.624953 0.118650 F F F Ti
0.207544 0.141202 0.368467 T T T Ti
0.691028 0.143249 0.369424 T T T Ti
0.124834 0.125220 0.118628 F F F Ti
0.625671 0.125083 0.118626 F F F Ti
0.125243 0.375012 0.039386 F F F Ti
0.624754 0.374983 0.039407 F F F Ti
0.124879 0.875028 0.039454 F F F Ti
0.625551 0.875007 0.039463 F F F Ti
0.110920 0.375115 0.277891 T T T Ti
0.644073 0.375095 0.281148 T T T Ti
0.133139 0.875184 0.279275 T T T Ti
0.606228 0.875319 0.285209 T T T Ti
0.375432 0.875098 0.157591 F F F Ti
0.874792 0.874966 0.158411 F F F Ti
0.374481 0.374971 0.158506 F F F Ti
0.874687 0.375050 0.157421 F F F Ti
-0.072117 0.375280 0.409266 T T T Ti
0.346446 0.875881 0.401580 T T T Ti
0.887016 0.874622 0.392873 T T T Ti
0.386312 0.621083 0.246063 T T T Ti
0.881795 0.626591 0.247349 T T T Ti
0.375086 0.624972 -0.000021 F F F Ti
0.875065 0.625030 -0.000082 F F F Ti
0.386330 0.129110 0.246011 T T T Ti
0.881692 0.123552 0.247302 T T T Ti
0.375098 0.125023 -0.000031 F F F Ti
0.875061 0.124956 -0.000097 F F F Ti
0.274276 0.373163 0.434587 T T T Al

0.000000 0.000000 0.000000
0.000000 0.000000 0.000000
0.000000 0.000000 0.000000
0.000000 0.000000 0.000000
0.000000 0.000000 0.000000
0.000000 0.000000 0.000000
0.000000 0.000000 0.000000
0.000000 0.000000 0.000000
0.000000 0.000000 0.000000
0.000000 0.000000 0.000000
0.000000 0.000000 0.000000
0.000000 0.000000 0.000000
0.000000 0.000000 0.000000
0.000000 0.000000 0.000000
0.000000 0.000000 0.000000
0.000000 0.000000 0.000000
0.000000 0.000000 0.000000
0.000000 0.000000 0.000000
0.000000 0.000000 0.000000
0.000000 0.000000 0.000000
0.000000 0.000000 0.000000
0.000000 0.000000 0.000000
0.000000 0.000000 0.000000
0.000000 0.000000 0.000000
0.000000 0.000000 0.000000
0.000000 0.000000 0.000000
0.000000 0.000000 0.000000
0.000000 0.000000 0.000000
0.000000 0.000000 0.000000
0.000000 0.000000 0.000000
0.000000 0.000000 0.000000
0.000000 0.000000 0.000000
0.000000 0.000000 0.000000
0.000000 0.000000 0.000000
0.000000 0.000000 0.000000
0.000000 0.000000 0.000000
0.000000 0.000000 0.000000
0.000000 0.000000 0.000000
0.000000 0.000000 0.000000
0.000000 0.000000 0.000000
0.000000 0.000000 0.000000
0.000000 0.000000 0.000000
0.000000 0.000000 0.000000
0.000000 0.000000 0.000000
0.000000 0.000000 0.000000
0.000000 0.000000 0.000000
0.000000 0.000000 0.000000
0.000000 0.000000 0.000000
0.000000 0.000000 0.000000
0.000000 0.000000 0.000000
0.000000 0.000000 0.000000
0.000000 0.000000 0.000000
0.000000 0.000000 0.000000
0.000000 0.000000 0.000000
0.000000 0.000000 0.000000
0.000000 0.000000 0.000000
0.000000 0.000000 0.000000
0.000000 0.000000 0.000000
0.000000 0.000000 0.000000
0.000000 0.000000 0.000000
0.000000 0.000000 0.000000
0.000000 0.000000 0.000000
0.000000 0.000000 0.000000
0.000000 0.000000 0.000000
0.000000 0.000000 0.000000
0.000000 0.000000 0.000000
0.000000 0.000000 0.000000
