beta_Ti
1.0
4.756512 0.000000 0.000000
0.000000 4.675432 0.000000
0.000000 0.000000 25.211800
Ti
12
direct
0.666667 0.750000 0.801682 Ti
0.166667 0.250000 0.801682 Ti
0.166667 0.750000 0.738162 Ti
0.666667 0.250000 0.738162 Ti
0.666667 0.750000 0.674642 Ti
0.166667 0.250000 0.674642 Ti
0.166667 0.750000 0.611123 Ti
0.666667 0.250000 0.611123 Ti
0.666667 0.750000 0.547603 Ti
0.166667 0.250000 0.547603 Ti
0.166667 0.750000 0.484083 Ti
0.666667 0.250000 0.484083 Ti
