total_Ti
1.0
8.805261 0.000000 0.000000
-4.402631 7.625580 0.000000
0.000000 0.000000 23.683422
Ti
90
direct
0.083333 0.916670 0.586341 Ti
0.083333 0.416670 0.586341 Ti
0.583333 0.916670 0.586341 Ti
0.583333 0.416670 0.586341 Ti
0.250000 0.250004 0.859622 Ti
0.250000 0.750004 0.859622 Ti
0.750000 0.250004 0.859622 Ti
0.750000 0.750004 0.859622 Ti
0.416667 0.083337 0.898663 Ti
0.416667 0.583337 0.898663 Ti
0.916667 0.083337 0.898663 Ti
0.916667 0.583337 0.898663 Ti
0.250000 0.250004 0.625381 Ti
0.250000 0.750004 0.625381 Ti
0.750000 0.250004 0.625381 Ti
0.750000 0.750004 0.625381 Ti
0.416667 0.083337 0.664421 Ti
0.416667 0.583337 0.664421 Ti
0.916667 0.083337 0.664421 Ti
0.916667 0.583337 0.664421 Ti
0.083333 0.916670 0.703461 Ti
0.083333 0.416670 0.703461 Ti
0.583333 0.916670 0.703461 Ti
0.583333 0.416670 0.703461 Ti
0.250000 0.250004 0.742501 Ti
0.250000 0.750004 0.742501 Ti
0.750000 0.250004 0.742501 Ti
0.750000 0.750004 0.742501 Ti
0.416667 0.083337 0.781542 Ti
0.416667 0.583337 0.781542 Ti
0.916667 0.083337 0.781542 Ti
0.916667 0.583337 0.781542 Ti
0.083333 0.916670 0.820582 Ti
0.083333 0.416670 0.820582 Ti
0.583333 0.916670 0.820582 Ti
0.583333 0.416670 0.820582 Ti
0.138888 0.861108 -0.000000 Ti
0.138888 0.861108 0.388003 Ti
0.138888 0.527774 -0.000000 Ti
0.249999 0.749996 0.097001 Ti
0.138888 0.527774 0.388003 Ti
0.472221 0.861108 -0.000000 Ti
0.138888 0.194441 -0.000000 Ti
0.249999 0.749996 0.485004 Ti
0.250000 0.416663 0.097001 Ti
0.472221 0.861108 0.388003 Ti
0.138888 0.194441 0.388003 Ti
0.472222 0.527774 -0.000000 Ti
0.250000 0.416663 0.485004 Ti
0.583333 0.749996 0.097001 Ti
0.250000 0.083330 0.097001 Ti
0.472222 0.527774 0.388003 Ti
0.805555 0.861108 -0.000000 Ti
0.472222 0.194441 -0.000000 Ti
0.583333 0.749996 0.485004 Ti
0.250000 0.083330 0.485004 Ti
0.583333 0.416663 0.097001 Ti
0.805555 0.861108 0.388003 Ti
0.472222 0.194441 0.388003 Ti
0.805555 0.527774 -0.000000 Ti
0.583333 0.416663 0.485004 Ti
0.916666 0.749996 0.097001 Ti
0.583333 0.083330 0.097001 Ti
0.805555 0.527774 0.388003 Ti
0.805555 0.194441 -0.000000 Ti
0.916666 0.749996 0.485004 Ti
0.583333 0.083330 0.485004 Ti
0.916666 0.416663 0.097001 Ti
0.805555 0.194441 0.388003 Ti
0.916666 0.416663 0.485004 Ti
0.916666 0.083330 0.097001 Ti
0.916666 0.083330 0.485004 Ti
0.138888 0.861108 0.194002 Ti
0.138888 0.527774 0.194002 Ti
0.249999 0.749996 0.291002 Ti
0.472221 0.861108 0.194002 Ti
0.138888 0.194441 0.194002 Ti
0.250000 0.416663 0.291002 Ti
0.472222 0.527774 0.194002 Ti
0.583333 0.749996 0.291002 Ti
0.250000 0.083330 0.291002 Ti
0.805555 0.861108 0.194002 Ti
0.472222 0.194441 0.194002 Ti
0.583333 0.416663 0.291002 Ti
0.805555 0.527774 0.194002 Ti
0.916666 0.749996 0.291002 Ti
0.583333 0.083330 0.291002 Ti
0.805555 0.194441 0.194002 Ti
0.916666 0.416663 0.291002 Ti
0.916666 0.083330 0.291002 Ti
