substance_top
1.0
   2.9630000000000001    0.0000000000000000    0.0000000000000002
   0.0000000000000025   15.3989999999999991    0.0000000000000009
   0.0000000000000000    0.0000000000000000   50.6920000000000002
Fe
52
Selective dynamics
direct
   0.3530400000000001    0.0451600000000000    0.3748816381283043 T T T Fe
   0.3478800000000001    0.1587300000000000    0.4211414029827193 T T T Fe
   0.3467900000000000    0.1101100000000000    0.4998027302138405 F F F Fe
   0.3427100000000000    0.2723000000000000    0.4674110313264421 F F F Fe
   0.3457200000000001    0.0614800000000000    0.5784640574449619 F F F Fe
   0.3416300000000000    0.2236700000000000    0.5460723585575634 F F F Fe
   0.3375500000000000    0.3858699999999999    0.5136707961808570 F F F Fe
   0.3489500000000000    0.2073600000000000    0.3424800757515980 T T T Fe
   0.3437800000000000    0.3209400000000000    0.3887497040953209 T T T Fe
   0.3396899999999999    0.4831299999999999    0.3563580052079224 T T T Fe
   0.3386200000000000    0.4344999999999999    0.4350094689497358 T T T Fe
   0.3345300000000000    0.5967000000000000    0.4026177700623373 T T T Fe
   0.3304300000000001    0.7588900000000000    0.3702260711749389 T T T Fe
   0.3334500000000000    0.5480600000000000    0.4812790972934587 F F F Fe
   0.3293600000000000    0.7102600000000000    0.4488873984060602 T T T Fe
   0.3252700000000000    0.8724700000000000    0.4164858360293539 T T T Fe
   0.3405600000000000    0.1750400000000000    0.6247238222993767 F F F Fe
   0.3364600000000000    0.3372400000000000    0.5923321234119784 F F F Fe
   0.3323800000000000    0.4994300000000000    0.5599404245245799 F F F Fe
   0.3272200000000001    0.6130100000000001    0.6062001893789949 F F F Fe
   0.3282900000000001    0.6616400000000000    0.5275388621478736 F F F Fe
   0.3242000000000000    0.8238400000000000    0.4951471632604751 F F F Fe
   0.3201000000000000    0.9860300000000000    0.4627554643730767 F F F Fe
   0.3231200000000000    0.7752000000000000    0.5738084904915964 F F F Fe
   0.3190300000000000    0.9374000000000000    0.5414167916041981 F F F Fe
   0.3179600000000001    0.8887699999999999    0.6200682553460113 F F F Fe
   0.8304500000000001    0.1350900000000000    0.4605263157894738 F F F Fe
   0.8293799999999999    0.0864600000000000    0.5391876430205951 F F F Fe
   0.8252900000000000    0.2486500000000000    0.5067959441331966 F F F Fe
   0.8366899999999999    0.0701500000000000    0.3356052237039376 T T T Fe
   0.8315300000000000    0.1837200000000000    0.3818649885583525 T T T Fe
   0.8274300000000000    0.3459199999999999    0.3494732896709541 T T T Fe
   0.8263600000000001    0.2972799999999999    0.4281346169020754 T T T Fe
   0.8222700000000002    0.4594800000000000    0.3957429180146770 T T T Fe
   0.8181899999999999    0.6216800000000000    0.3633413556379706 T T T Fe
   0.8212000000000000    0.4108500000000000    0.4743943817564902 F F F Fe
   0.8171000000000002    0.5730499999999999    0.4420026828690918 T T T Fe
   0.8130200000000000    0.7352500000000000    0.4096109839816935 T T T Fe
   0.8089300000000000    0.8974500000000000    0.3772094216049870 T T T Fe
   0.8283100000000000    0.0378300000000000    0.6178489702517164 F F F Fe
   0.8242200000000000    0.2000200000000000    0.5854572713643180 F F F Fe
   0.8201199999999998    0.3622300000000000    0.5530557089876116 F F F Fe
   0.8149600000000000    0.4757900000000000    0.5993253373313344 F F F Fe
   0.8160300000000000    0.5244200000000000    0.5206640101002131 F F F Fe
   0.8119400000000001    0.6866200000000000    0.4882723112128148 F F F Fe
   0.8078600000000001    0.8488200000000000    0.4558707488361084 T T T Fe
   0.8037600000000000    0.0110100000000000    0.4234790499487099 T T T Fe
   0.8108700000000001    0.6379899999999999    0.5669237749546281 F F F Fe
   0.8067700000000001    0.8001900000000000    0.5345320760672296 F F F Fe
   0.8026900000000000    0.9623800000000000    0.5021403771798313 F F F Fe
   0.8056999999999999    0.7515500000000001    0.6131934032983510 F F F Fe
   0.8016100000000000    0.9137599999999999    0.5808017044109525 F F F Fe
