substance_top
1.0
   3.5061499999999999    0.0000000000000000    0.0000000000000002
   0.0000000000000019   12.0001999999999995    0.0000000000000007
   0.0000000000000000    0.0000000000000000   28.3716049620000028
Fe
36
Selective dynamics
direct
   0.9933200000000000    0.7184400000000000    0.6475319276299740 F F F Fe
   0.4933200000000000    0.5543100000000000    0.6352961514211568 F F F Fe
   0.4933200000000000    0.7391600000000000    0.5978400804860324 F F F Fe
   0.9933200000000000    0.5750200000000000    0.5856043042772153 F F F Fe
   0.9933200000000002    0.3901700000000000    0.6230508974615969 F F F Fe
   0.4933200000000000    0.2260400000000000    0.6108151212527797 F F F Fe
   0.4933200000000000    0.4108899999999999    0.5733590503176552 F F F Fe
   0.9933200000000002    0.2467500000000000    0.5611232741088381 F F F Fe
   0.9933200000000000    0.0619000000000000    0.5985698672932198 F F F Fe
   0.4933200000000000    0.8977699999999998    0.5863340910844027 F F F Fe
   0.4933200000000000    0.0826200000000000    0.5488780201492782 F F F Fe
   0.9933200000000000    0.9184800000000000    0.5366422439404610 F F F Fe
   0.9933200000000000    0.7598700000000000    0.5481577110928335 F F F Fe
   0.4933200000000000    0.5957300000000000    0.5359124571332736 F F F Fe
   0.4933200000000000    0.7805800000000001    0.4984658639488920 F F F Fe
   0.9933200000000002    0.6164500000000001    0.4862206099893320 F F F Fe
   0.9933200000000002    0.4315999999999999    0.5236766809244564 F F F Fe
   0.4933200000000000    0.2674600000000000    0.5114314269648965 F F F Fe
   0.4933200000000000    0.4523100000000000    0.4739848337805148 F F F Fe
   0.9933200000000002    0.2881800000000000    0.4617395798209549 F F F Fe
   0.9933199999999998    0.1033300000000000    0.4991956507560793 F F F Fe
   0.4933200000000000    0.9391999999999999    0.4869503967965192 F F F Fe
   0.4933200000000000    0.1240400000000000    0.4495038036121377 F F F Fe
   0.9933200000000000    0.9599100000000000    0.4372585496525777 F F F Fe
   0.9933200000000000    0.8013000000000000    0.4487740168049502 F F F Fe
   0.4933200000000000    0.6371599999999998    0.4365382405961331 F F F Fe
   0.4933200000000000    0.8220099999999999    0.3990821696610086 F F F Fe
   0.9933200000000002    0.6578799999999999    0.3868463934521915 F F F Fe
   0.9933200000000002    0.4730300000000000    0.4242929866365731 F F F Fe
   0.4933200000000000    0.3088900000000000    0.4120572104277560 F F F Fe
   0.4933200000000000    0.4937400000000000    0.3746011394926315 F F F Fe
   0.9933200000000000    0.3296100000000000    0.3623653632838144 F F F Fe
   0.9933200000000002    0.1447600000000000    0.3998119564681960 F F F Fe
   0.4933200000000000    0.9806200000000000    0.3875761802593787 F F F Fe
   0.4933200000000000    0.1654700000000000    0.3501201093242544 F F F Fe
   0.9933200000000000    0.0013400000000000    0.3378843331154372 F F F Fe
