total_structure
1.0
   3.0750000000000002    0.0000000000000000    0.0000000000000002
   0.0000000000000026   16.0000000000000000    0.0000000000000010
   0.0000000000000000    0.0000000000000000   54.0109925000000004
Cr Fe W N
30 54 6 36
Selective dynamics
direct
   0.3179800000000000    0.8541700000000000    0.1703709388417552 T T T Cr
   0.3171399999999999    0.9636600000000000    0.2172510808795080 T T T Cr
   0.8244299999999999    0.7978400000000000    0.2169048180331069 T T T Cr
   0.3327500000000000    0.5208500000000000    0.1703709388417552 T T T Cr
   0.3319100000000000    0.6303400000000000    0.2172510808795080 T T T Cr
   0.8252700000000001    0.6883500000000000    0.1700342944077541 T T T Cr
   0.8391900000000000    0.4645200000000000    0.2169048180331069 T T T Cr
   0.3475200000000000    0.1875300000000000    0.1703709388417552 T T T Cr
   0.3466800000000000    0.2970200000000000    0.2172510808795080 T T T Cr
   0.8400400000000000    0.3550300000000000    0.1700246759953541 T T T Cr
   0.8539600000000002    0.1311900000000000    0.2169048180331069 T T T Cr
   0.3190500000000000    0.8541800000000001    0.0307308276181001 F F F Cr
   0.3182000000000000    0.9636700000000000    0.0776109696558529 F F F Cr
   0.8254899999999999    0.7978400000000000    0.0772647068094518 F F F Cr
   0.3320899999999999    0.7398700000000000    0.1234811783916024 F F F Cr
   0.8246500000000000    0.9073300000000000    0.1241448488472046 F F F Cr
   0.3338200000000000    0.5208600000000000    0.0307308276181001 F F F Cr
   0.3329700000000000    0.6303500000000000    0.0776109696558529 F F F Cr
   0.8263400000000001    0.6883500000000000    0.0303941831840991 F F F Cr
   0.8402600000000000    0.4645200000000000    0.0772647068094518 F F F Cr
   0.3468600000000001    0.4065500000000000    0.1234811783916024 F F F Cr
   0.8394100000000000    0.5740100000000000    0.1241448488472046 F F F Cr
   0.3485900000000000    0.1875400000000000    0.0307308276181002 F F F Cr
   0.3477400000000000    0.2970300000000000    0.0776109696558529 F F F Cr
   0.8411000000000000    0.3550300000000000    0.0303845647716990 F F F Cr
   0.8550300000000000    0.1312000000000000    0.0772647068094518 F F F Cr
   0.3616200000000000    0.0732300000000000    0.1234811783916024 F F F Cr
   0.8541800000000001    0.2406900000000000    0.1241448488472046 F F F Cr
   0.8400400000000000    0.0233600000000000    0.1700246759953541 T T T Cr
   0.8411000000000000    0.0233700000000000    0.0303845647716990 F F F Cr
   0.3530400000000000    0.0286600000000000    0.3757842720627658 T T T Fe
   0.3478800000000001    0.1409000000000000    0.4211831785909137 T T T Fe
   0.3467900000000000    0.0900100000000000    0.4977649781199633 F F F Fe
   0.3427100000000000    0.2531300000000000    0.4665917035314617 T T T Fe
   0.3457200000000000    0.0391300000000000    0.5743371592366129 F F F Fe
   0.3416299999999999    0.2022400000000000    0.5431735030605113 F F F Fe
   0.3375500000000000    0.3653700000000000    0.5120002284720098 F F F Fe
   0.3489500000000000    0.1917800000000000    0.3446109974742642 T T T Fe
   0.3437799999999999    0.3040200000000000    0.3900195224148121 T T T Fe
   0.3396900000000000    0.4671400000000000    0.3588558662387106 T T T Fe
   0.3386200000000000    0.4162500000000000    0.4354184289429601 T T T Fe
   0.3345300000000000    0.5793800000000000    0.4042547727668586 T T T Fe
   0.3304300000000000    0.7425000000000000    0.3730911165907570 T T T Fe
   0.3334500000000000    0.5284799999999999    0.4808365722959081 F F F Fe
   0.3293600000000000    0.6916099999999999    0.4496632977074065 T T T Fe
   0.3252700000000000    0.8547400000000001    0.4184900231189049 T T T Fe
   0.3405600000000000    0.1513600000000000    0.6197456841771608 F F F Fe
   0.3364600000000000    0.3144800000000000    0.5885724095886593 F F F Fe
   0.3323800000000000    0.4776000000000000    0.5574087534125577 F F F Fe
   0.3272200000000001    0.5898400000000000    0.6028172783531056 F F F Fe
   0.3282900000000000    0.6407200000000000    0.5262354788240561 F F F Fe
   0.3242000000000000    0.8038500000000000    0.4950718226479545 F F F Fe
   0.3200999999999999    0.9669700000000000    0.4638985480594529 T T T Fe
   0.3231200000000000    0.7529500000000000    0.5716440037646041 F F F Fe
   0.3190300000000000    0.9160800000000000    0.5404803475885025 F F F Fe
   0.3179600000000000    0.8652000000000000    0.6170525287051519 F F F Fe
   0.8304500000000001    0.1161200000000000    0.4595317888298387 T T T Fe
   0.8293800000000001    0.0652400000000000    0.5361039699464883 F F F Fe
   0.8252899999999999    0.2283500000000000    0.5049403137703866 F F F Fe
   0.8366900000000000    0.0547800000000000    0.3375510827726412 T T T Fe
   0.8315300000000000    0.1670100000000000    0.3829499893007892 T T T Fe
   0.8274300000000000    0.3301300000000000    0.3517863331246876 T T T Fe
   0.8263600000000000    0.2792400000000000    0.4283585142413370 T T T Fe
   0.8222699999999999    0.4423600000000000    0.3971948580652356 T T T Fe
   0.8181899999999999    0.6054900000000000    0.3660215834767340 T T T Fe
   0.8212000000000000    0.3914800000000000    0.4737670391818851 F F F Fe
   0.8171000000000000    0.5546000000000000    0.4425937645933835 T T T Fe
   0.8130200000000001    0.7177200000000000    0.4114301084172819 T T T Fe
   0.8089300000000000    0.8808500000000000    0.3802568338287803 T T T Fe
   0.8283100000000001    0.0143500000000000    0.6126857694755378 F F F Fe
   0.8242200000000000    0.1774700000000000    0.5815221132994363 F F F Fe
   0.8201200000000000    0.3405900000000000    0.5503392202985345 F F F Fe
   0.8149600000000001    0.4528200000000000    0.5957573636514826 F F F Fe
   0.8160300000000000    0.5037100000000000    0.5191755641224332 F F F Fe
   0.8119400000000000    0.6668300000000000    0.4880119079463315 F F F Fe
   0.8078600000000001    0.8299600000000000    0.4568290149454299 T T T Fe
   0.8030800000000000    0.0063900000000000    0.4134980670832887 T T T Fe
   0.8108699999999999    0.6159500000000000    0.5645744706505810 F F F Fe
   0.8067699999999999    0.7790700000000000    0.5334108144744795 F F F Fe
   0.8026899999999999    0.9421900000000000    0.5022471582983778 F F F Fe
   0.8057000000000000    0.7281800000000000    0.6099926140035290 F F F Fe
   0.8016100000000000    0.8913000000000000    0.5788193394150274 F F F Fe
   0.3238700000000000    0.9110900000000000    0.3422641048486566 T T T Fe
   0.8118499999999998    0.7695300000000000    0.3348194536510322 T T T Fe
   0.3310199999999999    0.7398700000000000    0.3012800496121230 T T T W
   0.8235800000000000    0.9073300000000000    0.3019437200677251 T T T W
   0.3457900000000000    0.4065500000000000    0.3012800496121230 T T T W
   0.8383500000000002    0.5740100000000000    0.3019437200677251 T T T W
   0.3605600000000000    0.0732200000000000    0.3012800496121230 T T T W
   0.8531199999999999    0.2406800000000000    0.3019437200677251 T T T W
   0.8174800000000000    0.9097300000000000    0.1939745228714322 T T T N
   0.3249200000000000    0.7422700000000000    0.1933012340034299 T T T N
   0.3240800000000000    0.8517600000000000    0.2401813760411827 T T T N
   0.8315899999999999    0.7954300000000000    0.1470847624212793 T T T N
   0.3243000000000000    0.9612600000000000    0.1474214068552804 T T T N
   0.8322500000000002    0.5764100000000000    0.1939745228714322 T T T N
   0.8313700000000001    0.6859400000000000    0.2398447316071816 T T T N
   0.3396900000000000    0.4089500000000000    0.1933012340034300 T T T N
   0.3388500000000000    0.5184400000000000    0.2401813760411828 T T T N
   0.8463600000000001    0.4621100000000000    0.1470847624212794 T T T N
   0.3390700000000000    0.6279400000000001    0.1474214068552804 T T T N
   0.8470199999999999    0.2430900000000000    0.1939745228714322 T T T N
   0.8461400000000000    0.3526200000000000    0.2398447316071816 T T T N
   0.3544600000000000    0.0756300000000000    0.1933012340034300 T T T N
   0.3536200000000000    0.1851200000000000    0.2401813760411828 T T T N
   0.8611300000000000    0.1287900000000000    0.1470847624212794 T T T N
   0.3538400000000000    0.2946200000000000    0.1474214068552804 T T T N
   0.8185500000000000    0.9097400000000000    0.0543344116477771 F F F N
   0.3259899999999999    0.7422800000000001    0.0536611227797749 F F F N
   0.3251400000000000    0.8517700000000000    0.1005412648175277 F F F N
   0.8326499999999999    0.7954400000000000    0.0074446511976243 F F F N
   0.3253600000000000    0.9612700000000000    0.0077812956316254 F F F N
   0.8333199999999999    0.5764200000000000    0.0543344116477771 F F F N
   0.8324300000000000    0.6859400000000000    0.1002046203835266 F F F N
   0.3407600000000001    0.4089600000000000    0.0536611227797749 F F F N
   0.3399100000000000    0.5184500000000000    0.1005412648175277 F F F N
   0.8474200000000001    0.4621200000000000    0.0074446511976243 F F F N
   0.3401300000000000    0.6279400000000001    0.0077812956316254 F F F N
   0.8480899999999999    0.2431000000000000    0.0543344116477771 F F F N
   0.8472000000000000    0.3526200000000000    0.1002046203835266 F F F N
   0.3555300000000000    0.0756400000000000    0.0536611227797749 F F F N
   0.3546799999999999    0.1851300000000000    0.1005412648175277 F F F N
   0.8621900000000001    0.1288000000000000    0.0074446511976243 F F F N
   0.3549000000000000    0.2946200000000000    0.0077812956316254 F F F N
   0.8461400000000000    0.0209600000000000    0.2398447316071816 T T T N
   0.8472000000000000    0.0209600000000000    0.1002046203835266 F F F N
