total_structure
1.0
   3.5062000000000002    0.0000000000000000    0.0000000000000002
   0.0000000000000019   12.0001999999999995    0.0000000000000007
   0.0000000000000000    0.0000000000000000   30.3249410620000006
Cr Fe N
24 36 24
Selective dynamics
direct
   0.1440500000000000    0.0017200000000000    0.3881451250617438 T T T Cr
   0.6440500000000000    0.3767200000000000    0.3136588052901126 T T T Cr
   0.6440500000000000    0.1267200000000000    0.3136588052901126 T T T Cr
   0.1440500000000000    0.2517200000000000    0.3881451250617438 T T T Cr
   0.1440500000000000    0.0017200000000000    0.2391724855184815 T T T Cr
   0.6440500000000000    0.3767200000000000    0.1646957238528136 F F F Cr
   0.6440500000000000    0.1267200000000000    0.1646957238528136 F F F Cr
   0.1440500000000000    0.2517200000000000    0.2391724855184815 T T T Cr
   0.1440500000000000    0.5017199999999999    0.3881451250617438 T T T Cr
   0.6440500000000000    0.8767200000000001    0.3136588052901126 T T T Cr
   0.6440500000000000    0.6267199999999999    0.3136588052901126 T T T Cr
   0.1440500000000000    0.7517199999999999    0.3881451250617438 T T T Cr
   0.1440500000000000    0.5017199999999999    0.2391724855184815 T T T Cr
   0.6440500000000000    0.8767200000000001    0.1646957238528136 F F F Cr
   0.6440500000000000    0.6267199999999999    0.1646957238528136 F F F Cr
   0.1440500000000000    0.7517199999999999    0.2391724855184815 T T T Cr
   0.1275900000000000    0.0033700000000000    0.0903241013527415 F F F Cr
   0.6275900000000000    0.3783700000000000    0.0158377815811103 F F F Cr
   0.6275900000000000    0.1283700000000000    0.0158377815811103 F F F Cr
   0.1275900000000000    0.2533700000000000    0.0903241013527415 F F F Cr
   0.1275900000000000    0.5033700000000000    0.0903241013527415 F F F Cr
   0.6275900000000000    0.8783700000000000    0.0158377815811103 F F F Cr
   0.6275900000000000    0.6283700000000000    0.0158377815811103 F F F Cr
   0.1275900000000000    0.7533699999999999    0.0903241013527415 F F F Cr
   0.1373800000000000    0.7201700000000000    0.8092393211853953 F F F Fe
   0.6373799999999998    0.5560300000000000    0.7968902482808724 F F F Fe
   0.6373799999999998    0.7408799999999999    0.7591261716200595 F F F Fe
   0.1373800000000000    0.5767400000000000    0.7467866568214997 F F F Fe
   0.1373800000000000    0.3919000000000000    0.7845507334823126 F F F Fe
   0.6373799999999999    0.2277600000000000    0.7722016605777896 F F F Fe
   0.6373799999999999    0.4126100000000000    0.7344375839169768 F F F Fe
   0.1373800000000000    0.2484800000000000    0.7220980691184171 F F F Fe
   0.1373800000000000    0.0636300000000000    0.7598621457792299 F F F Fe
   0.6373799999999999    0.8994900000000000    0.7475130728747070 F F F Fe
   0.6373799999999999    0.0843400000000000    0.7097489962138941 F F F Fe
   0.1373800000000000    0.9202099999999999    0.6974094814153344 F F F Fe
   0.1373800000000000    0.7615900000000000    0.7090130220547236 F F F Fe
   0.6373799999999999    0.5974600000000000    0.6966735072561639 F F F Fe
   0.6373799999999998    0.7823099999999999    0.6589094305953510 F F F Fe
   0.1373800000000000    0.6181700000000000    0.6465603576908281 F F F Fe
   0.1373800000000000    0.4333199999999999    0.6843244343516409 F F F Fe
   0.6373799999999999    0.2691900000000000    0.6719849195530813 F F F Fe
   0.6373799999999999    0.4540399999999999    0.6342208428922684 F F F Fe
   0.1373800000000000    0.2899000000000000    0.6218717699877454 F F F Fe
   0.1373800000000000    0.1050500000000000    0.6596358466485582 F F F Fe
   0.6373799999999998    0.9409200000000000    0.6472963318499986 F F F Fe
   0.6373799999999999    0.1257700000000000    0.6095322551891857 F F F Fe
   0.1373800000000000    0.9616299999999999    0.5971831822846627 T T T Fe
   0.1373800000000000    0.8030199999999998    0.6087962810300153 F F F Fe
   0.6373799999999999    0.6388900000000000    0.5964472081254922 T T T Fe
   0.6373799999999999    0.8237400000000000    0.5586831314646794 T T T Fe
   0.1373800000000000    0.6595999999999999    0.5463436166661196 T T T Fe
   0.1373800000000000    0.4747499999999999    0.5841076933269327 T T T Fe
   0.6373799999999998    0.3106200000000000    0.5717586204224095 T T T Fe
   0.6373799999999999    0.4954700000000000    0.5339945437615967 T T T Fe
   0.1373800000000000    0.3313300000000000    0.5216550289630369 T T T Fe
   0.1373800000000000    0.1464800000000000    0.5594191056238499 T T T Fe
   0.6373799999999998    0.9823499999999998    0.5470700327193269 T T T Fe
   0.6373799999999999    0.1672000000000000    0.5093059560585140 T T T Fe
   0.1373800000000000    0.0030600000000000    0.4969664412599544 T T T Fe
   0.6440500000000000    0.3767200000000000    0.3881451250617438 T T T N
   0.1440500000000000    0.0017200000000000    0.3136588052901126 T T T N
   0.1440500000000000    0.2517200000000000    0.3136588052901126 T T T N
   0.6440500000000000    0.1267200000000000    0.3881451250617438 T T T N
   0.6440500000000000    0.3767200000000000    0.2391724855184815 T T T N
   0.1440500000000000    0.0017200000000000    0.1646957238528136 F F F N
   0.1440500000000000    0.2517200000000000    0.1646957238528136 F F F N
   0.6440500000000000    0.1267200000000000    0.2391724855184815 T T T N
   0.6440500000000000    0.8767200000000001    0.3881451250617438 T T T N
   0.1440500000000000    0.5017199999999999    0.3136588052901126 T T T N
   0.1440500000000000    0.7517199999999999    0.3136588052901126 T T T N
   0.6440500000000000    0.6267199999999999    0.3881451250617438 T T T N
   0.6440500000000000    0.8767200000000001    0.2391724855184815 T T T N
   0.1440500000000000    0.5017199999999999    0.1646957238528136 F F F N
   0.1440500000000000    0.7517199999999999    0.1646957238528136 F F F N
   0.6440500000000000    0.6267199999999999    0.2391724855184815 T T T N
   0.6275900000000000    0.3783700000000000    0.0903241013527415 F F F N
   0.1275900000000000    0.0033700000000000    0.0158377815811103 F F F N
   0.1275900000000000    0.2533700000000000    0.0158377815811103 F F F N
   0.6275900000000000    0.1283700000000000    0.0903241013527415 F F F N
   0.6275900000000000    0.8783700000000000    0.0903241013527415 F F F N
   0.1275900000000000    0.5033700000000000    0.0158377815811103 F F F N
   0.1275900000000000    0.7533699999999999    0.0158377815811103 F F F N
   0.6275900000000000    0.6283700000000000    0.0903241013527415 F F F N
