total_structure
1.0
   2.9630000000000001    0.0000000000000000    0.0000000000000002
   0.0000000000000025   15.3989999999999991    0.0000000000000009
   0.0000000000000000    0.0000000000000000   50.6920000000000002
Cr Fe N
36 52 36
Selective dynamics
direct
   0.3179800000000000    0.8541699999999999    0.1747119861122071 T T T Cr
   0.3171400000000000    0.9636600000000000    0.2227866329992899 T T T Cr
   0.8244300000000000    0.7978400000000000    0.2224315473842026 T T T Cr
   0.3310200000000000    0.7398700000000000    0.2698256135090350 T T T Cr
   0.8235799999999999    0.9073299999999999    0.2705061942712855 T T T Cr
   0.3327500000000000    0.5208500000000000    0.1747119861122071 T T T Cr
   0.3319100000000000    0.6303400000000000    0.2227866329992899 T T T Cr
   0.8252700000000001    0.6883500000000000    0.1743667639864278 T T T Cr
   0.8391900000000002    0.4645200000000000    0.2224315473842026 T T T Cr
   0.3457900000000000    0.4065500000000000    0.2698256135090350 T T T Cr
   0.8383500000000000    0.5740100000000000    0.2705061942712854 T T T Cr
   0.3475200000000000    0.1875300000000000    0.1747119861122071 T T T Cr
   0.3466800000000000    0.2970200000000000    0.2227866329992899 T T T Cr
   0.8400400000000001    0.3550300000000000    0.1743569004971199 T T T Cr
   0.8539600000000001    0.1311900000000000    0.2224315473842026 T T T Cr
   0.3605600000000000    0.0732200000000000    0.2698256135090350 T T T Cr
   0.8531200000000000    0.2406800000000000    0.2705061942712854 T T T Cr
   0.3190500000000000    0.8541799999999999    0.0315138483389884 F F F Cr
   0.3182000000000000    0.9636700000000000    0.0795884952260712 F F F Cr
   0.8254899999999999    0.7978400000000000    0.0792334096109840 F F F Cr
   0.3320900000000001    0.7398700000000000    0.1266274757358163 F F F Cr
   0.8246500000000000    0.9073299999999999    0.1273080564980667 F F F Cr
   0.3338200000000001    0.5208600000000000    0.0315138483389884 F F F Cr
   0.3329700000000000    0.6303500000000000    0.0795884952260712 F F F Cr
   0.8263400000000001    0.6883500000000000    0.0311686262132092 F F F Cr
   0.8402600000000001    0.4645200000000000    0.0792334096109840 F F F Cr
   0.3468600000000001    0.4065500000000000    0.1266274757358163 F F F Cr
   0.8394100000000000    0.5740100000000000    0.1273080564980668 F F F Cr
   0.3485900000000000    0.1875400000000000    0.0315138483389884 F F F Cr
   0.3477400000000000    0.2970300000000000    0.0795884952260712 F F F Cr
   0.8411000000000000    0.3550300000000000    0.0311587627239012 F F F Cr
   0.8550300000000001    0.1312000000000000    0.0792334096109840 F F F Cr
   0.3616200000000001    0.0732300000000000    0.1266274757358163 F F F Cr
   0.8541799999999999    0.2406900000000000    0.1273080564980668 F F F Cr
   0.8400400000000001    0.0233600000000000    0.1743569004971199 T T T Cr
   0.8411000000000001    0.0233700000000000    0.0311587627239012 F F F Cr
   0.3530400000000001    0.0451600000000000    0.3748816381283043 T T T Fe
   0.3478800000000001    0.1587300000000000    0.4211414029827193 T T T Fe
   0.3467900000000000    0.1101100000000000    0.4998027302138405 F F F Fe
   0.3427100000000000    0.2723000000000000    0.4674110313264421 F F F Fe
   0.3457200000000001    0.0614800000000000    0.5784640574449619 F F F Fe
   0.3416300000000000    0.2236700000000000    0.5460723585575634 F F F Fe
   0.3375500000000000    0.3858699999999999    0.5136707961808570 F F F Fe
   0.3489500000000000    0.2073600000000000    0.3424800757515980 T T T Fe
   0.3437800000000000    0.3209400000000000    0.3887497040953209 T T T Fe
   0.3396899999999999    0.4831299999999999    0.3563580052079224 T T T Fe
   0.3386200000000000    0.4344999999999999    0.4350094689497358 T T T Fe
   0.3345300000000000    0.5967000000000000    0.4026177700623373 T T T Fe
   0.3304300000000001    0.7588900000000000    0.3702260711749389 T T T Fe
   0.3334500000000000    0.5480600000000000    0.4812790972934587 F F F Fe
   0.3293600000000000    0.7102600000000000    0.4488873984060602 T T T Fe
   0.3252700000000000    0.8724700000000000    0.4164858360293539 T T T Fe
   0.3405600000000000    0.1750400000000000    0.6247238222993767 F F F Fe
   0.3364600000000000    0.3372400000000000    0.5923321234119784 F F F Fe
   0.3323800000000000    0.4994300000000000    0.5599404245245799 F F F Fe
   0.3272200000000001    0.6130100000000001    0.6062001893789949 F F F Fe
   0.3282900000000001    0.6616400000000000    0.5275388621478736 F F F Fe
   0.3242000000000000    0.8238400000000000    0.4951471632604751 F F F Fe
   0.3201000000000000    0.9860300000000000    0.4627554643730767 F F F Fe
   0.3231200000000000    0.7752000000000000    0.5738084904915964 F F F Fe
   0.3190300000000000    0.9374000000000000    0.5414167916041981 F F F Fe
   0.3179600000000001    0.8887699999999999    0.6200682553460113 F F F Fe
   0.8304500000000001    0.1350900000000000    0.4605263157894738 F F F Fe
   0.8293799999999999    0.0864600000000000    0.5391876430205951 F F F Fe
   0.8252900000000000    0.2486500000000000    0.5067959441331966 F F F Fe
   0.8366899999999999    0.0701500000000000    0.3356052237039376 T T T Fe
   0.8315300000000000    0.1837200000000000    0.3818649885583525 T T T Fe
   0.8274300000000000    0.3459199999999999    0.3494732896709541 T T T Fe
   0.8263600000000001    0.2972799999999999    0.4281346169020754 T T T Fe
   0.8222700000000002    0.4594800000000000    0.3957429180146770 T T T Fe
   0.8181899999999999    0.6216800000000000    0.3633413556379706 T T T Fe
   0.8212000000000000    0.4108500000000000    0.4743943817564902 F F F Fe
   0.8171000000000002    0.5730499999999999    0.4420026828690918 T T T Fe
   0.8130200000000000    0.7352500000000000    0.4096109839816935 T T T Fe
   0.8089300000000000    0.8974500000000000    0.3772094216049870 T T T Fe
   0.8283100000000000    0.0378300000000000    0.6178489702517164 F F F Fe
   0.8242200000000000    0.2000200000000000    0.5854572713643180 F F F Fe
   0.8201199999999998    0.3622300000000000    0.5530557089876116 F F F Fe
   0.8149600000000000    0.4757900000000000    0.5993253373313344 F F F Fe
   0.8160300000000000    0.5244200000000000    0.5206640101002131 F F F Fe
   0.8119400000000001    0.6866200000000000    0.4882723112128148 F F F Fe
   0.8078600000000001    0.8488200000000000    0.4558707488361084 T T T Fe
   0.8037600000000000    0.0110100000000000    0.4234790499487099 T T T Fe
   0.8108700000000001    0.6379899999999999    0.5669237749546281 F F F Fe
   0.8067700000000001    0.8001900000000000    0.5345320760672296 F F F Fe
   0.8026900000000000    0.9623800000000000    0.5021403771798313 F F F Fe
   0.8056999999999999    0.7515500000000001    0.6131934032983510 F F F Fe
   0.8016100000000000    0.9137599999999999    0.5808017044109525 F F F Fe
   0.8174800000000000    0.9097299999999999    0.1989169888739841 T T T N
   0.3249200000000000    0.7422700000000000    0.1982265446224256 T T T N
   0.3240800000000000    0.8517599999999999    0.2463011915095084 T T T N
   0.8315900000000001    0.7954300000000000    0.1508324784975933 T T T N
   0.3243000000000000    0.9612600000000000    0.1511777006233725 T T T N
   0.8322500000000000    0.5764100000000000    0.1989169888739841 T T T N
   0.8313700000000002    0.6859400000000000    0.2459559693837292 T T T N
   0.3396900000000000    0.4089500000000000    0.1982265446224257 T T T N
   0.3388500000000000    0.5184400000000000    0.2463011915095084 T T T N
   0.8463600000000002    0.4621100000000000    0.1508324784975933 T T T N
   0.3390700000000000    0.6279400000000001    0.1511777006233725 T T T N
   0.8470199999999999    0.2430900000000000    0.1989169888739841 T T T N
   0.8461400000000000    0.3526200000000000    0.2459559693837292 T T T N
   0.3544600000000001    0.0756300000000000    0.1982265446224257 T T T N
   0.3536199999999999    0.1851200000000000    0.2463011915095084 T T T N
   0.8611300000000001    0.1287900000000000    0.1508324784975933 T T T N
   0.3538400000000000    0.2946199999999999    0.1511777006233725 T T T N
   0.8185500000000000    0.9097399999999999    0.0557188511007654 F F F N
   0.3259900000000001    0.7422800000000001    0.0550284068492070 F F F N
   0.3251400000000000    0.8517699999999999    0.1031030537362898 F F F N
   0.8326500000000000    0.7954400000000000    0.0076343407243747 F F F N
   0.3253600000000000    0.9612699999999998    0.0079795628501539 F F F N
   0.8333199999999999    0.5764200000000000    0.0557188511007654 F F F N
   0.8324300000000001    0.6859400000000000    0.1027578316105105 F F F N
   0.3407600000000001    0.4089600000000000    0.0550284068492070 F F F N
   0.3399100000000000    0.5184500000000000    0.1031030537362898 F F F N
   0.8474200000000002    0.4621199999999999    0.0076343407243747 F F F N
   0.3401300000000000    0.6279400000000001    0.0079795628501539 F F F N
   0.8480899999999999    0.2431000000000000    0.0557188511007654 F F F N
   0.8472000000000000    0.3526200000000000    0.1027578316105105 F F F N
   0.3555300000000000    0.0756400000000000    0.0550284068492070 F F F N
   0.3546800000000000    0.1851300000000000    0.1031030537362898 F F F N
   0.8621900000000001    0.1288000000000000    0.0076343407243747 F F F N
   0.3549000000000000    0.2946199999999999    0.0079795628501539 F F F N
   0.8461400000000001    0.0209600000000000    0.2459559693837292 T T T N
   0.8472000000000000    0.0209600000000000    0.1027578316105105 F F F N
