total_structure
1.0
   3.5062000000000002    0.0000000000000000    0.0000000000000002
   0.0000000000000019   12.0001999999999995    0.0000000000000007
   0.0000000000000000    0.0000000000000000   30.3249410620000006
Cr Fe Mo N
20 36 4 24
Selective dynamics
direct
   0.6482100000000000    0.3787300000000000    0.3136683633960760 T T T Cr
   0.6482100000000000    0.1287300000000000    0.3136683633960760 T T T Cr
   0.1482100000000000    0.0037300000000000    0.2391916017304080 T T T Cr
   0.6482100000000000    0.3787300000000000    0.1647052819587769 F F F Cr
   0.6482100000000000    0.1287300000000000    0.1647052819587769 F F F Cr
   0.1482100000000000    0.2537300000000000    0.2391916017304080 T T T Cr
   0.6482100000000000    0.8787300000000000    0.3136683633960760 T T T Cr
   0.6482100000000000    0.6287300000000000    0.3136683633960760 T T T Cr
   0.1482100000000000    0.5037300000000000    0.2391916017304080 T T T Cr
   0.6482100000000000    0.8787300000000000    0.1647052819587769 F F F Cr
   0.6482100000000000    0.6287300000000000    0.1647052819587769 F F F Cr
   0.1482100000000000    0.7537299999999999    0.2391916017304080 T T T Cr
   0.1317400000000000    0.0053800000000000    0.0903336594587047 F F F Cr
   0.6317400000000001    0.3803800000000000    0.0158473396870736 F F F Cr
   0.6317400000000000    0.1303800000000000    0.0158473396870736 F F F Cr
   0.1317400000000000    0.2553800000000000    0.0903336594587047 F F F Cr
   0.1317400000000000    0.5053800000000001    0.0903336594587047 F F F Cr
   0.6317400000000001    0.8803800000000001    0.0158473396870736 F F F Cr
   0.6317400000000001    0.6303800000000001    0.0158473396870736 F F F Cr
   0.1317400000000000    0.7553800000000001    0.0903336594587047 F F F Cr
   0.1415300000000000    0.7221700000000000    0.8092488792913585 F F F Fe
   0.6415299999999999    0.5580400000000000    0.7969093644927988 F F F Fe
   0.6415299999999999    0.7428899999999999    0.7591357297260227 F F F Fe
   0.1415300000000000    0.5787500000000000    0.7467962149274631 F F F Fe
   0.1415300000000000    0.3939000000000000    0.7845602915882758 F F F Fe
   0.6415300000000000    0.2297700000000000    0.7722207767897161 F F F Fe
   0.6415300000000000    0.4146200000000000    0.7344471420229399 F F F Fe
   0.1415300000000000    0.2504800000000000    0.7221076272243804 F F F Fe
   0.1415300000000000    0.0656300000000000    0.7598717038851932 F F F Fe
   0.6415300000000000    0.9015000000000000    0.7475321890866334 F F F Fe
   0.6415300000000000    0.0863500000000000    0.7097585543198573 F F F Fe
   0.1415300000000000    0.9222099999999999    0.6974190395212976 F F F Fe
   0.1415300000000000    0.7635999999999999    0.7090321382666501 F F F Fe
   0.6415300000000000    0.5994699999999999    0.6966830653621272 F F F Fe
   0.6415299999999999    0.7843100000000000    0.6589189887013144 F F F Fe
   0.1415300000000000    0.6201800000000000    0.6465699157967912 F F F Fe
   0.1415300000000000    0.4353300000000000    0.6843435505635674 F F F Fe
   0.6415300000000000    0.2712000000000000    0.6719944776590445 F F F Fe
   0.6415300000000000    0.4560500000000000    0.6342304009982317 F F F Fe
   0.1415300000000000    0.2919100000000000    0.6218813280937087 F F F Fe
   0.1415300000000000    0.1070600000000000    0.6596549628604849 F F F Fe
   0.6415299999999999    0.9429300000000000    0.6473058899559618 F F F Fe
   0.6415300000000000    0.1277800000000000    0.6095418132951489 T T T Fe
   0.1415300000000000    0.9636399999999999    0.5971927403906260 T T T Fe
   0.1415300000000000    0.8050300000000000    0.6088058391359785 T T T Fe
   0.6415300000000000    0.6408900000000000    0.5964663243374188 T T T Fe
   0.6415300000000000    0.8257400000000000    0.5586926895706427 T T T Fe
   0.1415300000000000    0.6616100000000000    0.5463531747720829 T T T Fe
   0.1415300000000000    0.4767600000000000    0.5841172514328958 T T T Fe
   0.6415299999999999    0.3126200000000000    0.5717777366343362 T T T Fe
   0.6415300000000000    0.4974700000000000    0.5340041018675600 T T T Fe
   0.1415300000000000    0.3333333333333333    0.5216645870690002 T T T Fe
   0.1415300000000000    0.1484900000000000    0.5594286637298131 T T T Fe
   0.6415299999999999    0.9843499999999999    0.5470891489312535 T T T Fe
   0.6415300000000000    0.1692000000000000    0.5093155141644773 T T T Fe
   0.1415300000000000    0.0050700000000000    0.4969759993659176 T T T Fe
   0.1482100000000000    0.0037300000000000    0.3881546831677071 T T T Mo
   0.1482100000000000    0.2537300000000000    0.3881546831677071 T T T Mo
   0.1482100000000000    0.5037300000000000    0.3881546831677071 T T T Mo
   0.1482100000000000    0.7537299999999999    0.3881546831677071 T T T Mo
   0.6482100000000000    0.3787300000000000    0.3881546831677071 T T T N
   0.1482100000000000    0.0037300000000000    0.3136683633960760 T T T N
   0.1482100000000000    0.2537300000000000    0.3136683633960760 T T T N
   0.6482100000000000    0.1287300000000000    0.3881546831677071 T T T N
   0.6482100000000000    0.3787300000000000    0.2391916017304080 T T T N
   0.1482100000000000    0.0037300000000000    0.1647052819587769 F F F N
   0.1482100000000000    0.2537300000000000    0.1647052819587769 F F F N
   0.6482100000000000    0.1287300000000000    0.2391916017304080 T T T N
   0.6482100000000000    0.8787300000000000    0.3881546831677071 T T T N
   0.1482100000000000    0.5037300000000000    0.3136683633960760 T T T N
   0.1482100000000000    0.7537299999999999    0.3136683633960760 T T T N
   0.6482100000000000    0.6287300000000000    0.3881546831677071 T T T N
   0.6482100000000000    0.8787300000000000    0.2391916017304080 T T T N
   0.1482100000000000    0.5037300000000000    0.1647052819587769 F F F N
   0.1482100000000000    0.7537299999999999    0.1647052819587769 F F F N
   0.6482100000000000    0.6287300000000000    0.2391916017304080 T T T N
   0.6317400000000001    0.3803800000000000    0.0903336594587047 F F F N
   0.1317400000000000    0.0053800000000000    0.0158473396870736 F F F N
   0.1317400000000000    0.2553800000000000    0.0158473396870736 F F F N
   0.6317400000000000    0.1303800000000000    0.0903336594587047 F F F N
   0.6317400000000001    0.8803800000000001    0.0903336594587047 F F F N
   0.1317400000000000    0.5053800000000001    0.0158473396870736 F F F N
   0.1317400000000000    0.7553800000000001    0.0158473396870736 F F F N
   0.6317400000000001    0.6303800000000001    0.0903336594587047 F F F N
