Ti67
1.0
6.309760 0.000000 0.000000
0.000000 9.464640 0.000000
0.000000 0.000000 18.918326
Ti
67
Selective dynamics
direct
0.123589 0.040859 0.499022 F F F Ti
0.625188 0.041486 0.499890 F F F Ti
0.627435 0.041111 0.658858 F F F Ti
0.124998 0.041665 0.817191 F F F Ti
0.625201 0.041588 0.817255 F F F Ti
0.124806 0.375176 0.499924 F F F Ti
0.624773 0.375075 0.499964 F F F Ti
0.124176 0.376422 0.658832 F F F Ti
0.625124 0.375199 0.658651 F F F Ti
0.124910 0.375122 0.817247 F F F Ti
0.625201 0.375163 0.817262 F F F Ti
0.124899 0.708141 0.499936 F F F Ti
0.625167 0.708143 0.499916 F F F Ti
0.124979 0.708328 0.658585 F F F Ti
0.625164 0.708189 0.658619 F F F Ti
0.124997 0.708356 0.817179 F F F Ti
0.625043 0.708342 0.817197 F F F Ti
0.872427 0.208963 0.579000 F F F Ti
0.376162 0.209022 0.738690 F F F Ti
0.874843 0.208505 0.737974 F F F Ti
0.375017 0.208354 0.896518 F F F Ti
0.874994 0.208342 0.896473 F F F Ti
0.375024 0.541652 0.579284 F F F Ti
0.874823 0.541808 0.579257 F F F Ti
0.375088 0.541823 0.737930 F F F Ti
0.874854 0.541819 0.737942 F F F Ti
0.375007 0.541709 0.896473 F F F Ti
0.874991 0.541703 0.896474 F F F Ti
0.376025 0.873419 0.579002 F F F Ti
0.874857 0.874777 0.579219 F F F Ti
0.375208 0.874844 0.737946 F F F Ti
0.875236 0.874950 0.737896 F F F Ti
0.375003 0.874991 0.896465 F F F Ti
0.875023 0.874992 0.896459 F F F Ti
0.125010 0.625054 0.356815 F F F Ti
0.624919 0.625032 0.356802 F F F Ti
0.125004 0.625022 0.118953 F F F Ti
0.624984 0.625020 0.118951 F F F Ti
0.124988 0.125038 0.356692 F F F Ti
0.624964 0.125007 0.356764 F F F Ti
0.125002 0.125002 0.118955 F F F Ti
0.624980 0.125002 0.118953 F F F Ti
0.124995 0.375011 0.039656 F F F Ti
0.625005 0.375013 0.039659 F F F Ti
0.124996 0.875002 0.039649 F F F Ti
0.625004 0.874998 0.039652 F F F Ti
0.124996 0.375023 0.277496 F F F Ti
0.624985 0.375012 0.277498 F F F Ti
0.124992 0.874986 0.277479 F F F Ti
0.624985 0.874994 0.277481 F F F Ti
0.375002 0.874997 0.158570 F F F Ti
0.874992 0.874997 0.158569 F F F Ti
0.375000 0.375010 0.158576 F F F Ti
0.874997 0.375011 0.158574 F F F Ti
0.374985 0.374992 0.396425 F F F Ti
0.874917 0.375039 0.396398 F F F Ti
0.375089 0.874912 0.396364 F F F Ti
0.874828 0.874877 0.396347 F F F Ti
0.374994 0.625014 0.237875 F F F Ti
0.875004 0.625010 0.237873 F F F Ti
0.374994 0.625034 0.000005 F F F Ti
0.875011 0.625029 0.000007 F F F Ti
0.375012 0.125005 0.237852 F F F Ti
0.874976 0.125006 0.237847 F F F Ti
0.375000 0.124991 0.000029 F F F Ti
0.874994 0.124999 0.000017 F F F Ti
0.245359 0.122637 0.618315 T T T Ti

0.000000 0.000000 0.000000
0.000000 0.000000 0.000000
0.000000 0.000000 0.000000
0.000000 0.000000 0.000000
0.000000 0.000000 0.000000
0.000000 0.000000 0.000000
0.000000 0.000000 0.000000
0.000000 0.000000 0.000000
0.000000 0.000000 0.000000
0.000000 0.000000 0.000000
0.000000 0.000000 0.000000
0.000000 0.000000 0.000000
0.000000 0.000000 0.000000
0.000000 0.000000 0.000000
0.000000 0.000000 0.000000
0.000000 0.000000 0.000000
0.000000 0.000000 0.000000
0.000000 0.000000 0.000000
0.000000 0.000000 0.000000
0.000000 0.000000 0.000000
0.000000 0.000000 0.000000
0.000000 0.000000 0.000000
0.000000 0.000000 0.000000
0.000000 0.000000 0.000000
0.000000 0.000000 0.000000
0.000000 0.000000 0.000000
0.000000 0.000000 0.000000
0.000000 0.000000 0.000000
0.000000 0.000000 0.000000
0.000000 0.000000 0.000000
0.000000 0.000000 0.000000
0.000000 0.000000 0.000000
0.000000 0.000000 0.000000
0.000000 0.000000 0.000000
0.000000 0.000000 0.000000
0.000000 0.000000 0.000000
0.000000 0.000000 0.000000
0.000000 0.000000 0.000000
0.000000 0.000000 0.000000
0.000000 0.000000 0.000000
0.000000 0.000000 0.000000
0.000000 0.000000 0.000000
0.000000 0.000000 0.000000
0.000000 0.000000 0.000000
0.000000 0.000000 0.000000
0.000000 0.000000 0.000000
0.000000 0.000000 0.000000
0.000000 0.000000 0.000000
0.000000 0.000000 0.000000
0.000000 0.000000 0.000000
0.000000 0.000000 0.000000
0.000000 0.000000 0.000000
0.000000 0.000000 0.000000
0.000000 0.000000 0.000000
0.000000 0.000000 0.000000
0.000000 0.000000 0.000000
0.000000 0.000000 0.000000
0.000000 0.000000 0.000000
0.000000 0.000000 0.000000
0.000000 0.000000 0.000000
0.000000 0.000000 0.000000
0.000000 0.000000 0.000000
0.000000 0.000000 0.000000
0.000000 0.000000 0.000000
0.000000 0.000000 0.000000
0.000000 0.000000 0.000000
0.000000 0.000000 0.000000
