Ti96 Mo1
1.0
9.513020 0.000000 0.000000
0.000000 9.350860 0.000000
0.000000 0.000000 18.547230
Ti Mo
96 1
Selective dynamics
direct
0.148891 0.377390 0.407701 T T T Ti
0.651360 0.338936 0.412238 T T T Ti
0.128991 0.859158 0.398160 T T T Ti
0.681410 0.872949 0.391484 T T T Ti
0.155152 0.366875 0.236199 T T T Ti
0.659787 0.372054 0.233847 T T T Ti
0.166841 0.869673 0.236504 T T T Ti
0.661337 0.885384 0.237997 T T T Ti
0.166566 0.374987 0.077476 F F F Ti
0.666707 0.375041 0.077425 F F F Ti
0.166873 0.874891 0.077604 F F F Ti
0.666669 0.875065 0.077586 F F F Ti
0.401153 0.372736 0.319603 T T T Ti
0.896080 0.371827 0.323318 T T T Ti
0.393710 0.914899 0.331472 T T T Ti
0.916986 0.885192 0.310236 T T T Ti
0.416599 0.374653 0.154995 F F F Ti
0.916488 0.375036 0.154983 F F F Ti
0.416740 0.874689 0.155481 F F F Ti
0.917095 0.875247 0.155008 F F F Ti
0.416656 0.375028 -0.000138 F F F Ti
0.916620 0.375026 -0.000171 F F F Ti
0.416716 0.874930 -0.000004 F F F Ti
0.916704 0.874984 -0.000143 F F F Ti
0.103920 0.128174 0.323317 T T T Ti
0.598847 0.127265 0.319602 T T T Ti
0.083013 0.614809 0.310235 T T T Ti
0.606290 0.585103 0.331471 T T T Ti
0.083515 0.124981 0.154984 F F F Ti
0.583404 0.125372 0.154992 F F F Ti
0.082902 0.624772 0.155009 F F F Ti
0.583261 0.625311 0.155476 F F F Ti
0.083384 0.124978 -0.000170 F F F Ti
0.583344 0.124983 -0.000135 F F F Ti
0.083295 0.625023 -0.000144 F F F Ti
0.583285 0.625070 -0.000006 F F F Ti
0.348639 0.161064 0.412238 T T T Ti
0.851107 0.122610 0.407701 T T T Ti
0.318589 0.627052 0.391484 T T T Ti
0.871008 0.640843 0.398159 T T T Ti
0.340213 0.127949 0.233846 T T T Ti
0.844847 0.133129 0.236199 T T T Ti
0.338661 0.614619 0.237998 T T T Ti
0.833158 0.630331 0.236503 T T T Ti
0.333294 0.124971 0.077427 F F F Ti
0.833435 0.125024 0.077477 F F F Ti
0.333329 0.624945 0.077585 F F F Ti
0.833127 0.625118 0.077601 F F F Ti
0.375025 0.375151 0.823772 F F F Ti
0.874920 0.375074 0.823890 F F F Ti
0.375112 0.874829 0.823685 F F F Ti
0.874968 0.874956 0.823663 F F F Ti
0.125090 0.124919 0.823892 F F F Ti
0.624974 0.124846 0.823774 F F F Ti
0.125038 0.625038 0.823663 F F F Ti
0.624901 0.625174 0.823682 F F F Ti
0.125064 0.375138 0.909999 F F F Ti
0.624932 0.375148 0.909984 F F F Ti
0.125119 0.874881 0.909976 F F F Ti
0.624924 0.874916 0.909942 F F F Ti
0.375080 0.124855 0.909986 F F F Ti
0.874944 0.124867 0.910002 F F F Ti
0.375082 0.625084 0.909941 F F F Ti
0.874883 0.625119 0.909973 F F F Ti
0.394952 0.384802 0.657638 T T T Ti
0.894026 0.371707 0.648963 T T T Ti
0.395901 0.891260 0.645398 T T T Ti
0.885683 0.884643 0.665667 T T T Ti
0.105971 0.128286 0.648964 T T T Ti
0.605045 0.115193 0.657638 T T T Ti
0.114315 0.615350 0.665667 T T T Ti
0.604097 0.608735 0.645399 T T T Ti
0.152946 0.376024 0.568910 T T T Ti
0.641984 0.342416 0.571570 T T T Ti
0.129215 0.862635 0.585475 T T T Ti
0.657665 0.864964 0.576432 T T T Ti
0.358015 0.157583 0.571570 T T T Ti
0.847053 0.123974 0.568910 T T T Ti
0.342335 0.635034 0.576433 T T T Ti
0.870785 0.637363 0.585475 T T T Ti
0.412584 0.411979 0.486783 T T T Ti
0.905471 0.374417 0.489063 T T T Ti
0.332614 0.915112 0.492287 T T T Ti
0.907225 0.877343 0.491573 T T T Ti
0.094529 0.125582 0.489063 T T T Ti
0.587415 0.088021 0.486783 T T T Ti
0.092775 0.622656 0.491574 T T T Ti
0.667386 0.584887 0.492288 T T T Ti
0.125044 0.874758 0.737620 F F F Ti
0.625298 0.875126 0.737414 F F F Ti
0.374698 0.624863 0.737417 F F F Ti
0.874940 0.625218 0.737616 F F F Ti
0.125069 0.375190 0.737729 F F F Ti
0.624866 0.375037 0.737730 F F F Ti
0.375119 0.124926 0.737729 F F F Ti
0.874916 0.124778 0.737735 F F F Ti
0.500000 0.750000 0.431480 T T T Mo

0.000000 0.000000 0.000000
0.000000 0.000000 0.000000
0.000000 0.000000 0.000000
0.000000 0.000000 0.000000
0.000000 0.000000 0.000000
0.000000 0.000000 0.000000
0.000000 0.000000 0.000000
0.000000 0.000000 0.000000
0.000000 0.000000 0.000000
0.000000 0.000000 0.000000
0.000000 0.000000 0.000000
0.000000 0.000000 0.000000
0.000000 0.000000 0.000000
0.000000 0.000000 0.000000
0.000000 0.000000 0.000000
0.000000 0.000000 0.000000
0.000000 0.000000 0.000000
0.000000 0.000000 0.000000
0.000000 0.000000 0.000000
0.000000 0.000000 0.000000
0.000000 0.000000 0.000000
0.000000 0.000000 0.000000
0.000000 0.000000 0.000000
0.000000 0.000000 0.000000
0.000000 0.000000 0.000000
0.000000 0.000000 0.000000
0.000000 0.000000 0.000000
0.000000 0.000000 0.000000
0.000000 0.000000 0.000000
0.000000 0.000000 0.000000
0.000000 0.000000 0.000000
0.000000 0.000000 0.000000
0.000000 0.000000 0.000000
0.000000 0.000000 0.000000
0.000000 0.000000 0.000000
0.000000 0.000000 0.000000
0.000000 0.000000 0.000000
0.000000 0.000000 0.000000
0.000000 0.000000 0.000000
0.000000 0.000000 0.000000
0.000000 0.000000 0.000000
0.000000 0.000000 0.000000
0.000000 0.000000 0.000000
0.000000 0.000000 0.000000
0.000000 0.000000 0.000000
0.000000 0.000000 0.000000
0.000000 0.000000 0.000000
0.000000 0.000000 0.000000
0.000000 0.000000 0.000000
0.000000 0.000000 0.000000
0.000000 0.000000 0.000000
0.000000 0.000000 0.000000
0.000000 0.000000 0.000000
0.000000 0.000000 0.000000
0.000000 0.000000 0.000000
0.000000 0.000000 0.000000
0.000000 0.000000 0.000000
0.000000 0.000000 0.000000
0.000000 0.000000 0.000000
0.000000 0.000000 0.000000
0.000000 0.000000 0.000000
0.000000 0.000000 0.000000
0.000000 0.000000 0.000000
0.000000 0.000000 0.000000
0.000000 0.000000 0.000000
0.000000 0.000000 0.000000
0.000000 0.000000 0.000000
0.000000 0.000000 0.000000
0.000000 0.000000 0.000000
0.000000 0.000000 0.000000
0.000000 0.000000 0.000000
0.000000 0.000000 0.000000
0.000000 0.000000 0.000000
0.000000 0.000000 0.000000
0.000000 0.000000 0.000000
0.000000 0.000000 0.000000
0.000000 0.000000 0.000000
0.000000 0.000000 0.000000
0.000000 0.000000 0.000000
0.000000 0.000000 0.000000
0.000000 0.000000 0.000000
0.000000 0.000000 0.000000
0.000000 0.000000 0.000000
0.000000 0.000000 0.000000
0.000000 0.000000 0.000000
0.000000 0.000000 0.000000
0.000000 0.000000 0.000000
0.000000 0.000000 0.000000
0.000000 0.000000 0.000000
0.000000 0.000000 0.000000
0.000000 0.000000 0.000000
0.000000 0.000000 0.000000
0.000000 0.000000 0.000000
0.000000 0.000000 0.000000
0.000000 0.000000 0.000000
0.000000 0.000000 0.000000
0.000000 0.000000 0.000000
