Ti66 Al1
1.0
6.309760 0.000000 0.000000
0.000000 9.464640 0.000000
0.000000 0.000000 18.918326
Ti Al
66 1
Selective dynamics
direct
0.064480 0.017258 0.490659 T T T Ti
0.615721 0.029746 0.485127 T T T Ti
0.135328 0.059841 0.645988 T T T Ti
0.593557 0.073303 0.641804 T T T Ti
0.125000 0.041667 0.817153 F F F Ti
0.625000 0.041667 0.817153 F F F Ti
0.618715 0.375000 0.485413 T T T Ti
0.131895 0.375000 0.654400 T T T Ti
0.612545 0.375000 0.640451 T T T Ti
0.125000 0.375000 0.817153 F F F Ti
0.625000 0.375000 0.817153 F F F Ti
0.064480 0.732742 0.490659 T T T Ti
0.615721 0.720254 0.485127 T T T Ti
0.135328 0.690159 0.645988 T T T Ti
0.593557 0.676697 0.641804 T T T Ti
0.125000 0.708333 0.817153 F F F Ti
0.625000 0.708333 0.817153 F F F Ti
0.317324 0.228447 0.538733 T T T Ti
0.891418 0.227605 0.554845 T T T Ti
0.375000 0.208333 0.737865 F F F Ti
0.875000 0.208333 0.737865 F F F Ti
0.375000 0.208333 0.896441 F F F Ti
0.875000 0.208333 0.896441 F F F Ti
0.317324 0.521553 0.538733 T T T Ti
0.891418 0.522395 0.554845 T T T Ti
0.375000 0.541667 0.737865 F F F Ti
0.875000 0.541667 0.737865 F F F Ti
0.375000 0.541667 0.896441 F F F Ti
0.875000 0.541667 0.896441 F F F Ti
0.375252 0.875000 0.566209 T T T Ti
0.841727 0.875000 0.590956 T T T Ti
0.375000 0.875000 0.737865 F F F Ti
0.875000 0.875000 0.737865 F F F Ti
0.375000 0.875000 0.896441 F F F Ti
0.875000 0.875000 0.896441 F F F Ti
0.186670 0.621619 0.372465 T T T Ti
0.710541 0.591020 0.372887 T T T Ti
0.125000 0.625000 0.118932 F F F Ti
0.625000 0.625000 0.118932 F F F Ti
0.186670 0.128381 0.372465 T T T Ti
0.710541 0.158980 0.372887 T T T Ti
0.125000 0.125000 0.118932 F F F Ti
0.625000 0.125000 0.118932 F F F Ti
0.125000 0.375000 0.039644 F F F Ti
0.625000 0.375000 0.039644 F F F Ti
0.125000 0.875000 0.039644 F F F Ti
0.625000 0.875000 0.039644 F F F Ti
0.092191 0.375000 0.282079 T T T Ti
0.662204 0.375000 0.276588 T T T Ti
0.154601 0.875000 0.278722 T T T Ti
0.597601 0.875000 0.286317 T T T Ti
0.375000 0.875000 0.158576 F F F Ti
0.875000 0.875000 0.158576 F F F Ti
0.374999 0.375000 0.158576 F F F Ti
0.874999 0.375000 0.158576 F F F Ti
0.006329 0.375000 0.432393 T T T Ti
0.355570 0.875000 0.406355 T T T Ti
0.882713 0.875000 0.382612 T T T Ti
0.389497 0.613701 0.249168 T T T Ti
0.881327 0.634526 0.247839 T T T Ti
0.375000 0.625000 0.000000 F F F Ti
0.875000 0.625000 0.000000 F F F Ti
0.389497 0.136299 0.249169 T T T Ti
0.881327 0.115474 0.247840 T T T Ti
0.375000 0.125000 0.000000 F F F Ti
0.875000 0.125000 0.000000 F F F Ti
0.387003 0.375000 0.375973 T T T Al

0.000000 0.000000 0.000000
0.000000 0.000000 0.000000
0.000000 0.000000 0.000000
0.000000 0.000000 0.000000
0.000000 0.000000 0.000000
0.000000 0.000000 0.000000
0.000000 0.000000 0.000000
0.000000 0.000000 0.000000
0.000000 0.000000 0.000000
0.000000 0.000000 0.000000
0.000000 0.000000 0.000000
0.000000 0.000000 0.000000
0.000000 0.000000 0.000000
0.000000 0.000000 0.000000
0.000000 0.000000 0.000000
0.000000 0.000000 0.000000
0.000000 0.000000 0.000000
0.000000 0.000000 0.000000
0.000000 0.000000 0.000000
0.000000 0.000000 0.000000
0.000000 0.000000 0.000000
0.000000 0.000000 0.000000
0.000000 0.000000 0.000000
0.000000 0.000000 0.000000
0.000000 0.000000 0.000000
0.000000 0.000000 0.000000
0.000000 0.000000 0.000000
0.000000 0.000000 0.000000
0.000000 0.000000 0.000000
0.000000 0.000000 0.000000
0.000000 0.000000 0.000000
0.000000 0.000000 0.000000
0.000000 0.000000 0.000000
0.000000 0.000000 0.000000
0.000000 0.000000 0.000000
0.000000 0.000000 0.000000
0.000000 0.000000 0.000000
0.000000 0.000000 0.000000
0.000000 0.000000 0.000000
0.000000 0.000000 0.000000
0.000000 0.000000 0.000000
0.000000 0.000000 0.000000
0.000000 0.000000 0.000000
0.000000 0.000000 0.000000
0.000000 0.000000 0.000000
0.000000 0.000000 0.000000
0.000000 0.000000 0.000000
0.000000 0.000000 0.000000
0.000000 0.000000 0.000000
0.000000 0.000000 0.000000
0.000000 0.000000 0.000000
0.000000 0.000000 0.000000
0.000000 0.000000 0.000000
0.000000 0.000000 0.000000
0.000000 0.000000 0.000000
0.000000 0.000000 0.000000
0.000000 0.000000 0.000000
0.000000 0.000000 0.000000
0.000000 0.000000 0.000000
0.000000 0.000000 0.000000
0.000000 0.000000 0.000000
0.000000 0.000000 0.000000
0.000000 0.000000 0.000000
0.000000 0.000000 0.000000
0.000000 0.000000 0.000000
0.000000 0.000000 0.000000
0.000000 0.000000 0.000000
