Ti96 Sn1
1.0
9.513020 0.000000 0.000000
0.000000 9.350860 0.000000
0.000000 0.000000 18.547230
Ti Sn
96 1
Selective dynamics
direct
0.146812 0.377411 0.401967 T T T Ti
0.650663 0.338886 0.399516 T T T Ti
0.123004 0.857821 0.396091 T T T Ti
0.682104 0.867368 0.395994 T T T Ti
0.162023 0.369652 0.235552 T T T Ti
0.657147 0.374527 0.234059 T T T Ti
0.166670 0.874898 0.234587 T T T Ti
0.655021 0.870881 0.235053 T T T Ti
0.166636 0.375033 0.077642 F F F Ti
0.666684 0.375006 0.077617 F F F Ti
0.166639 0.874997 0.077641 F F F Ti
0.666673 0.875001 0.077638 F F F Ti
0.405538 0.388462 0.316308 T T T Ti
0.900808 0.376812 0.319598 T T T Ti
0.398498 0.891209 0.329903 T T T Ti
0.911044 0.883986 0.306993 T T T Ti
0.416650 0.375015 0.155272 F F F Ti
0.916671 0.374969 0.155270 F F F Ti
0.416661 0.875023 0.155304 F F F Ti
0.916670 0.875003 0.155298 F F F Ti
0.416667 0.375026 0.000022 F F F Ti
0.916643 0.375012 0.000010 F F F Ti
0.416670 0.874984 0.000035 F F F Ti
0.916647 0.874992 0.000016 F F F Ti
0.099192 0.123188 0.319597 T T T Ti
0.594462 0.111539 0.316307 T T T Ti
0.088956 0.616014 0.306993 T T T Ti
0.601502 0.608791 0.329902 T T T Ti
0.083329 0.125040 0.155269 F F F Ti
0.583350 0.124994 0.155272 F F F Ti
0.083330 0.625005 0.155298 F F F Ti
0.583339 0.624985 0.155304 F F F Ti
0.083358 0.124991 0.000010 F F F Ti
0.583334 0.124979 0.000022 F F F Ti
0.083353 0.625013 0.000016 F F F Ti
0.583331 0.625019 0.000035 F F F Ti
0.349336 0.161114 0.399516 T T T Ti
0.853186 0.122589 0.401967 T T T Ti
0.317895 0.632632 0.395994 T T T Ti
0.876995 0.642179 0.396091 T T T Ti
0.342852 0.125475 0.234059 T T T Ti
0.837976 0.130349 0.235552 T T T Ti
0.344978 0.629120 0.235053 T T T Ti
0.833329 0.625104 0.234587 T T T Ti
0.333315 0.125002 0.077617 F F F Ti
0.833364 0.124975 0.077642 F F F Ti
0.333326 0.625008 0.077639 F F F Ti
0.833360 0.625012 0.077641 F F F Ti
0.374993 0.375026 0.823872 F F F Ti
0.874976 0.374953 0.823882 F F F Ti
0.375045 0.874949 0.823809 F F F Ti
0.875045 0.875023 0.823827 F F F Ti
0.125029 0.125039 0.823881 F F F Ti
0.625013 0.124977 0.823872 F F F Ti
0.124957 0.624977 0.823829 F F F Ti
0.624958 0.625045 0.823810 F F F Ti
0.124985 0.375020 0.910153 F F F Ti
0.624997 0.375011 0.910148 F F F Ti
0.125014 0.874984 0.910133 F F F Ti
0.624985 0.874989 0.910129 F F F Ti
0.375007 0.124988 0.910148 F F F Ti
0.875019 0.124979 0.910152 F F F Ti
0.375019 0.625010 0.910128 F F F Ti
0.874990 0.625015 0.910133 F F F Ti
0.390466 0.379705 0.664856 T T T Ti
0.883653 0.383582 0.645742 T T T Ti
0.385370 0.892507 0.648913 T T T Ti
0.889219 0.883009 0.667315 T T T Ti
0.116346 0.116416 0.645742 T T T Ti
0.609532 0.120291 0.664856 T T T Ti
0.110779 0.616986 0.667315 T T T Ti
0.614629 0.607490 0.648913 T T T Ti
0.146099 0.371478 0.574271 T T T Ti
0.631525 0.339195 0.571431 T T T Ti
0.131522 0.851816 0.579212 T T T Ti
0.669127 0.890599 0.580967 T T T Ti
0.368475 0.160805 0.571431 T T T Ti
0.853901 0.128521 0.574271 T T T Ti
0.330872 0.609400 0.580967 T T T Ti
0.868478 0.648183 0.579212 T T T Ti
0.405257 0.408084 0.482130 T T T Ti
0.895809 0.370147 0.488226 T T T Ti
0.317782 0.941244 0.484524 T T T Ti
0.909382 0.894832 0.490987 T T T Ti
0.104191 0.129853 0.488226 T T T Ti
0.594743 0.091916 0.482130 T T T Ti
0.090618 0.605168 0.490987 T T T Ti
0.682218 0.558756 0.484524 T T T Ti
0.125310 0.875096 0.737658 F F F Ti
0.625032 0.875020 0.737644 F F F Ti
0.374961 0.624965 0.737644 F F F Ti
0.874682 0.624888 0.737663 F F F Ti
0.124836 0.374910 0.737652 F F F Ti
0.625047 0.374867 0.737674 F F F Ti
0.374946 0.125117 0.737672 F F F Ti
0.875157 0.125075 0.737649 F F F Ti
0.500000 0.750000 0.493527 T T T Sn

0.000000 0.000000 0.000000
0.000000 0.000000 0.000000
0.000000 0.000000 0.000000
0.000000 0.000000 0.000000
0.000000 0.000000 0.000000
0.000000 0.000000 0.000000
0.000000 0.000000 0.000000
0.000000 0.000000 0.000000
0.000000 0.000000 0.000000
0.000000 0.000000 0.000000
0.000000 0.000000 0.000000
0.000000 0.000000 0.000000
0.000000 0.000000 0.000000
0.000000 0.000000 0.000000
0.000000 0.000000 0.000000
0.000000 0.000000 0.000000
0.000000 0.000000 0.000000
0.000000 0.000000 0.000000
0.000000 0.000000 0.000000
0.000000 0.000000 0.000000
0.000000 0.000000 0.000000
0.000000 0.000000 0.000000
0.000000 0.000000 0.000000
0.000000 0.000000 0.000000
0.000000 0.000000 0.000000
0.000000 0.000000 0.000000
0.000000 0.000000 0.000000
0.000000 0.000000 0.000000
0.000000 0.000000 0.000000
0.000000 0.000000 0.000000
0.000000 0.000000 0.000000
0.000000 0.000000 0.000000
0.000000 0.000000 0.000000
0.000000 0.000000 0.000000
0.000000 0.000000 0.000000
0.000000 0.000000 0.000000
0.000000 0.000000 0.000000
0.000000 0.000000 0.000000
0.000000 0.000000 0.000000
0.000000 0.000000 0.000000
0.000000 0.000000 0.000000
0.000000 0.000000 0.000000
0.000000 0.000000 0.000000
0.000000 0.000000 0.000000
0.000000 0.000000 0.000000
0.000000 0.000000 0.000000
0.000000 0.000000 0.000000
0.000000 0.000000 0.000000
0.000000 0.000000 0.000000
0.000000 0.000000 0.000000
0.000000 0.000000 0.000000
0.000000 0.000000 0.000000
0.000000 0.000000 0.000000
0.000000 0.000000 0.000000
0.000000 0.000000 0.000000
0.000000 0.000000 0.000000
0.000000 0.000000 0.000000
0.000000 0.000000 0.000000
0.000000 0.000000 0.000000
0.000000 0.000000 0.000000
0.000000 0.000000 0.000000
0.000000 0.000000 0.000000
0.000000 0.000000 0.000000
0.000000 0.000000 0.000000
0.000000 0.000000 0.000000
0.000000 0.000000 0.000000
0.000000 0.000000 0.000000
0.000000 0.000000 0.000000
0.000000 0.000000 0.000000
0.000000 0.000000 0.000000
0.000000 0.000000 0.000000
0.000000 0.000000 0.000000
0.000000 0.000000 0.000000
0.000000 0.000000 0.000000
0.000000 0.000000 0.000000
0.000000 0.000000 0.000000
0.000000 0.000000 0.000000
0.000000 0.000000 0.000000
0.000000 0.000000 0.000000
0.000000 0.000000 0.000000
0.000000 0.000000 0.000000
0.000000 0.000000 0.000000
0.000000 0.000000 0.000000
0.000000 0.000000 0.000000
0.000000 0.000000 0.000000
0.000000 0.000000 0.000000
0.000000 0.000000 0.000000
0.000000 0.000000 0.000000
0.000000 0.000000 0.000000
0.000000 0.000000 0.000000
0.000000 0.000000 0.000000
0.000000 0.000000 0.000000
0.000000 0.000000 0.000000
0.000000 0.000000 0.000000
0.000000 0.000000 0.000000
0.000000 0.000000 0.000000
0.000000 0.000000 0.000000
