total_structure
1.0
   3.5061499999999999    0.0000000000000000    0.0000000000000002
   0.0000000000000019   12.0001999999999995    0.0000000000000007
   0.0000000000000000    0.0000000000000000   26.7716049620000049
Cr Fe N
16 36 16
Selective dynamics
direct
   0.0000000000000000    0.0000000000000000    0.2348129979851000 F F F Cr
  -0.0000000000000000    0.2500000000000000    0.2348129979851000 F F F Cr
   0.5000000000000000    0.1250000000000000    0.1565386505944813 F F F Cr
   0.5000000000000000    0.3750000000000000    0.1565386505944812 F F F Cr
   0.0000000000000000    0.0000000000000000    0.0782743473906187 F F F Cr
  -0.0000000000000000    0.2500000000000000    0.0782743473906187 F F F Cr
   0.5000000000000000    0.1250000000000000   -0.0000000000000000 F F F Cr
   0.5000000000000000    0.3750000000000000   -0.0000000000000000 F F F Cr
  -0.0000000000000000    0.5000000000000000    0.2348129979851000 F F F Cr
  -0.0000000000000000    0.7500000000000000    0.2348129979851000 F F F Cr
   0.5000000000000000    0.6250000000000000    0.1565386505944813 F F F Cr
   0.4999999999999999    0.8749999999999999    0.1565386505944813 F F F Cr
  -0.0000000000000000    0.5000000000000000    0.0782743473906187 F F F Cr
  -0.0000000000000000    0.7500000000000000    0.0782743473906187 F F F Cr
   0.5000000000000000    0.6250000000000000   -0.0000000000000000 F F F Cr
   0.4999999999999999    0.8749999999999999   -0.0000000000000000 F F F Cr
   0.9933200000000000    0.7184400000000000    0.6264667387258154 F F F Fe
   0.4933200000000000    0.5543100000000000    0.6134996936236354 F F F Fe
   0.4933200000000000    0.7391600000000000    0.5738050675633600 F F F Fe
   0.9933200000000000    0.5750200000000000    0.5608380224611801 F F F Fe
   0.9933200000000001    0.3901700000000000    0.6005226043346994 F F F Fe
   0.4933200000000000    0.2260400000000000    0.5875555592325191 F F F Fe
   0.4933200000000000    0.4108899999999999    0.5478609331722439 F F F Fe
   0.9933200000000001    0.2467500000000000    0.5348938880700640 F F F Fe
   0.9933200000000000    0.0619000000000000    0.5745784699435831 F F F Fe
   0.4933200000000000    0.8977699999999998    0.5616114248414031 F F F Fe
   0.4933200000000000    0.0826200000000000    0.5219167987811278 F F F Fe
   0.9933200000000000    0.9184800000000000    0.5089497536789478 F F F Fe
   0.9933200000000000    0.7598700000000000    0.5211534405876609 F F F Fe
   0.4933200000000000    0.5957300000000000    0.5081763512987248 F F F Fe
   0.4933200000000000    0.7805800000000001    0.4684917694252057 F F F Fe
   0.9933200000000001    0.6164500000000001    0.4555146801362695 F F F Fe
   0.9933200000000001    0.4315999999999999    0.4952093061965448 F F F Fe
   0.4933200000000000    0.2674600000000000    0.4822322169076087 F F F Fe
   0.4933200000000000    0.4523100000000000    0.4425476350340896 F F F Fe
   0.9933200000000001    0.2881800000000000    0.4295705457451534 F F F Fe
   0.9933199999999999    0.1033300000000000    0.4692651718054287 F F F Fe
   0.4933200000000000    0.9391999999999999    0.4562880825164924 F F F Fe
   0.4933200000000000    0.1240400000000000    0.4166035006429734 F F F Fe
   0.9933200000000000    0.9599100000000000    0.4036264113540373 F F F Fe
   0.9933200000000000    0.8013000000000000    0.4158300982627504 F F F Fe
   0.4933200000000000    0.6371599999999998    0.4028630531605705 F F F Fe
   0.4933200000000000    0.8220099999999999    0.3631684271002952 F F F Fe
   0.9933200000000001    0.6578799999999999    0.3502013819981152 F F F Fe
   0.9933200000000001    0.4730300000000000    0.3898859638716343 F F F Fe
   0.4933200000000000    0.3088900000000000    0.3769189187694543 F F F Fe
   0.4933200000000000    0.4937400000000000    0.3372242927091790 F F F Fe
   0.9933200000000000    0.3296100000000000    0.3242572476069991 F F F Fe
   0.9933200000000001    0.1447600000000000    0.3639418294805182 F F F Fe
   0.4933200000000000    0.9806200000000000    0.3509747843783381 F F F Fe
   0.4933200000000000    0.1654700000000000    0.3112801583180629 F F F Fe
   0.9933200000000000    0.0013400000000000    0.2983131132158829 F F F Fe
   0.5000000000000000    0.1250000000000000    0.2348129979851000 F F F N
   0.5000000000000000    0.3750000000000000    0.2348129979850999 F F F N
   0.0000000000000000    0.0000000000000000    0.1565386505944813 F F F N
  -0.0000000000000000    0.2500000000000000    0.1565386505944813 F F F N
   0.5000000000000000    0.1250000000000000    0.0782743473906187 F F F N
   0.5000000000000000    0.3750000000000000    0.0782743473906187 F F F N
   0.0000000000000000    0.0000000000000000    0.0000000000000000 F F F N
  -0.0000000000000000    0.2500000000000000   -0.0000000000000000 F F F N
   0.5000000000000000    0.6250000000000000    0.2348129979851000 F F F N
   0.4999999999999999    0.8749999999999999    0.2348129979851000 F F F N
  -0.0000000000000000    0.5000000000000000    0.1565386505944813 F F F N
  -0.0000000000000000    0.7500000000000000    0.1565386505944813 F F F N
   0.5000000000000000    0.6250000000000000    0.0782743473906187 F F F N
   0.4999999999999999    0.8749999999999999    0.0782743473906187 F F F N
  -0.0000000000000000    0.5000000000000000   -0.0000000000000000 F F F N
  -0.0000000000000000    0.7500000000000000   -0.0000000000000000 F F F N
