beta_Ti
1.0
4.756510 0.000000 0.000000
0.000000 4.675430 0.000000
0.000000 0.000000 20.411761
Ti
12
direct
0.750000 0.750000 0.872625 Ti
0.250000 0.250000 0.872625 Ti
0.250000 0.750000 0.794169 Ti
0.750000 0.250000 0.794169 Ti
0.750000 0.750000 0.715711 Ti
0.250000 0.250000 0.715711 Ti
0.250000 0.750000 0.637255 Ti
0.750000 0.250000 0.637255 Ti
0.750000 0.750000 0.558797 Ti
0.250000 0.250000 0.558797 Ti
0.250000 0.750000 0.480340 Ti
0.750000 0.250000 0.480340 Ti
