total_Ti
1.0
5.745590 0.000000 0.000000
0.000000 9.072750 0.000000
0.000000 0.000000 38.625032
Ti
64
direct
0.041667 0.875000 0.241632 Ti
0.041667 0.375000 0.241632 Ti
0.541667 0.875000 0.241632 Ti
0.541667 0.375000 0.241632 Ti
0.291667 0.625000 0.500532 Ti
0.291667 0.125000 0.500532 Ti
0.791667 0.625000 0.500532 Ti
0.791667 0.125000 0.500532 Ti
0.291667 0.875000 0.175732 Ti
0.291667 0.375000 0.175732 Ti
0.791667 0.875000 0.175732 Ti
0.791667 0.375000 0.175732 Ti
0.041667 0.625000 0.197700 Ti
0.041667 0.125000 0.197700 Ti
0.541667 0.625000 0.197700 Ti
0.541667 0.125000 0.197700 Ti
0.041667 0.875000 0.109833 Ti
0.041667 0.375000 0.109833 Ti
0.541667 0.875000 0.109833 Ti
0.541667 0.375000 0.109833 Ti
0.291667 0.625000 0.131800 Ti
0.291667 0.125000 0.131800 Ti
0.791667 0.625000 0.131800 Ti
0.791667 0.125000 0.131800 Ti
0.291667 0.875000 0.043933 Ti
0.291667 0.375000 0.043933 Ti
0.791667 0.875000 0.043933 Ti
0.791667 0.375000 0.043933 Ti
0.041667 0.625000 0.065900 Ti
0.041667 0.125000 0.065900 Ti
0.541667 0.625000 0.065900 Ti
0.541667 0.125000 0.065900 Ti
0.458333 0.625000 0.569266 Ti
0.458333 0.125000 0.569266 Ti
0.958333 0.625000 0.569266 Ti
0.958333 0.125000 0.569266 Ti
0.125000 0.625000 0.637999 Ti
0.125000 0.125000 0.637999 Ti
0.625000 0.625000 0.637999 Ti
0.625000 0.125000 0.637999 Ti
0.291667 0.625000 0.706733 Ti
0.291667 0.125000 0.706733 Ti
0.791667 0.625000 0.706733 Ti
0.791667 0.125000 0.706733 Ti
0.125000 0.875000 0.534899 Ti
0.125000 0.375000 0.534899 Ti
0.625000 0.875000 0.534899 Ti
0.625000 0.375000 0.534899 Ti
0.291667 0.875000 0.603632 Ti
0.291667 0.375000 0.603632 Ti
0.791667 0.875000 0.603632 Ti
0.791667 0.375000 0.603632 Ti
0.458333 0.875000 0.672366 Ti
0.458333 0.375000 0.672366 Ti
0.958333 0.875000 0.672366 Ti
0.958333 0.375000 0.672366 Ti
0.125000 0.875000 0.741099 Ti
0.125000 0.375000 0.741099 Ti
0.625000 0.875000 0.741099 Ti
0.625000 0.375000 0.741099 Ti
0.791667 0.125000 0.000000 Ti
0.291667 0.125000 0.000000 Ti
0.791667 0.625000 -0.000000 Ti
0.291667 0.625000 -0.000000 Ti
