substance_top
1.0
   3.5061499999999999    0.0000000000000000    0.0000000000000002
   0.0000000000000019   12.0001999999999995    0.0000000000000007
   0.0000000000000000    0.0000000000000000   28.6716049620000035
Fe
36
Selective dynamics
direct
   0.9933200000000000    0.7184400000000000    0.6512199116772972 F F F Fe
   0.4933200000000000    0.5543100000000000    0.6391121622345962 F F F Fe
   0.4933200000000000    0.7391600000000000    0.6020480059235547 F F F Fe
   0.9933200000000000    0.5750200000000000    0.5899402564808536 F F F Fe
   0.9933200000000001    0.3901700000000000    0.6269950342098327 F F F Fe
   0.4933200000000000    0.2260400000000000    0.6148872847671316 F F F Fe
   0.4933200000000000    0.4108899999999999    0.5778231284560901 F F F Fe
   0.9933200000000001    0.2467500000000000    0.5657153790133890 F F F Fe
   0.9933200000000000    0.0619000000000000    0.6027701567423680 F F F Fe
   0.4933200000000000    0.8977699999999998    0.5906624072996669 F F F Fe
   0.4933200000000000    0.0826200000000000    0.5535982509886256 F F F Fe
   0.9933200000000000    0.9184800000000000    0.5414905015459245 F F F Fe
   0.9933200000000000    0.7598700000000000    0.5528854787518747 F F F Fe
   0.4933200000000000    0.5957300000000000    0.5407683507271112 F F F Fe
   0.4933200000000000    0.7805800000000001    0.5037135729981322 F F F Fe
   0.9933200000000001    0.6164500000000001    0.4915964449733686 F F F Fe
   0.9933200000000001    0.4315999999999999    0.5286606012844101 F F F Fe
   0.4933200000000000    0.2674600000000000    0.5165434732596466 F F F Fe
   0.4933200000000000    0.4523100000000000    0.4794886955306676 F F F Fe
   0.9933200000000001    0.2881800000000000    0.4673715675059041 F F F Fe
   0.9933199999999999    0.1033300000000000    0.5044357238169456 F F F Fe
   0.4933200000000000    0.9391999999999999    0.4923185957921819 F F F Fe
   0.4933200000000000    0.1240400000000000    0.4552638180632030 F F F Fe
   0.9933200000000000    0.9599100000000000    0.4431466900384394 F F F Fe
   0.9933200000000000    0.8013000000000000    0.4545416672443897 F F F Fe
   0.4933200000000000    0.6371599999999998    0.4424339178016887 F F F Fe
   0.4933200000000000    0.8220099999999999    0.4053697614906472 F F F Fe
   0.9933200000000001    0.6578799999999999    0.3932620120479462 F F F Fe
   0.9933200000000001    0.4730300000000000    0.4303167897769251 F F F Fe
   0.4933200000000000    0.3088900000000000    0.4182090403342241 F F F Fe
   0.4933200000000000    0.4937400000000000    0.3811448840231826 F F F Fe
   0.9933200000000000    0.3296100000000000    0.3690371345804817 F F F Fe
   0.9933200000000001    0.1447600000000000    0.4060919123094606 F F F Fe
   0.4933200000000000    0.9806200000000000    0.3939841628667594 F F F Fe
   0.4933200000000000    0.1654700000000000    0.3569200065557180 F F F Fe
   0.9933200000000000    0.0013400000000000    0.3448122571130170 F F F Fe
