Ti82 Al1
1.0
6.391540 0.000000 0.000000
0.000000 9.587310 0.000000
0.000000 0.000000 23.271695
Ti Al
82 1
Selective dynamics
direct
0.636063 0.083336 0.581898 F F F Ti
0.125434 0.083348 0.709485 F F F Ti
0.625749 0.083351 0.709772 F F F Ti
0.125038 0.083344 0.838432 F F F Ti
0.625088 0.083344 0.838478 F F F Ti
0.124950 0.417681 0.580693 F F F Ti
0.625914 0.417248 0.580684 F F F Ti
0.125285 0.416816 0.709613 F F F Ti
0.625423 0.416918 0.709677 F F F Ti
0.125051 0.416674 0.838462 F F F Ti
0.625059 0.416688 0.838479 F F F Ti
0.124725 0.748916 0.580711 F F F Ti
0.625900 0.749478 0.580689 F F F Ti
0.125205 0.749881 0.709631 F F F Ti
0.625421 0.749808 0.709694 F F F Ti
0.125030 0.750008 0.838467 F F F Ti
0.625056 0.749997 0.838485 F F F Ti
0.376671 0.250746 0.645481 F F F Ti
0.876297 0.250702 0.645304 F F F Ti
0.375102 0.250037 0.774042 F F F Ti
0.875246 0.250045 0.774043 F F F Ti
0.375003 0.249997 0.902884 F F F Ti
0.875044 0.249998 0.902889 F F F Ti
0.375355 0.583502 0.645156 F F F Ti
0.875035 0.583331 0.645239 F F F Ti
0.375069 0.583355 0.774050 F F F Ti
0.875157 0.583324 0.774074 F F F Ti
0.374998 0.583333 0.902893 F F F Ti
0.875030 0.583330 0.902900 F F F Ti
0.376648 0.915954 0.645495 F F F Ti
0.876283 0.916000 0.645313 F F F Ti
0.375090 0.916661 0.774043 F F F Ti
0.875232 0.916647 0.774042 F F F Ti
0.374991 0.916673 0.902879 F F F Ti
0.875034 0.916670 0.902884 F F F Ti
0.123838 0.166930 0.386530 F F F Ti
0.623626 0.166903 0.386555 F F F Ti
0.124873 0.666239 0.386374 F F F Ti
0.624942 0.666607 0.386555 F F F Ti
0.125001 0.166658 -0.000010 F F F Ti
0.624984 0.166660 -0.000006 F F F Ti
0.125001 0.666682 -0.000004 F F F Ti
0.624987 0.666679 -0.000002 F F F Ti
0.124996 0.833344 0.096655 F F F Ti
0.624984 0.833346 0.096654 F F F Ti
0.120745 0.828902 0.482758 F F F Ti
0.625784 0.832197 0.483352 F F F Ti
0.124994 0.333328 0.096654 F F F Ti
0.624980 0.333330 0.096652 F F F Ti
0.120836 0.337799 0.482715 F F F Ti
0.625442 0.334504 0.483351 F F F Ti
0.375527 0.583737 0.483345 F F F Ti
0.873558 0.583470 0.483310 F F F Ti
0.374999 0.583336 0.096651 F F F Ti
0.875001 0.583337 0.096648 F F F Ti
0.374990 0.083338 0.096662 F F F Ti
0.874989 0.083341 0.096657 F F F Ti
0.865687 0.083315 0.482428 F F F Ti
0.374978 0.416861 0.386565 F F F Ti
0.873979 0.416961 0.386373 F F F Ti
0.374409 0.916390 0.386661 F F F Ti
0.874119 0.916419 0.386391 F F F Ti
0.374979 0.416660 -0.000006 F F F Ti
0.875001 0.416659 -0.000003 F F F Ti
0.374980 0.916674 -0.000003 F F F Ti
0.875003 0.916672 0.000000 F F F Ti
0.374712 0.083312 0.289993 F F F Ti
0.874712 0.083360 0.289929 F F F Ti
0.124968 0.166657 0.193317 F F F Ti
0.624906 0.166652 0.193308 F F F Ti
0.124897 0.333379 0.289924 F F F Ti
0.624718 0.333330 0.289906 F F F Ti
0.374939 0.416667 0.193293 F F F Ti
0.874932 0.416659 0.193286 F F F Ti
0.375050 0.583359 0.289920 F F F Ti
0.874824 0.583377 0.289861 F F F Ti
0.124984 0.666668 0.193293 F F F Ti
0.624923 0.666672 0.193284 F F F Ti
0.124921 0.833334 0.289937 F F F Ti
0.624735 0.833324 0.289928 F F F Ti
0.374927 0.916674 0.193313 F F F Ti
0.874938 0.916661 0.193303 F F F Ti
0.260559 0.083553 0.528406 T T T Al

0.000000 0.000000 0.000000
0.000000 0.000000 0.000000
0.000000 0.000000 0.000000
0.000000 0.000000 0.000000
0.000000 0.000000 0.000000
0.000000 0.000000 0.000000
0.000000 0.000000 0.000000
0.000000 0.000000 0.000000
0.000000 0.000000 0.000000
0.000000 0.000000 0.000000
0.000000 0.000000 0.000000
0.000000 0.000000 0.000000
0.000000 0.000000 0.000000
0.000000 0.000000 0.000000
0.000000 0.000000 0.000000
0.000000 0.000000 0.000000
0.000000 0.000000 0.000000
0.000000 0.000000 0.000000
0.000000 0.000000 0.000000
0.000000 0.000000 0.000000
0.000000 0.000000 0.000000
0.000000 0.000000 0.000000
0.000000 0.000000 0.000000
0.000000 0.000000 0.000000
0.000000 0.000000 0.000000
0.000000 0.000000 0.000000
0.000000 0.000000 0.000000
0.000000 0.000000 0.000000
0.000000 0.000000 0.000000
0.000000 0.000000 0.000000
0.000000 0.000000 0.000000
0.000000 0.000000 0.000000
0.000000 0.000000 0.000000
0.000000 0.000000 0.000000
0.000000 0.000000 0.000000
0.000000 0.000000 0.000000
0.000000 0.000000 0.000000
0.000000 0.000000 0.000000
0.000000 0.000000 0.000000
0.000000 0.000000 0.000000
0.000000 0.000000 0.000000
0.000000 0.000000 0.000000
0.000000 0.000000 0.000000
0.000000 0.000000 0.000000
0.000000 0.000000 0.000000
0.000000 0.000000 0.000000
0.000000 0.000000 0.000000
0.000000 0.000000 0.000000
0.000000 0.000000 0.000000
0.000000 0.000000 0.000000
0.000000 0.000000 0.000000
0.000000 0.000000 0.000000
0.000000 0.000000 0.000000
0.000000 0.000000 0.000000
0.000000 0.000000 0.000000
0.000000 0.000000 0.000000
0.000000 0.000000 0.000000
0.000000 0.000000 0.000000
0.000000 0.000000 0.000000
0.000000 0.000000 0.000000
0.000000 0.000000 0.000000
0.000000 0.000000 0.000000
0.000000 0.000000 0.000000
0.000000 0.000000 0.000000
0.000000 0.000000 0.000000
0.000000 0.000000 0.000000
0.000000 0.000000 0.000000
0.000000 0.000000 0.000000
0.000000 0.000000 0.000000
0.000000 0.000000 0.000000
0.000000 0.000000 0.000000
0.000000 0.000000 0.000000
0.000000 0.000000 0.000000
0.000000 0.000000 0.000000
0.000000 0.000000 0.000000
0.000000 0.000000 0.000000
0.000000 0.000000 0.000000
0.000000 0.000000 0.000000
0.000000 0.000000 0.000000
0.000000 0.000000 0.000000
0.000000 0.000000 0.000000
0.000000 0.000000 0.000000
0.000000 0.000000 0.000000
