beta_Ti
1.0
6.309760 0.000000 0.000000
0.000000 9.464640 0.000000
0.000000 0.000000 19.400004
Ti
36
direct
0.125000 0.958333 0.500000 Ti
0.625000 0.958333 0.500000 Ti
0.125000 0.958333 0.654639 Ti
0.625000 0.958333 0.654639 Ti
0.125000 0.958333 0.809278 Ti
0.625000 0.958333 0.809278 Ti
0.125000 0.291667 0.500000 Ti
0.625000 0.291667 0.500000 Ti
0.125000 0.291667 0.654639 Ti
0.625000 0.291667 0.654639 Ti
0.125000 0.291667 0.809278 Ti
0.625000 0.291667 0.809278 Ti
0.125000 0.625000 0.500000 Ti
0.625000 0.625000 0.500000 Ti
0.125000 0.625000 0.654639 Ti
0.625000 0.625000 0.654639 Ti
0.125000 0.625000 0.809278 Ti
0.625000 0.625000 0.809278 Ti
0.375000 0.125000 0.577320 Ti
0.875000 0.125000 0.577320 Ti
0.375000 0.125000 0.731959 Ti
0.875000 0.125000 0.731959 Ti
0.375000 0.125000 0.886598 Ti
0.875000 0.125000 0.886598 Ti
0.375000 0.458333 0.577320 Ti
0.875000 0.458333 0.577320 Ti
0.375000 0.458333 0.731959 Ti
0.875000 0.458333 0.731959 Ti
0.375000 0.458333 0.886598 Ti
0.875000 0.458333 0.886598 Ti
0.375000 0.791667 0.577320 Ti
0.875000 0.791667 0.577320 Ti
0.375000 0.791667 0.731959 Ti
0.875000 0.791667 0.731959 Ti
0.375000 0.791667 0.886598 Ti
0.875000 0.791667 0.886598 Ti
