Ti66 Mo1
1.0
6.309760 0.000000 0.000000
0.000000 9.464640 0.000000
0.000000 0.000000 18.918326
Ti Mo
66 1
Selective dynamics
direct
0.124926 0.041396 0.500477 F F F Ti
0.625064 0.041689 0.500187 F F F Ti
0.124998 0.041667 0.658729 F F F Ti
0.624960 0.041681 0.658701 F F F Ti
0.125025 0.041703 0.817223 F F F Ti
0.624974 0.041699 0.817214 F F F Ti
0.124477 0.374994 0.500335 F F F Ti
0.623461 0.374984 0.500367 F F F Ti
0.124952 0.375012 0.658697 F F F Ti
0.624874 0.375015 0.658689 F F F Ti
0.125027 0.375013 0.817238 F F F Ti
0.624951 0.375012 0.817224 F F F Ti
0.124910 0.708656 0.500424 F F F Ti
0.624999 0.708355 0.500159 F F F Ti
0.124983 0.708353 0.658721 F F F Ti
0.624939 0.708334 0.658693 F F F Ti
0.125020 0.708306 0.817225 F F F Ti
0.624964 0.708309 0.817214 F F F Ti
0.374874 0.208281 0.579413 F F F Ti
0.874758 0.208309 0.579487 F F F Ti
0.375003 0.208345 0.737930 F F F Ti
0.874963 0.208347 0.737948 F F F Ti
0.375035 0.208351 0.896438 F F F Ti
0.875029 0.208346 0.896433 F F F Ti
0.374860 0.541738 0.579396 F F F Ti
0.874765 0.541714 0.579469 F F F Ti
0.374998 0.541663 0.737926 F F F Ti
0.874967 0.541661 0.737946 F F F Ti
0.375032 0.541657 0.896443 F F F Ti
0.875024 0.541662 0.896441 F F F Ti
0.375199 0.875006 0.579469 F F F Ti
0.874760 0.875021 0.579510 F F F Ti
0.375023 0.875003 0.737947 F F F Ti
0.874962 0.875006 0.737959 F F F Ti
0.375023 0.875005 0.896430 F F F Ti
0.875010 0.875001 0.896427 F F F Ti
0.122583 0.630320 0.357723 F F F Ti
0.625715 0.625439 0.356807 F F F Ti
0.125464 0.625133 0.118869 F F F Ti
0.625902 0.625152 0.118701 F F F Ti
0.122532 0.119400 0.357896 F F F Ti
0.626064 0.124605 0.356842 F F F Ti
0.125437 0.124901 0.118833 F F F Ti
0.626032 0.124901 0.118663 F F F Ti
0.125310 0.375014 0.039594 F F F Ti
0.625783 0.375012 0.039473 F F F Ti
0.125011 0.875032 0.039540 F F F Ti
0.625198 0.875026 0.039483 F F F Ti
0.633376 0.374982 0.276934 F F F Ti
0.125068 0.875320 0.277300 F F F Ti
0.625485 0.875132 0.277497 F F F Ti
0.375355 0.875118 0.158272 F F F Ti
0.875024 0.875010 0.158424 F F F Ti
0.377616 0.375000 0.157993 F F F Ti
0.876767 0.375017 0.158512 F F F Ti
0.869972 0.375059 0.397881 F F F Ti
0.376064 0.875255 0.396672 F F F Ti
0.873680 0.875097 0.396754 F F F Ti
0.377776 0.627367 0.237454 F F F Ti
0.875465 0.625774 0.237747 F F F Ti
0.375136 0.625030 -0.000045 F F F Ti
0.875244 0.625018 -0.000042 F F F Ti
0.377947 0.122580 0.237438 F F F Ti
0.875381 0.124232 0.237740 F F F Ti
0.375158 0.124997 -0.000052 F F F Ti
0.875250 0.125000 -0.000053 F F F Ti
0.188847 0.373781 0.301371 T T T Mo

0.000000 0.000000 0.000000
0.000000 0.000000 0.000000
0.000000 0.000000 0.000000
0.000000 0.000000 0.000000
0.000000 0.000000 0.000000
0.000000 0.000000 0.000000
0.000000 0.000000 0.000000
0.000000 0.000000 0.000000
0.000000 0.000000 0.000000
0.000000 0.000000 0.000000
0.000000 0.000000 0.000000
0.000000 0.000000 0.000000
0.000000 0.000000 0.000000
0.000000 0.000000 0.000000
0.000000 0.000000 0.000000
0.000000 0.000000 0.000000
0.000000 0.000000 0.000000
0.000000 0.000000 0.000000
0.000000 0.000000 0.000000
0.000000 0.000000 0.000000
0.000000 0.000000 0.000000
0.000000 0.000000 0.000000
0.000000 0.000000 0.000000
0.000000 0.000000 0.000000
0.000000 0.000000 0.000000
0.000000 0.000000 0.000000
0.000000 0.000000 0.000000
0.000000 0.000000 0.000000
0.000000 0.000000 0.000000
0.000000 0.000000 0.000000
0.000000 0.000000 0.000000
0.000000 0.000000 0.000000
0.000000 0.000000 0.000000
0.000000 0.000000 0.000000
0.000000 0.000000 0.000000
0.000000 0.000000 0.000000
0.000000 0.000000 0.000000
0.000000 0.000000 0.000000
0.000000 0.000000 0.000000
0.000000 0.000000 0.000000
0.000000 0.000000 0.000000
0.000000 0.000000 0.000000
0.000000 0.000000 0.000000
0.000000 0.000000 0.000000
0.000000 0.000000 0.000000
0.000000 0.000000 0.000000
0.000000 0.000000 0.000000
0.000000 0.000000 0.000000
0.000000 0.000000 0.000000
0.000000 0.000000 0.000000
0.000000 0.000000 0.000000
0.000000 0.000000 0.000000
0.000000 0.000000 0.000000
0.000000 0.000000 0.000000
0.000000 0.000000 0.000000
0.000000 0.000000 0.000000
0.000000 0.000000 0.000000
0.000000 0.000000 0.000000
0.000000 0.000000 0.000000
0.000000 0.000000 0.000000
0.000000 0.000000 0.000000
0.000000 0.000000 0.000000
0.000000 0.000000 0.000000
0.000000 0.000000 0.000000
0.000000 0.000000 0.000000
0.000000 0.000000 0.000000
0.000000 0.000000 0.000000
