Ti82 Sn1
1.0
6.391540 0.000000 0.000000
0.000000 9.587310 0.000000
0.000000 0.000000 23.271695
Ti Sn
82 1
Selective dynamics
direct
0.635901 0.080426 0.579938 F F F Ti
0.121898 0.081633 0.710962 F F F Ti
0.625134 0.082645 0.709796 F F F Ti
0.124815 0.083253 0.838652 F F F Ti
0.624684 0.083292 0.838568 F F F Ti
0.119950 0.422721 0.579919 F F F Ti
0.625847 0.417737 0.580274 F F F Ti
0.124195 0.416877 0.709617 F F F Ti
0.623777 0.416930 0.709666 F F F Ti
0.124955 0.416600 0.838499 F F F Ti
0.624700 0.416646 0.838521 F F F Ti
0.124952 0.750533 0.580581 F F F Ti
0.625571 0.749414 0.580428 F F F Ti
0.124765 0.749498 0.709752 F F F Ti
0.625408 0.749317 0.709829 F F F Ti
0.124927 0.749806 0.838584 F F F Ti
0.624837 0.749752 0.838621 F F F Ti
0.867785 0.251851 0.645761 F F F Ti
0.374570 0.249831 0.774022 F F F Ti
0.874125 0.250208 0.774236 F F F Ti
0.374924 0.249990 0.902937 F F F Ti
0.874862 0.250015 0.902965 F F F Ti
0.374892 0.583520 0.645084 F F F Ti
0.874083 0.584043 0.645296 F F F Ti
0.374730 0.583190 0.774103 F F F Ti
0.874845 0.583155 0.774165 F F F Ti
0.374907 0.583236 0.902958 F F F Ti
0.874966 0.583222 0.902968 F F F Ti
0.378103 0.912932 0.645705 F F F Ti
0.875152 0.915779 0.645413 F F F Ti
0.375189 0.916187 0.774250 F F F Ti
0.874216 0.916061 0.774313 F F F Ti
0.374951 0.916577 0.902978 F F F Ti
0.874853 0.916580 0.902981 F F F Ti
0.125178 0.166729 0.386590 F F F Ti
0.625493 0.166727 0.386520 F F F Ti
0.125098 0.666658 0.386694 F F F Ti
0.624917 0.666634 0.386614 F F F Ti
0.124980 0.166654 0.000044 F F F Ti
0.624950 0.166654 0.000047 F F F Ti
0.124981 0.666626 0.000041 F F F Ti
0.624948 0.666624 0.000046 F F F Ti
0.124992 0.833328 0.096688 F F F Ti
0.624975 0.833329 0.096689 F F F Ti
0.125306 0.833648 0.483398 F F F Ti
0.625510 0.833128 0.483240 F F F Ti
0.124993 0.333327 0.096681 F F F Ti
0.624970 0.333329 0.096681 F F F Ti
0.124663 0.334380 0.482953 F F F Ti
0.626118 0.333663 0.483111 F F F Ti
0.375325 0.583855 0.483196 F F F Ti
0.874592 0.584000 0.483118 F F F Ti
0.375000 0.583317 0.096684 F F F Ti
0.875020 0.583321 0.096685 F F F Ti
0.374985 0.083335 0.096684 F F F Ti
0.875008 0.083336 0.096683 F F F Ti
0.377265 0.083057 0.482727 F F F Ti
0.876308 0.083514 0.483078 F F F Ti
0.375203 0.416754 0.386578 F F F Ti
0.874937 0.416828 0.386532 F F F Ti
0.375098 0.916551 0.386586 F F F Ti
0.875143 0.916635 0.386641 F F F Ti
0.374955 0.416651 0.000043 F F F Ti
0.874963 0.416656 0.000050 F F F Ti
0.374964 0.916640 0.000069 F F F Ti
0.874955 0.916639 0.000070 F F F Ti
0.375024 0.083328 0.289977 F F F Ti
0.875041 0.083313 0.289977 F F F Ti
0.124990 0.166660 0.193340 F F F Ti
0.624997 0.166655 0.193331 F F F Ti
0.125003 0.333355 0.289976 F F F Ti
0.625014 0.333360 0.289948 F F F Ti
0.374976 0.416672 0.193332 F F F Ti
0.874987 0.416674 0.193330 F F F Ti
0.375003 0.583368 0.289976 F F F Ti
0.875042 0.583387 0.289968 F F F Ti
0.124995 0.666658 0.193348 F F F Ti
0.624979 0.666655 0.193341 F F F Ti
0.124985 0.833325 0.290002 F F F Ti
0.625046 0.833323 0.289980 F F F Ti
0.374977 0.916652 0.193343 F F F Ti
0.874990 0.916651 0.193342 F F F Ti
0.255073 0.171149 0.608479 T T T Sn

0.000000 0.000000 0.000000
0.000000 0.000000 0.000000
0.000000 0.000000 0.000000
0.000000 0.000000 0.000000
0.000000 0.000000 0.000000
0.000000 0.000000 0.000000
0.000000 0.000000 0.000000
0.000000 0.000000 0.000000
0.000000 0.000000 0.000000
0.000000 0.000000 0.000000
0.000000 0.000000 0.000000
0.000000 0.000000 0.000000
0.000000 0.000000 0.000000
0.000000 0.000000 0.000000
0.000000 0.000000 0.000000
0.000000 0.000000 0.000000
0.000000 0.000000 0.000000
0.000000 0.000000 0.000000
0.000000 0.000000 0.000000
0.000000 0.000000 0.000000
0.000000 0.000000 0.000000
0.000000 0.000000 0.000000
0.000000 0.000000 0.000000
0.000000 0.000000 0.000000
0.000000 0.000000 0.000000
0.000000 0.000000 0.000000
0.000000 0.000000 0.000000
0.000000 0.000000 0.000000
0.000000 0.000000 0.000000
0.000000 0.000000 0.000000
0.000000 0.000000 0.000000
0.000000 0.000000 0.000000
0.000000 0.000000 0.000000
0.000000 0.000000 0.000000
0.000000 0.000000 0.000000
0.000000 0.000000 0.000000
0.000000 0.000000 0.000000
0.000000 0.000000 0.000000
0.000000 0.000000 0.000000
0.000000 0.000000 0.000000
0.000000 0.000000 0.000000
0.000000 0.000000 0.000000
0.000000 0.000000 0.000000
0.000000 0.000000 0.000000
0.000000 0.000000 0.000000
0.000000 0.000000 0.000000
0.000000 0.000000 0.000000
0.000000 0.000000 0.000000
0.000000 0.000000 0.000000
0.000000 0.000000 0.000000
0.000000 0.000000 0.000000
0.000000 0.000000 0.000000
0.000000 0.000000 0.000000
0.000000 0.000000 0.000000
0.000000 0.000000 0.000000
0.000000 0.000000 0.000000
0.000000 0.000000 0.000000
0.000000 0.000000 0.000000
0.000000 0.000000 0.000000
0.000000 0.000000 0.000000
0.000000 0.000000 0.000000
0.000000 0.000000 0.000000
0.000000 0.000000 0.000000
0.000000 0.000000 0.000000
0.000000 0.000000 0.000000
0.000000 0.000000 0.000000
0.000000 0.000000 0.000000
0.000000 0.000000 0.000000
0.000000 0.000000 0.000000
0.000000 0.000000 0.000000
0.000000 0.000000 0.000000
0.000000 0.000000 0.000000
0.000000 0.000000 0.000000
0.000000 0.000000 0.000000
0.000000 0.000000 0.000000
0.000000 0.000000 0.000000
0.000000 0.000000 0.000000
0.000000 0.000000 0.000000
0.000000 0.000000 0.000000
0.000000 0.000000 0.000000
0.000000 0.000000 0.000000
0.000000 0.000000 0.000000
0.000000 0.000000 0.000000
