total_Ti
1.0
9.588310 0.000000 0.000000
0.000000 9.588310 0.000000
0.000000 0.000000 17.000006
Ti
102
direct
0.083333 0.083333 0.500000 Ti
0.083333 0.083333 0.676471 Ti
0.083333 0.083333 0.852941 Ti
0.083333 0.416667 0.500000 Ti
0.083333 0.416667 0.676471 Ti
0.083333 0.416667 0.852941 Ti
0.083333 0.750000 0.500000 Ti
0.083333 0.750000 0.676471 Ti
0.083333 0.750000 0.852941 Ti
0.416667 0.083333 0.500000 Ti
0.416667 0.083333 0.676471 Ti
0.416667 0.083333 0.852941 Ti
0.416667 0.416667 0.500000 Ti
0.416667 0.416667 0.676471 Ti
0.416667 0.416667 0.852941 Ti
0.416667 0.750000 0.500000 Ti
0.416667 0.750000 0.676471 Ti
0.416667 0.750000 0.852941 Ti
0.750000 0.083333 0.500000 Ti
0.750000 0.083333 0.676471 Ti
0.750000 0.083333 0.852941 Ti
0.750000 0.416667 0.500000 Ti
0.750000 0.416667 0.676471 Ti
0.750000 0.416667 0.852941 Ti
0.750000 0.750000 0.500000 Ti
0.750000 0.750000 0.676471 Ti
0.750000 0.750000 0.852941 Ti
0.250000 0.250000 0.588235 Ti
0.250000 0.250000 0.764706 Ti
0.250000 0.250000 0.941176 Ti
0.250000 0.583333 0.588235 Ti
0.250000 0.583333 0.764706 Ti
0.250000 0.583333 0.941176 Ti
0.250000 0.916667 0.588235 Ti
0.250000 0.916667 0.764706 Ti
0.250000 0.916667 0.941176 Ti
0.583333 0.250000 0.588235 Ti
0.583333 0.250000 0.764706 Ti
0.583333 0.250000 0.941176 Ti
0.583333 0.583333 0.588235 Ti
0.583333 0.583333 0.764706 Ti
0.583333 0.583333 0.941176 Ti
0.583333 0.916667 0.588235 Ti
0.583333 0.916667 0.764706 Ti
0.583333 0.916667 0.941176 Ti
0.916667 0.250000 0.588235 Ti
0.916667 0.250000 0.764706 Ti
0.916667 0.250000 0.941176 Ti
0.916667 0.583333 0.588235 Ti
0.916667 0.583333 0.764706 Ti
0.916667 0.583333 0.941176 Ti
0.916667 0.916667 0.588235 Ti
0.916667 0.916667 0.764706 Ti
0.916667 0.916667 0.941176 Ti
0.125000 0.833333 -0.000000 Ti
0.125000 0.333333 -0.000000 Ti
0.625000 0.833333 -0.000000 Ti
0.625000 0.333333 -0.000000 Ti
0.375000 0.666667 -0.000000 Ti
0.375000 0.166667 -0.000000 Ti
0.875000 0.666667 -0.000000 Ti
0.875000 0.166667 -0.000000 Ti
0.875000 0.416667 0.088235 Ti
0.375000 0.416667 0.088235 Ti
0.875000 0.916667 0.088235 Ti
0.375000 0.916667 0.088235 Ti
0.625000 0.083333 0.088235 Ti
0.125000 0.083333 0.088235 Ti
0.625000 0.583333 0.088235 Ti
0.125000 0.583333 0.088235 Ti
0.125000 0.333333 0.176471 Ti
0.625000 0.333333 0.176471 Ti
0.625000 0.833333 0.176471 Ti
0.125000 0.833333 0.176471 Ti
0.875000 0.666667 0.176471 Ti
0.375000 0.166667 0.176471 Ti
0.875000 0.166667 0.176471 Ti
0.375000 0.666667 0.176471 Ti
0.875000 0.416667 0.264706 Ti
0.375000 0.416667 0.264706 Ti
0.875000 0.916667 0.264706 Ti
0.375000 0.916667 0.264706 Ti
0.125000 0.583333 0.264706 Ti
0.625000 0.083333 0.264706 Ti
0.125000 0.083333 0.264706 Ti
0.625000 0.583333 0.264706 Ti
0.625000 0.833333 0.352941 Ti
0.625000 0.333333 0.352941 Ti
0.125000 0.833333 0.352941 Ti
0.125000 0.333333 0.352941 Ti
0.375000 0.166667 0.352941 Ti
0.875000 0.166667 0.352941 Ti
0.375000 0.666667 0.352941 Ti
0.875000 0.666667 0.352941 Ti
0.875000 0.416667 0.441176 Ti
0.375000 0.416667 0.441176 Ti
0.375000 0.916667 0.441176 Ti
0.875000 0.916667 0.441176 Ti
0.625000 0.583333 0.441176 Ti
0.625000 0.083333 0.441176 Ti
0.125000 0.583333 0.441176 Ti
0.125000 0.083333 0.441176 Ti
