Zr1 Ti66
1.0
6.309760 0.000000 0.000000
0.000000 9.464640 0.000000
0.000000 0.000000 18.918326
Ti Zr
66 1
Selective dynamics
direct
0.111535 0.035979 0.500250 F F F Ti
0.635783 0.036872 0.500072 F F F Ti
0.124677 0.042269 0.658843 F F F Ti
0.623834 0.042416 0.659025 F F F Ti
0.125150 0.042206 0.817426 F F F Ti
0.624692 0.042263 0.817430 F F F Ti
0.082718 0.388812 0.503056 F F F Ti
0.675683 0.397669 0.503330 F F F Ti
0.125116 0.375593 0.658594 F F F Ti
0.624318 0.376249 0.659400 F F F Ti
0.125186 0.375205 0.817315 F F F Ti
0.624603 0.375192 0.817499 F F F Ti
0.124855 0.709391 0.500267 F F F Ti
0.622469 0.711447 0.500326 F F F Ti
0.127138 0.709910 0.659586 F F F Ti
0.621960 0.710308 0.659772 F F F Ti
0.125276 0.708764 0.817642 F F F Ti
0.624483 0.708838 0.817680 F F F Ti
0.870672 0.207424 0.580952 F F F Ti
0.374683 0.208967 0.737646 F F F Ti
0.874873 0.208804 0.738339 F F F Ti
0.374958 0.208530 0.896543 F F F Ti
0.875017 0.208561 0.896629 F F F Ti
0.374571 0.542600 0.579310 F F F Ti
0.875324 0.550377 0.583606 F F F Ti
0.374835 0.541947 0.738198 F F F Ti
0.874958 0.542510 0.738903 F F F Ti
0.374998 0.541750 0.896655 F F F Ti
0.875008 0.541784 0.896738 F F F Ti
0.374400 0.876876 0.579348 F F F Ti
0.874038 0.874166 0.580612 F F F Ti
0.374599 0.876207 0.738298 F F F Ti
0.874852 0.875759 0.738494 F F F Ti
0.375036 0.875390 0.896677 F F F Ti
0.874969 0.875330 0.896703 F F F Ti
0.125710 0.624062 0.356988 F F F Ti
0.623280 0.625335 0.356496 F F F Ti
0.125236 0.624948 0.118926 F F F Ti
0.624869 0.624965 0.118878 F F F Ti
0.119135 0.122660 0.355607 F F F Ti
0.633066 0.121577 0.354558 F F F Ti
0.125186 0.124899 0.118737 F F F Ti
0.624741 0.124876 0.118636 F F F Ti
0.125177 0.374992 0.039708 F F F Ti
0.624847 0.375045 0.039687 F F F Ti
0.125109 0.875048 0.039664 F F F Ti
0.624817 0.874988 0.039637 F F F Ti
0.125530 0.374564 0.277339 F F F Ti
0.624481 0.374986 0.276613 F F F Ti
0.124740 0.874223 0.277218 F F F Ti
0.624767 0.873809 0.276903 F F F Ti
0.374906 0.874757 0.158417 F F F Ti
0.875136 0.874597 0.158265 F F F Ti
0.374883 0.374860 0.158451 F F F Ti
0.875414 0.375065 0.158280 F F F Ti
0.870497 0.375245 0.393676 F F F Ti
0.374299 0.875065 0.396234 F F F Ti
0.874126 0.872393 0.395848 F F F Ti
0.374616 0.624589 0.237835 F F F Ti
0.875199 0.624711 0.237642 F F F Ti
0.374967 0.624908 0.000206 F F F Ti
0.875191 0.624989 0.000210 F F F Ti
0.374821 0.124523 0.237566 F F F Ti
0.874806 0.124552 0.236751 F F F Ti
0.374960 0.125158 0.000114 F F F Ti
0.874847 0.125088 0.000101 F F F Ti
0.388371 0.268160 0.475409 T T T Zr

0.000000 0.000000 0.000000
0.000000 0.000000 0.000000
0.000000 0.000000 0.000000
0.000000 0.000000 0.000000
0.000000 0.000000 0.000000
0.000000 0.000000 0.000000
0.000000 0.000000 0.000000
0.000000 0.000000 0.000000
0.000000 0.000000 0.000000
0.000000 0.000000 0.000000
0.000000 0.000000 0.000000
0.000000 0.000000 0.000000
0.000000 0.000000 0.000000
0.000000 0.000000 0.000000
0.000000 0.000000 0.000000
0.000000 0.000000 0.000000
0.000000 0.000000 0.000000
0.000000 0.000000 0.000000
0.000000 0.000000 0.000000
0.000000 0.000000 0.000000
0.000000 0.000000 0.000000
0.000000 0.000000 0.000000
0.000000 0.000000 0.000000
0.000000 0.000000 0.000000
0.000000 0.000000 0.000000
0.000000 0.000000 0.000000
0.000000 0.000000 0.000000
0.000000 0.000000 0.000000
0.000000 0.000000 0.000000
0.000000 0.000000 0.000000
0.000000 0.000000 0.000000
0.000000 0.000000 0.000000
0.000000 0.000000 0.000000
0.000000 0.000000 0.000000
0.000000 0.000000 0.000000
0.000000 0.000000 0.000000
0.000000 0.000000 0.000000
0.000000 0.000000 0.000000
0.000000 0.000000 0.000000
0.000000 0.000000 0.000000
0.000000 0.000000 0.000000
0.000000 0.000000 0.000000
0.000000 0.000000 0.000000
0.000000 0.000000 0.000000
0.000000 0.000000 0.000000
0.000000 0.000000 0.000000
0.000000 0.000000 0.000000
0.000000 0.000000 0.000000
0.000000 0.000000 0.000000
0.000000 0.000000 0.000000
0.000000 0.000000 0.000000
0.000000 0.000000 0.000000
0.000000 0.000000 0.000000
0.000000 0.000000 0.000000
0.000000 0.000000 0.000000
0.000000 0.000000 0.000000
0.000000 0.000000 0.000000
0.000000 0.000000 0.000000
0.000000 0.000000 0.000000
0.000000 0.000000 0.000000
0.000000 0.000000 0.000000
0.000000 0.000000 0.000000
0.000000 0.000000 0.000000
0.000000 0.000000 0.000000
0.000000 0.000000 0.000000
0.000000 0.000000 0.000000
0.000000 0.000000 0.000000
