alpha_Ti
1.0
6.309760 0.000000 0.000000
0.000000 9.464640 0.000000
0.000000 0.000000 26.000004
Ti
32
direct
0.125000 0.625000 0.259615 Ti
0.625000 0.625000 0.259615 Ti
0.125000 0.625000 0.086538 Ti
0.625000 0.625000 0.086538 Ti
0.125000 0.125000 0.259615 Ti
0.625000 0.125000 0.259615 Ti
0.125000 0.125000 0.086538 Ti
0.625000 0.125000 0.086538 Ti
0.125000 0.375000 0.028846 Ti
0.625000 0.375000 0.028846 Ti
0.125000 0.875000 0.028846 Ti
0.625000 0.875000 0.028846 Ti
0.125000 0.375000 0.201923 Ti
0.625000 0.375000 0.201923 Ti
0.125000 0.875000 0.201923 Ti
0.625000 0.875000 0.201923 Ti
0.375000 0.875000 0.115385 Ti
0.875000 0.875000 0.115385 Ti
0.374999 0.375000 0.115385 Ti
0.874999 0.375000 0.115385 Ti
0.375000 0.375000 0.288462 Ti
0.875000 0.375000 0.288462 Ti
0.375000 0.875000 0.288461 Ti
0.875000 0.875000 0.288461 Ti
0.375000 0.625000 0.173077 Ti
0.875000 0.625000 0.173077 Ti
0.375000 0.625000 -0.000000 Ti
0.875000 0.625000 -0.000000 Ti
0.375000 0.125000 0.173077 Ti
0.875000 0.125000 0.173077 Ti
0.375000 0.125000 -0.000000 Ti
0.875000 0.125000 -0.000000 Ti
