Ti66 Al1
1.0
6.309760 0.000000 0.000000
0.000000 9.464640 0.000000
0.000000 0.000000 18.918326
Ti Al
66 1
Selective dynamics
direct
0.125102 0.042294 0.500082 F F F Ti
0.625419 0.042167 0.499942 F F F Ti
0.125065 0.041834 0.658606 F F F Ti
0.625052 0.041817 0.658603 F F F Ti
0.125035 0.041711 0.817068 F F F Ti
0.624974 0.041704 0.817075 F F F Ti
0.125202 0.376501 0.500492 F F F Ti
0.625218 0.375529 0.501180 F F F Ti
0.124974 0.375284 0.658690 F F F Ti
0.625012 0.375237 0.658771 F F F Ti
0.124995 0.375097 0.817092 F F F Ti
0.624948 0.375097 0.817108 F F F Ti
0.125099 0.710006 0.499801 F F F Ti
0.624317 0.709653 0.500031 F F F Ti
0.124997 0.708796 0.658550 F F F Ti
0.624870 0.708774 0.658615 F F F Ti
0.125001 0.708431 0.817072 F F F Ti
0.624938 0.708421 0.817088 F F F Ti
0.374974 0.208561 0.579410 F F F Ti
0.875192 0.208586 0.579485 F F F Ti
0.375009 0.208415 0.737866 F F F Ti
0.875007 0.208414 0.737881 F F F Ti
0.375007 0.208414 0.896280 F F F Ti
0.875022 0.208418 0.896261 F F F Ti
0.374993 0.542460 0.579510 F F F Ti
0.875003 0.542583 0.579536 F F F Ti
0.374980 0.541864 0.737889 F F F Ti
0.874981 0.541882 0.737897 F F F Ti
0.374980 0.541705 0.896354 F F F Ti
0.875010 0.541715 0.896340 F F F Ti
0.375045 0.875527 0.579301 F F F Ti
0.874960 0.875412 0.579323 F F F Ti
0.374992 0.875130 0.737853 F F F Ti
0.874980 0.875119 0.737858 F F F Ti
0.375005 0.874961 0.896308 F F F Ti
0.875029 0.874954 0.896292 F F F Ti
0.125442 0.625863 0.356742 F F F Ti
0.625140 0.626854 0.356545 F F F Ti
0.125209 0.624709 0.118812 F F F Ti
0.624999 0.624815 0.118779 F F F Ti
0.629811 0.125734 0.356597 F F F Ti
0.125277 0.124741 0.118455 F F F Ti
0.624967 0.124860 0.117666 F F F Ti
0.125109 0.374986 0.039491 F F F Ti
0.624941 0.375181 0.039371 F F F Ti
0.125066 0.874734 0.039343 F F F Ti
0.625014 0.874606 0.039223 F F F Ti
0.626956 0.375402 0.277352 F F F Ti
0.125231 0.874362 0.276873 F F F Ti
0.625515 0.874438 0.277300 F F F Ti
0.375439 0.874215 0.158105 F F F Ti
0.874794 0.873977 0.157978 F F F Ti
0.375253 0.374852 0.158487 F F F Ti
0.874992 0.375210 0.158166 F F F Ti
0.382228 0.380300 0.397802 F F F Ti
0.867218 0.382173 0.398231 F F F Ti
0.375118 0.876121 0.396179 F F F Ti
0.875240 0.875196 0.396314 F F F Ti
0.375083 0.624652 0.237779 F F F Ti
0.875340 0.624853 0.237719 F F F Ti
0.374966 0.624895 -0.000108 F F F Ti
0.875073 0.624906 -0.000122 F F F Ti
0.382452 0.123113 0.235847 F F F Ti
0.866761 0.122738 0.234888 F F F Ti
0.374894 0.124935 -0.000313 F F F Ti
0.875231 0.124937 -0.000333 F F F Ti
0.115854 0.190060 0.341222 T T T Al

0.000000 0.000000 0.000000
0.000000 0.000000 0.000000
0.000000 0.000000 0.000000
0.000000 0.000000 0.000000
0.000000 0.000000 0.000000
0.000000 0.000000 0.000000
0.000000 0.000000 0.000000
0.000000 0.000000 0.000000
0.000000 0.000000 0.000000
0.000000 0.000000 0.000000
0.000000 0.000000 0.000000
0.000000 0.000000 0.000000
0.000000 0.000000 0.000000
0.000000 0.000000 0.000000
0.000000 0.000000 0.000000
0.000000 0.000000 0.000000
0.000000 0.000000 0.000000
0.000000 0.000000 0.000000
0.000000 0.000000 0.000000
0.000000 0.000000 0.000000
0.000000 0.000000 0.000000
0.000000 0.000000 0.000000
0.000000 0.000000 0.000000
0.000000 0.000000 0.000000
0.000000 0.000000 0.000000
0.000000 0.000000 0.000000
0.000000 0.000000 0.000000
0.000000 0.000000 0.000000
0.000000 0.000000 0.000000
0.000000 0.000000 0.000000
0.000000 0.000000 0.000000
0.000000 0.000000 0.000000
0.000000 0.000000 0.000000
0.000000 0.000000 0.000000
0.000000 0.000000 0.000000
0.000000 0.000000 0.000000
0.000000 0.000000 0.000000
0.000000 0.000000 0.000000
0.000000 0.000000 0.000000
0.000000 0.000000 0.000000
0.000000 0.000000 0.000000
0.000000 0.000000 0.000000
0.000000 0.000000 0.000000
0.000000 0.000000 0.000000
0.000000 0.000000 0.000000
0.000000 0.000000 0.000000
0.000000 0.000000 0.000000
0.000000 0.000000 0.000000
0.000000 0.000000 0.000000
0.000000 0.000000 0.000000
0.000000 0.000000 0.000000
0.000000 0.000000 0.000000
0.000000 0.000000 0.000000
0.000000 0.000000 0.000000
0.000000 0.000000 0.000000
0.000000 0.000000 0.000000
0.000000 0.000000 0.000000
0.000000 0.000000 0.000000
0.000000 0.000000 0.000000
0.000000 0.000000 0.000000
0.000000 0.000000 0.000000
0.000000 0.000000 0.000000
0.000000 0.000000 0.000000
0.000000 0.000000 0.000000
0.000000 0.000000 0.000000
0.000000 0.000000 0.000000
0.000000 0.000000 0.000000
