Ti96 Nb1
1.0
9.513020 0.000000 0.000000
0.000000 9.350860 0.000000
0.000000 0.000000 18.547230
Ti Nb
96 1
Selective dynamics
direct
0.143036 0.377990 0.402582 T T T Ti
0.649927 0.361147 0.398640 T T T Ti
0.168541 0.882721 0.402089 T T T Ti
0.634795 0.933392 0.398263 T T T Ti
0.162771 0.377690 0.235419 T T T Ti
0.660077 0.380140 0.234137 T T T Ti
0.160164 0.875779 0.235985 T T T Ti
0.656975 0.878301 0.234017 T T T Ti
0.166633 0.375026 0.077602 F F F Ti
0.666689 0.375036 0.077600 F F F Ti
0.166705 0.875018 0.077589 F F F Ti
0.666675 0.874979 0.077643 F F F Ti
0.400348 0.371953 0.319737 T T T Ti
0.911934 0.362081 0.309509 T T T Ti
0.408280 0.867917 0.317686 T T T Ti
0.912421 0.876331 0.326205 T T T Ti
0.416587 0.375049 0.155220 F F F Ti
0.916730 0.375054 0.155215 F F F Ti
0.416726 0.874986 0.155271 F F F Ti
0.916760 0.874906 0.155241 F F F Ti
0.416683 0.375005 -0.000008 F F F Ti
0.916644 0.375017 -0.000001 F F F Ti
0.416702 0.875005 0.000005 F F F Ti
0.916647 0.875000 0.000006 F F F Ti
0.099652 0.128048 0.319736 T T T Ti
0.588066 0.137920 0.309508 T T T Ti
0.091720 0.632084 0.317685 T T T Ti
0.587579 0.623670 0.326204 T T T Ti
0.083416 0.124967 0.155220 F F F Ti
0.583268 0.124961 0.155216 F F F Ti
0.083276 0.625027 0.155272 F F F Ti
0.583237 0.625110 0.155240 F F F Ti
0.083320 0.125004 -0.000008 F F F Ti
0.583354 0.124992 -0.000000 F F F Ti
0.083303 0.625001 0.000006 F F F Ti
0.583353 0.625008 0.000006 F F F Ti
0.356963 0.122010 0.402582 T T T Ti
0.850072 0.138854 0.398640 T T T Ti
0.331458 0.617279 0.402089 T T T Ti
0.865204 0.566608 0.398263 T T T Ti
0.337228 0.122313 0.235419 T T T Ti
0.839922 0.119863 0.234136 T T T Ti
0.339835 0.624224 0.235986 T T T Ti
0.843024 0.621702 0.234017 T T T Ti
0.333366 0.124988 0.077602 F F F Ti
0.833310 0.124978 0.077600 F F F Ti
0.333295 0.624996 0.077589 F F F Ti
0.833325 0.625033 0.077643 F F F Ti
0.375004 0.374961 0.823938 F F F Ti
0.875015 0.374942 0.823828 F F F Ti
0.375043 0.875033 0.823944 F F F Ti
0.874951 0.874994 0.823902 F F F Ti
0.125003 0.125029 0.823937 F F F Ti
0.624993 0.125055 0.823827 F F F Ti
0.124961 0.624956 0.823946 F F F Ti
0.625053 0.624999 0.823904 F F F Ti
0.124924 0.375020 0.910147 F F F Ti
0.625059 0.375023 0.910118 F F F Ti
0.124927 0.874984 0.910144 F F F Ti
0.625042 0.874991 0.910098 F F F Ti
0.375081 0.124977 0.910146 F F F Ti
0.874945 0.124974 0.910117 F F F Ti
0.375079 0.625012 0.910144 F F F Ti
0.874964 0.625009 0.910098 F F F Ti
0.392558 0.368080 0.646629 T T T Ti
0.890670 0.364970 0.665409 T T T Ti
0.383484 0.861753 0.663452 T T T Ti
0.892894 0.862385 0.650899 T T T Ti
0.107440 0.131915 0.646629 T T T Ti
0.609328 0.135025 0.665409 T T T Ti
0.116513 0.638240 0.663451 T T T Ti
0.607103 0.637609 0.650900 T T T Ti
0.140768 0.393051 0.574589 T T T Ti
0.653268 0.379746 0.580018 T T T Ti
0.155475 0.878537 0.571451 T T T Ti
0.627808 0.902229 0.581773 T T T Ti
0.359232 0.106947 0.574589 T T T Ti
0.846732 0.120252 0.580018 T T T Ti
0.344524 0.621461 0.571451 T T T Ti
0.872191 0.597768 0.581773 T T T Ti
0.382357 0.361174 0.489781 T T T Ti
0.902490 0.351187 0.495144 T T T Ti
0.410338 0.854390 0.484420 T T T Ti
0.929625 0.915980 0.484258 T T T Ti
0.117642 0.138825 0.489781 T T T Ti
0.597509 0.148813 0.495144 T T T Ti
0.089661 0.645610 0.484420 T T T Ti
0.570375 0.584020 0.484258 T T T Ti
0.125117 0.874928 0.737822 F F F Ti
0.624887 0.875238 0.737662 F F F Ti
0.374869 0.625040 0.737822 F F F Ti
0.875106 0.624741 0.737665 F F F Ti
0.124977 0.374922 0.737693 F F F Ti
0.625145 0.374797 0.737665 F F F Ti
0.375014 0.125058 0.737691 F F F Ti
0.874848 0.125183 0.737663 F F F Ti
0.750000 0.750000 0.453083 T T T Nb

0.000000 0.000000 0.000000
0.000000 0.000000 0.000000
0.000000 0.000000 0.000000
0.000000 0.000000 0.000000
0.000000 0.000000 0.000000
0.000000 0.000000 0.000000
0.000000 0.000000 0.000000
0.000000 0.000000 0.000000
0.000000 0.000000 0.000000
0.000000 0.000000 0.000000
0.000000 0.000000 0.000000
0.000000 0.000000 0.000000
0.000000 0.000000 0.000000
0.000000 0.000000 0.000000
0.000000 0.000000 0.000000
0.000000 0.000000 0.000000
0.000000 0.000000 0.000000
0.000000 0.000000 0.000000
0.000000 0.000000 0.000000
0.000000 0.000000 0.000000
0.000000 0.000000 0.000000
0.000000 0.000000 0.000000
0.000000 0.000000 0.000000
0.000000 0.000000 0.000000
0.000000 0.000000 0.000000
0.000000 0.000000 0.000000
0.000000 0.000000 0.000000
0.000000 0.000000 0.000000
0.000000 0.000000 0.000000
0.000000 0.000000 0.000000
0.000000 0.000000 0.000000
0.000000 0.000000 0.000000
0.000000 0.000000 0.000000
0.000000 0.000000 0.000000
0.000000 0.000000 0.000000
0.000000 0.000000 0.000000
0.000000 0.000000 0.000000
0.000000 0.000000 0.000000
0.000000 0.000000 0.000000
0.000000 0.000000 0.000000
0.000000 0.000000 0.000000
0.000000 0.000000 0.000000
0.000000 0.000000 0.000000
0.000000 0.000000 0.000000
0.000000 0.000000 0.000000
0.000000 0.000000 0.000000
0.000000 0.000000 0.000000
0.000000 0.000000 0.000000
0.000000 0.000000 0.000000
0.000000 0.000000 0.000000
0.000000 0.000000 0.000000
0.000000 0.000000 0.000000
0.000000 0.000000 0.000000
0.000000 0.000000 0.000000
0.000000 0.000000 0.000000
0.000000 0.000000 0.000000
0.000000 0.000000 0.000000
0.000000 0.000000 0.000000
0.000000 0.000000 0.000000
0.000000 0.000000 0.000000
0.000000 0.000000 0.000000
0.000000 0.000000 0.000000
0.000000 0.000000 0.000000
0.000000 0.000000 0.000000
0.000000 0.000000 0.000000
0.000000 0.000000 0.000000
0.000000 0.000000 0.000000
0.000000 0.000000 0.000000
0.000000 0.000000 0.000000
0.000000 0.000000 0.000000
0.000000 0.000000 0.000000
0.000000 0.000000 0.000000
0.000000 0.000000 0.000000
0.000000 0.000000 0.000000
0.000000 0.000000 0.000000
0.000000 0.000000 0.000000
0.000000 0.000000 0.000000
0.000000 0.000000 0.000000
0.000000 0.000000 0.000000
0.000000 0.000000 0.000000
0.000000 0.000000 0.000000
0.000000 0.000000 0.000000
0.000000 0.000000 0.000000
0.000000 0.000000 0.000000
0.000000 0.000000 0.000000
0.000000 0.000000 0.000000
0.000000 0.000000 0.000000
0.000000 0.000000 0.000000
0.000000 0.000000 0.000000
0.000000 0.000000 0.000000
0.000000 0.000000 0.000000
0.000000 0.000000 0.000000
0.000000 0.000000 0.000000
0.000000 0.000000 0.000000
0.000000 0.000000 0.000000
0.000000 0.000000 0.000000
0.000000 0.000000 0.000000
