beta_Ti
1.0
4.756512 0.000000 0.000000
0.000000 4.675432 0.000000
0.000000 0.000000 20.311800
Ti
12
direct
0.666667 0.750000 0.874460 Ti
0.166667 0.250000 0.874460 Ti
0.166667 0.750000 0.795616 Ti
0.666667 0.250000 0.795616 Ti
0.666667 0.750000 0.716773 Ti
0.166667 0.250000 0.716773 Ti
0.166667 0.750000 0.637930 Ti
0.666667 0.250000 0.637930 Ti
0.666667 0.750000 0.559086 Ti
0.166667 0.250000 0.559086 Ti
0.166667 0.750000 0.480243 Ti
0.666667 0.250000 0.480243 Ti
