Ti72
1.0
8.805261 0.000000 0.000000
-4.402630 7.625579 0.000000
0.000000 0.000000 18.088801
Ti
72
direct
0.000000 0.000000 0.486043 Ti
1.000000 0.500000 0.486043 Ti
0.500000 0.000000 0.486043 Ti
0.500000 0.500000 0.486043 Ti
0.166667 0.333333 0.843847 Ti
0.166667 0.833333 0.843847 Ti
0.666667 0.333333 0.843847 Ti
0.666667 0.833333 0.843847 Ti
0.333333 0.166667 0.894962 Ti
0.333333 0.666667 0.894962 Ti
0.833333 0.166667 0.894962 Ti
0.833333 0.666667 0.894962 Ti
0.166667 0.333333 0.537158 Ti
0.166667 0.833333 0.537158 Ti
0.666667 0.333333 0.537158 Ti
0.666667 0.833333 0.537158 Ti
0.333333 0.166667 0.588272 Ti
0.333333 0.666667 0.588272 Ti
0.833333 0.166667 0.588272 Ti
0.833333 0.666667 0.588272 Ti
0.000000 0.000000 0.639387 Ti
1.000000 0.500000 0.639387 Ti
0.500000 0.000000 0.639387 Ti
0.500000 0.500000 0.639387 Ti
0.166667 0.333333 0.690502 Ti
0.166667 0.833333 0.690502 Ti
0.666667 0.333333 0.690502 Ti
0.666667 0.833333 0.690502 Ti
0.333333 0.166667 0.741617 Ti
0.333333 0.666667 0.741617 Ti
0.833333 0.166667 0.741617 Ti
0.833333 0.666667 0.741617 Ti
0.000000 0.000000 0.792732 Ti
1.000000 0.500000 0.792732 Ti
0.500000 0.000000 0.792732 Ti
0.500000 0.500000 0.792732 Ti
0.111111 0.888889 -0.000000 Ti
0.111111 0.888889 0.254004 Ti
0.111111 0.555556 -0.000000 Ti
0.222222 0.777778 0.127002 Ti
0.111111 0.555556 0.254004 Ti
0.444444 0.888889 -0.000000 Ti
0.111111 0.222222 -0.000000 Ti
0.222222 0.777778 0.381005 Ti
0.222222 0.444444 0.127002 Ti
0.444444 0.888889 0.254004 Ti
0.111111 0.222222 0.254004 Ti
0.444444 0.555556 -0.000000 Ti
0.222222 0.444444 0.381005 Ti
0.555556 0.777778 0.127002 Ti
0.222222 0.111111 0.127002 Ti
0.444444 0.555556 0.254004 Ti
0.777778 0.888889 -0.000000 Ti
0.444444 0.222222 -0.000000 Ti
0.555556 0.777778 0.381005 Ti
0.222222 0.111111 0.381005 Ti
0.555556 0.444444 0.127002 Ti
0.777778 0.888889 0.254004 Ti
0.444444 0.222222 0.254004 Ti
0.777778 0.555556 -0.000000 Ti
0.555556 0.444444 0.381005 Ti
0.888889 0.777778 0.127002 Ti
0.555556 0.111111 0.127002 Ti
0.777778 0.555556 0.254004 Ti
0.777778 0.222222 -0.000000 Ti
0.888889 0.777778 0.381005 Ti
0.555556 0.111111 0.381005 Ti
0.888889 0.444444 0.127002 Ti
0.777778 0.222222 0.254004 Ti
0.888889 0.444444 0.381005 Ti
0.888889 0.111111 0.127002 Ti
0.888889 0.111111 0.381005 Ti

0.000000 0.000000 0.000000
0.000000 0.000000 0.000000
0.000000 0.000000 0.000000
0.000000 0.000000 0.000000
0.000000 0.000000 0.000000
0.000000 0.000000 0.000000
0.000000 0.000000 0.000000
0.000000 0.000000 0.000000
0.000000 0.000000 0.000000
0.000000 0.000000 0.000000
0.000000 0.000000 0.000000
0.000000 0.000000 0.000000
0.000000 0.000000 0.000000
0.000000 0.000000 0.000000
0.000000 0.000000 0.000000
0.000000 0.000000 0.000000
0.000000 0.000000 0.000000
0.000000 0.000000 0.000000
0.000000 0.000000 0.000000
0.000000 0.000000 0.000000
0.000000 0.000000 0.000000
0.000000 0.000000 0.000000
0.000000 0.000000 0.000000
0.000000 0.000000 0.000000
0.000000 0.000000 0.000000
0.000000 0.000000 0.000000
0.000000 0.000000 0.000000
0.000000 0.000000 0.000000
0.000000 0.000000 0.000000
0.000000 0.000000 0.000000
0.000000 0.000000 0.000000
0.000000 0.000000 0.000000
0.000000 0.000000 0.000000
0.000000 0.000000 0.000000
0.000000 0.000000 0.000000
0.000000 0.000000 0.000000
0.000000 0.000000 0.000000
0.000000 0.000000 0.000000
0.000000 0.000000 0.000000
0.000000 0.000000 0.000000
0.000000 0.000000 0.000000
0.000000 0.000000 0.000000
0.000000 0.000000 0.000000
0.000000 0.000000 0.000000
0.000000 0.000000 0.000000
0.000000 0.000000 0.000000
0.000000 0.000000 0.000000
0.000000 0.000000 0.000000
0.000000 0.000000 0.000000
0.000000 0.000000 0.000000
0.000000 0.000000 0.000000
0.000000 0.000000 0.000000
0.000000 0.000000 0.000000
0.000000 0.000000 0.000000
0.000000 0.000000 0.000000
0.000000 0.000000 0.000000
0.000000 0.000000 0.000000
0.000000 0.000000 0.000000
0.000000 0.000000 0.000000
0.000000 0.000000 0.000000
0.000000 0.000000 0.000000
0.000000 0.000000 0.000000
0.000000 0.000000 0.000000
0.000000 0.000000 0.000000
0.000000 0.000000 0.000000
0.000000 0.000000 0.000000
0.000000 0.000000 0.000000
0.000000 0.000000 0.000000
0.000000 0.000000 0.000000
0.000000 0.000000 0.000000
0.000000 0.000000 0.000000
0.000000 0.000000 0.000000
