Ti66 Sn1
1.0
6.309760 0.000000 0.000000
0.000000 9.464640 0.000000
0.000000 0.000000 18.918326
Ti Sn
66 1
Selective dynamics
direct
0.083345 0.043377 0.487927 T T T Ti
0.607941 0.024164 0.483931 T T T Ti
0.123106 0.060313 0.647110 T T T Ti
0.604631 0.052721 0.645945 T T T Ti
0.125218 0.041726 0.817531 F F F Ti
0.625668 0.041534 0.817474 F F F Ti
0.616828 0.375259 0.470311 T T T Ti
0.119027 0.375066 0.649798 T T T Ti
0.642200 0.374989 0.655136 T T T Ti
0.125244 0.375029 0.817466 F F F Ti
0.625927 0.375016 0.817656 F F F Ti
0.083745 0.706538 0.487896 T T T Ti
0.607492 0.725913 0.483907 T T T Ti
0.123260 0.689694 0.647087 T T T Ti
0.604455 0.697251 0.645912 T T T Ti
0.125230 0.708273 0.817530 F F F Ti
0.625656 0.708448 0.817470 F F F Ti
0.377985 0.215959 0.556400 T T T Ti
0.843966 0.221829 0.555618 T T T Ti
0.374928 0.208884 0.738477 F F F Ti
0.876263 0.208112 0.738280 F F F Ti
0.375257 0.208355 0.896548 F F F Ti
0.875307 0.208350 0.896504 F F F Ti
0.377810 0.533948 0.556296 T T T Ti
0.844094 0.528206 0.555606 T T T Ti
0.374942 0.541122 0.738471 F F F Ti
0.876280 0.541895 0.738270 F F F Ti
0.375261 0.541634 0.896551 F F F Ti
0.875308 0.541629 0.896508 F F F Ti
0.342937 0.875262 0.565902 T T T Ti
0.869392 0.874800 0.576457 T T T Ti
0.374353 0.875022 0.738557 F F F Ti
0.876445 0.874927 0.738148 F F F Ti
0.375273 0.874973 0.896594 F F F Ti
0.875285 0.874953 0.896528 F F F Ti
0.176706 0.611888 0.367054 T T T Ti
0.695449 0.609588 0.368480 T T T Ti
0.125404 0.625178 0.118595 F F F Ti
0.625103 0.625239 0.118694 F F F Ti
0.176028 0.137946 0.366919 T T T Ti
0.695907 0.140497 0.368496 T T T Ti
0.125349 0.124848 0.118580 F F F Ti
0.625170 0.124780 0.118678 F F F Ti
0.125506 0.375007 0.039436 F F F Ti
0.624533 0.374985 0.039486 F F F Ti
0.125077 0.875005 0.039343 F F F Ti
0.625400 0.874995 0.039384 F F F Ti
0.105961 0.375087 0.276101 T T T Ti
0.637144 0.375073 0.278559 T T T Ti
0.133454 0.875115 0.278004 T T T Ti
0.604440 0.875308 0.284273 T T T Ti
0.375701 0.875076 0.157647 F F F Ti
0.874687 0.874933 0.158099 F F F Ti
0.374546 0.374969 0.158854 F F F Ti
0.874275 0.375035 0.157165 F F F Ti
0.914206 0.375293 0.404040 T T T Ti
0.348091 0.875781 0.400281 T T T Ti
0.884468 0.874569 0.391989 T T T Ti
0.382541 0.624574 0.246366 T T T Ti
0.879948 0.628812 0.246795 T T T Ti
0.375191 0.625018 -0.000005 F F F Ti
0.875020 0.625091 -0.000098 F F F Ti
0.382524 0.125594 0.246330 T T T Ti
0.879869 0.121297 0.246754 T T T Ti
0.375202 0.124962 -0.000009 F F F Ti
0.875022 0.124888 -0.000106 F F F Ti
0.268531 0.373398 0.438073 T T T Sn

0.000000 0.000000 0.000000
0.000000 0.000000 0.000000
0.000000 0.000000 0.000000
0.000000 0.000000 0.000000
0.000000 0.000000 0.000000
0.000000 0.000000 0.000000
0.000000 0.000000 0.000000
0.000000 0.000000 0.000000
0.000000 0.000000 0.000000
0.000000 0.000000 0.000000
0.000000 0.000000 0.000000
0.000000 0.000000 0.000000
0.000000 0.000000 0.000000
0.000000 0.000000 0.000000
0.000000 0.000000 0.000000
0.000000 0.000000 0.000000
0.000000 0.000000 0.000000
0.000000 0.000000 0.000000
0.000000 0.000000 0.000000
0.000000 0.000000 0.000000
0.000000 0.000000 0.000000
0.000000 0.000000 0.000000
0.000000 0.000000 0.000000
0.000000 0.000000 0.000000
0.000000 0.000000 0.000000
0.000000 0.000000 0.000000
0.000000 0.000000 0.000000
0.000000 0.000000 0.000000
0.000000 0.000000 0.000000
0.000000 0.000000 0.000000
0.000000 0.000000 0.000000
0.000000 0.000000 0.000000
0.000000 0.000000 0.000000
0.000000 0.000000 0.000000
0.000000 0.000000 0.000000
0.000000 0.000000 0.000000
0.000000 0.000000 0.000000
0.000000 0.000000 0.000000
0.000000 0.000000 0.000000
0.000000 0.000000 0.000000
0.000000 0.000000 0.000000
0.000000 0.000000 0.000000
0.000000 0.000000 0.000000
0.000000 0.000000 0.000000
0.000000 0.000000 0.000000
0.000000 0.000000 0.000000
0.000000 0.000000 0.000000
0.000000 0.000000 0.000000
0.000000 0.000000 0.000000
0.000000 0.000000 0.000000
0.000000 0.000000 0.000000
0.000000 0.000000 0.000000
0.000000 0.000000 0.000000
0.000000 0.000000 0.000000
0.000000 0.000000 0.000000
0.000000 0.000000 0.000000
0.000000 0.000000 0.000000
0.000000 0.000000 0.000000
0.000000 0.000000 0.000000
0.000000 0.000000 0.000000
0.000000 0.000000 0.000000
0.000000 0.000000 0.000000
0.000000 0.000000 0.000000
0.000000 0.000000 0.000000
0.000000 0.000000 0.000000
0.000000 0.000000 0.000000
0.000000 0.000000 0.000000
