substance_top
1.0
   3.0750000000000002    0.0000000000000000    0.0000000000000002
   0.0000000000000026   16.0000000000000000    0.0000000000000010
   0.0000000000000000    0.0000000000000000   52.5109925000000004
Fe W
54 6
Selective dynamics
direct
   0.3530400000000000    0.0286600000000000    0.3579532704509442 T T T Fe
   0.3478800000000001    0.1409000000000000    0.4046490170605707 T T T Fe
   0.3467900000000000    0.0900100000000000    0.4834184099643518 F F F Fe
   0.3427100000000000    0.2531300000000000    0.4513546568368518 T T T Fe
   0.3457200000000000    0.0391300000000000    0.5621779097014783 F F F Fe
   0.3416299999999999    0.2022400000000000    0.5301240497406329 F F F Fe
   0.3375500000000000    0.3653700000000000    0.4980602966131331 F F F Fe
   0.3489500000000000    0.1917800000000000    0.3258895173234442 T T T Fe
   0.3437799999999999    0.3040200000000000    0.3725951570997253 T T T Fe
   0.3396900000000000    0.4671400000000000    0.3405412971388800 T T T Fe
   0.3386200000000000    0.4162500000000000    0.4192909037093520 T T T Fe
   0.3345300000000000    0.5793800000000000    0.3872370437485066 T T T Fe
   0.3304300000000000    0.7425000000000000    0.3551831837876613 T T T Fe
   0.3334500000000000    0.5284799999999999    0.4660064366522876 F F F Fe
   0.3293600000000000    0.6916099999999999    0.4339426835247878 T T T Fe
   0.3252700000000000    0.8547400000000001    0.4018789303972878 T T T Fe
   0.3405600000000000    0.1513600000000000    0.6088835494777594 F F F Fe
   0.3364600000000000    0.3144800000000000    0.5768197963502596 F F F Fe
   0.3323800000000000    0.4776000000000000    0.5447659363894142 F F F Fe
   0.3272200000000001    0.5898400000000000    0.5914715761656953 F F F Fe
   0.3282900000000000    0.6407200000000000    0.5127021832619142 F F F Fe
   0.3242000000000000    0.8038500000000000    0.4806483233010689 F F F Fe
   0.3200999999999999    0.9669700000000000    0.4485845701735689 T T T Fe
   0.3231200000000000    0.7529500000000000    0.5594078230381954 F F F Fe
   0.3190300000000000    0.9160800000000000    0.5273539630773499 F F F Fe
   0.3179600000000000    0.8652000000000000    0.6061134628144764 F F F Fe
   0.8304500000000001    0.1161200000000000    0.4440930725123887 T T T Fe
   0.8293800000000001    0.0652400000000000    0.5228525722495153 F F F Fe
   0.8252899999999999    0.2283500000000000    0.4907987122886698 F F F Fe
   0.8366900000000000    0.0547800000000000    0.3186279329989811 T T T Fe
   0.8315300000000000    0.1670100000000000    0.3653236796086078 T T T Fe
   0.8274300000000000    0.3301300000000000    0.3332698196477624 T T T Fe
   0.8263600000000000    0.2792400000000000    0.4120293193848887 T T T Fe
   0.8222699999999999    0.4423600000000000    0.3799754594240435 T T T Fe
   0.8181899999999999    0.6054900000000000    0.3479117062965436 T T T Fe
   0.8212000000000000    0.3914800000000000    0.4587349591611700 F F F Fe
   0.8171000000000000    0.5546000000000000    0.4266712060336700 T T T Fe
   0.8130200000000001    0.7177200000000000    0.3946173460728247 T T T Fe
   0.8089300000000000    0.8808500000000000    0.3625535929453247 T T T Fe
   0.8283100000000001    0.0143500000000000    0.6016219651532962 F F F Fe
   0.8242200000000000    0.1774700000000000    0.5695681051924509 F F F Fe
   0.8201200000000000    0.3405900000000000    0.5374944588982964 F F F Fe
   0.8149600000000001    0.4528200000000000    0.5842099918412321 F F F Fe
   0.8160300000000000    0.5037100000000000    0.5054405989374511 F F F Fe
   0.8119400000000000    0.6668300000000000    0.4733867389766058 F F F Fe
   0.8078600000000001    0.8299600000000000    0.4413130926824513 T T T Fe
   0.8030800000000000    0.0063900000000000    0.3967443769035598 T T T Fe
   0.8108699999999999    0.6159500000000000    0.5521363455470776 F F F Fe
   0.8067699999999999    0.7790700000000000    0.5200824855862323 F F F Fe
   0.8026899999999999    0.9421900000000000    0.4880286256253869 F F F Fe
   0.8057000000000000    0.7281800000000000    0.5988518784900134 F F F Fe
   0.8016100000000000    0.8913000000000000    0.5667881253625134 F F F Fe
   0.3238700000000000    0.9110900000000000    0.3234755846597263 T T T Fe
   0.8118499999999998    0.7695300000000000    0.3158182736690798 T T T Fe
   0.3310199999999999    0.7398700000000000    0.2813208015445528 T T T W
   0.8235800000000000    0.9073300000000000    0.2820034300437190 T T T W
   0.3457900000000000    0.4065500000000000    0.2813208015445528 T T T W
   0.8383500000000002    0.5740100000000000    0.2820034300437190 T T T W
   0.3605600000000000    0.0732200000000000    0.2813208015445528 T T T W
   0.8531199999999999    0.2406800000000000    0.2820034300437190 T T T W
