total_structure
1.0
   3.5062000000000002    0.0000000000000000    0.0000000000000002
   0.0000000000000019   12.0001999999999995    0.0000000000000007
   0.0000000000000000    0.0000000000000000   28.8249410620000006
Cr Fe N
24 36 24
Selective dynamics
direct
   0.1440500000000000    0.0017200000000000    0.4083435249939523 T T T Cr
   0.6440500000000000    0.3767200000000000    0.3299810661725612 T T T Cr
   0.6440500000000000    0.1267200000000000    0.3299810661725612 T T T Cr
   0.1440500000000000    0.2517200000000000    0.4083435249939523 T T T Cr
   0.1440500000000000    0.0017200000000000    0.2516186073511701 T T T Cr
   0.6440500000000000    0.3767200000000000    0.1732662040230193 F F F Cr
   0.6440500000000000    0.1267200000000000    0.1732662040230193 F F F Cr
   0.1440500000000000    0.2517200000000000    0.2516186073511701 T T T Cr
   0.1440500000000000    0.5017199999999999    0.4083435249939523 T T T Cr
   0.6440500000000000    0.8767200000000001    0.3299810661725612 T T T Cr
   0.6440500000000000    0.6267199999999999    0.3299810661725612 T T T Cr
   0.1440500000000000    0.7517199999999999    0.4083435249939523 T T T Cr
   0.1440500000000000    0.5017199999999999    0.2516186073511701 T T T Cr
   0.6440500000000000    0.8767200000000001    0.1732662040230193 F F F Cr
   0.6440500000000000    0.6267199999999999    0.1732662040230193 F F F Cr
   0.1440500000000000    0.7517199999999999    0.2516186073511702 T T T Cr
   0.1275900000000000    0.0033700000000000    0.0950244111205115 F F F Cr
   0.6275900000000000    0.3783700000000000    0.0166619522991204 F F F Cr
   0.6275900000000000    0.1283700000000000    0.0166619522991204 F F F Cr
   0.1275900000000000    0.2533700000000000    0.0950244111205114 F F F Cr
   0.1275900000000000    0.5033700000000000    0.0950244111205115 F F F Cr
   0.6275900000000000    0.8783700000000000    0.0166619522991204 F F F Cr
   0.6275900000000000    0.6283700000000000    0.0166619522991204 F F F Cr
   0.1275900000000000    0.7533699999999999    0.0950244111205115 F F F Cr
   0.1373800000000000    0.7201700000000000    0.7993124659107759 F F F Fe
   0.6373799999999998    0.5560300000000000    0.7863207686443525 F F F Fe
   0.6373799999999998    0.7408799999999999    0.7465915148520625 F F F Fe
   0.1373800000000000    0.5767400000000000    0.7336098730788794 F F F Fe
   0.1373800000000000    0.3919000000000000    0.7733391268711693 F F F Fe
   0.6373799999999999    0.2277600000000000    0.7603474296047460 F F F Fe
   0.6373799999999999    0.4126100000000000    0.7206181758124560 F F F Fe
   0.1373800000000000    0.2484800000000000    0.7076365340392730 F F F Fe
   0.1373800000000000    0.0636300000000000    0.7473657878315629 F F F Fe
   0.6373799999999999    0.8994900000000000    0.7343740905651397 F F F Fe
   0.6373799999999999    0.0843400000000000    0.6946448367728495 F F F Fe
   0.1373800000000000    0.9202099999999999    0.6816631949996665 F F F Fe
   0.1373800000000000    0.7615900000000000    0.6938705637933490 F F F Fe
   0.6373799999999999    0.5974600000000000    0.6808889220201660 F F F Fe
   0.6373799999999998    0.7823099999999999    0.6411596682278760 F F F Fe
   0.1373800000000000    0.6181700000000000    0.6281679709614526 F F F Fe
   0.1373800000000000    0.4333199999999999    0.6678972247537427 F F F Fe
   0.6373799999999999    0.2691900000000000    0.6549155829805595 F F F Fe
   0.6373799999999999    0.4540399999999999    0.6151863291882695 F F F Fe
   0.1373800000000000    0.2899000000000000    0.6021946319218461 F F F Fe
   0.1373800000000000    0.1050500000000000    0.6419238857141362 F F F Fe
   0.6373799999999998    0.9409200000000000    0.6289422439409531 F F F Fe
   0.6373799999999999    0.1257700000000000    0.5892129901486631 F F F Fe
   0.1373800000000000    0.9616299999999999    0.5762212928822397 T T T Fe
   0.1373800000000000    0.8030199999999998    0.5884387171691626 F F F Fe
   0.6373799999999999    0.6388900000000000    0.5754470199027393 T T T Fe
   0.6373799999999999    0.8237400000000000    0.5357177661104492 T T T Fe
   0.1373800000000000    0.6595999999999999    0.5227361243372661 T T T Fe
   0.1373800000000000    0.4747499999999999    0.5624653781295562 T T T Fe
   0.6373799999999998    0.3106200000000000    0.5494736808631328 T T T Fe
   0.6373799999999999    0.4954700000000000    0.5097444270708428 T T T Fe
   0.1373800000000000    0.3313300000000000    0.4967627852976597 T T T Fe
   0.1373800000000000    0.1464800000000000    0.5364920390899497 T T T Fe
   0.6373799999999998    0.9823499999999998    0.5235003418235263 T T T Fe
   0.6373799999999999    0.1672000000000000    0.4837710880312363 T T T Fe
   0.1373800000000000    0.0030600000000000    0.4707894462580532 T T T Fe
   0.6440500000000000    0.3767200000000000    0.4083435249939523 T T T N
   0.1440500000000000    0.0017200000000000    0.3299810661725612 T T T N
   0.1440500000000000    0.2517200000000000    0.3299810661725612 T T T N
   0.6440500000000000    0.1267200000000000    0.4083435249939523 T T T N
   0.6440500000000000    0.3767200000000000    0.2516186073511701 T T T N
   0.1440500000000000    0.0017200000000000    0.1732662040230193 F F F N
   0.1440500000000000    0.2517200000000000    0.1732662040230193 F F F N
   0.6440500000000000    0.1267200000000000    0.2516186073511701 T T T N
   0.6440500000000000    0.8767200000000001    0.4083435249939523 T T T N
   0.1440500000000000    0.5017199999999999    0.3299810661725612 T T T N
   0.1440500000000000    0.7517199999999999    0.3299810661725612 T T T N
   0.6440500000000000    0.6267199999999999    0.4083435249939523 T T T N
   0.6440500000000000    0.8767200000000001    0.2516186073511702 T T T N
   0.1440500000000000    0.5017199999999999    0.1732662040230193 F F F N
   0.1440500000000000    0.7517199999999999    0.1732662040230193 F F F N
   0.6440500000000000    0.6267199999999999    0.2516186073511702 T T T N
   0.6275900000000000    0.3783700000000000    0.0950244111205115 F F F N
   0.1275900000000000    0.0033700000000000    0.0166619522991204 F F F N
   0.1275900000000000    0.2533700000000000    0.0166619522991204 F F F N
   0.6275900000000000    0.1283700000000000    0.0950244111205114 F F F N
   0.6275900000000000    0.8783700000000000    0.0950244111205115 F F F N
   0.1275900000000000    0.5033700000000000    0.0166619522991204 F F F N
   0.1275900000000000    0.7533699999999999    0.0166619522991204 F F F N
   0.6275900000000000    0.6283700000000000    0.0950244111205115 F F F N
