total_structure
1.0
   3.5062000000000002    0.0000000000000000    0.0000000000000002
   0.0000000000000019   12.0001999999999995    0.0000000000000007
   0.0000000000000000    0.0000000000000000   28.8249410620000006
Cr Fe N
24 36 24
Selective dynamics
direct
   0.1485400000000000    0.0029600000000000    0.3910078546477341 T T T Cr
   0.6485400000000000    0.3779600000000000    0.3126554513195833 T T T Cr
   0.6485400000000000    0.1279600000000000    0.3126554513195833 T T T Cr
   0.1485400000000000    0.2529600000000000    0.3910078546477341 T T T Cr
   0.1485400000000000    0.0029600000000000    0.2342929924981922 F F F Cr
   0.6485400000000000    0.3779600000000000    0.1559305336768012 F F F Cr
   0.6485400000000000    0.1279600000000000    0.1559305336768012 F F F Cr
   0.1485400000000000    0.2529600000000000    0.2342929924981922 F F F Cr
   0.1485400000000000    0.5029600000000000    0.3910078546477341 T T T Cr
   0.6485400000000000    0.8779600000000000    0.3126554513195833 T T T Cr
   0.6485400000000000    0.6279599999999999    0.3126554513195833 T T T Cr
   0.1485400000000000    0.7529599999999999    0.3910078546477341 T T T Cr
   0.1485400000000000    0.5029600000000000    0.2342929924981922 F F F Cr
   0.6485400000000000    0.8779600000000000    0.1559305336768012 F F F Cr
   0.6485400000000000    0.6279599999999999    0.1559305336768012 F F F Cr
   0.1485400000000000    0.7529599999999999    0.2342929924981922 F F F Cr
   0.1320800000000000    0.0046100000000000    0.0776887407742933 F F F Cr
   0.6320800000000000    0.3796100000000000    0.9993363374461424 F F F Cr
   0.6320800000000000    0.1296100000000000    0.9993363374461424 F F F Cr
   0.1320800000000000    0.2546100000000000    0.0776887407742933 F F F Cr
   0.1320800000000000    0.5046100000000000    0.0776887407742933 F F F Cr
   0.6320800000000000    0.8796100000000000    0.9993363374461424 F F F Cr
   0.6320800000000000    0.6296100000000000    0.9993363374461424 F F F Cr
   0.1320800000000000    0.7546100000000000    0.0776887407742933 F F F Cr
   0.1418600000000000    0.7213999999999999    0.7819868510577981 F F F Fe
   0.6418599999999999    0.5572600000000000    0.7689951537913746 F F F Fe
   0.6418599999999999    0.7421100000000000    0.7292658999990845 F F F Fe
   0.1418600000000000    0.5779800000000000    0.7162742027326612 F F F Fe
   0.1418600000000000    0.3931299999999999    0.7560034565249513 F F F Fe
   0.6418600000000000    0.2289900000000000    0.7430218147517681 F F F Fe
   0.6418600000000000    0.4138399999999999    0.7032925609594781 F F F Fe
   0.1418600000000000    0.2497100000000000    0.6903008636930548 F F F Fe
   0.1418600000000000    0.0648600000000000    0.7300301174853447 F F F Fe
   0.6418600000000000    0.9007199999999999    0.7170484757121616 F F F Fe
   0.6418600000000000    0.0855700000000000    0.6773192219198717 F F F Fe
   0.1418600000000000    0.9214400000000000    0.6643275246534482 F F F Fe
   0.1418600000000000    0.7628300000000000    0.6765449489403712 F F F Fe
   0.6418600000000000    0.5986900000000001    0.6635532516739477 F F F Fe
   0.6418599999999999    0.7835399999999999    0.6238239978816579 F F F Fe
   0.1418600000000000    0.6194100000000000    0.6108423561084747 F F F Fe
   0.1418600000000000    0.4345600000000000    0.6505716099007647 F F F Fe
   0.6418600000000000    0.2704200000000000    0.6375799126343413 F F F Fe
   0.6418600000000000    0.4552700000000000    0.5978506588420514 F F F Fe
   0.1418600000000000    0.2911400000000000    0.5848690170688683 F F F Fe
   0.1418600000000000    0.1062900000000000    0.6245982708611583 F F F Fe
   0.6418599999999999    0.9421499999999999    0.6116065735947349 F F F Fe
   0.6418600000000000    0.1270000000000000    0.5718773198024448 T T T Fe
   0.1418600000000000    0.9628699999999999    0.5588956780292618 T T T Fe
   0.1418600000000000    0.8042500000000000    0.5711030468229444 T T T Fe
   0.6418600000000000    0.6401200000000000    0.5581214050497613 T T T Fe
   0.6418600000000000    0.8249700000000000    0.5183921512574713 T T T Fe
   0.1418600000000000    0.6608299999999999    0.5054004539910479 T T T Fe
   0.1418600000000000    0.4759800000000000    0.5451297077833380 T T T Fe
   0.6418599999999999    0.3118500000000000    0.5321480660101549 T T T Fe
   0.6418600000000000    0.4966999999999999    0.4924188122178649 T T T Fe
   0.1418600000000000    0.3325600000000000    0.4794271149514415 T T T Fe
   0.1418600000000000    0.1477100000000000    0.5191563687437315 T T T Fe
   0.6418599999999999    0.9835800000000000    0.5061747269705484 T T T Fe
   0.6418600000000000    0.1684300000000000    0.4664454731782584 T T T Fe
   0.1418600000000000    0.0042900000000000    0.4534537759118350 T T T Fe
   0.6485400000000000    0.3779600000000000    0.3910078546477341 T T T N
   0.1485400000000000    0.0029600000000000    0.3126554513195833 T T T N
   0.1485400000000000    0.2529600000000000    0.3126554513195833 T T T N
   0.6485400000000000    0.1279600000000000    0.3910078546477341 T T T N
   0.6485400000000000    0.3779600000000000    0.2342929924981922 F F F N
   0.1485400000000000    0.0029600000000000    0.1559305336768012 F F F N
   0.1485400000000000    0.2529600000000000    0.1559305336768012 F F F N
   0.6485400000000000    0.1279600000000000    0.2342929924981922 F F F N
   0.6485400000000000    0.8779600000000000    0.3910078546477341 T T T N
   0.1485400000000000    0.5029600000000000    0.3126554513195833 T T T N
   0.1485400000000000    0.7529599999999999    0.3126554513195833 T T T N
   0.6485400000000000    0.6279599999999999    0.3910078546477341 T T T N
   0.6485400000000000    0.8779600000000000    0.2342929924981922 F F F N
   0.1485400000000000    0.5029600000000000    0.1559305336768012 F F F N
   0.1485400000000000    0.7529599999999999    0.1559305336768012 F F F N
   0.6485400000000000    0.6279599999999999    0.2342929924981922 F F F N
   0.6320800000000000    0.3796100000000000    0.0776887407742933 F F F N
   0.1320800000000000    0.0046100000000000    0.9993363374461424 F F F N
   0.1320800000000000    0.2546100000000000    0.9993363374461424 F F F N
   0.6320800000000000    0.1296100000000000    0.0776887407742933 F F F N
   0.6320800000000000    0.8796100000000000    0.0776887407742933 F F F N
   0.1320800000000000    0.5046100000000000    0.9993363374461424 F F F N
   0.1320800000000000    0.7546100000000000    0.9993363374461424 F F F N
   0.6320800000000000    0.6296100000000000    0.0776887407742933 F F F N
