substance_top
1.0
   2.9630000000000001    0.0000000000000000    0.0000000000000002
   0.0000000000000025   15.3989999999999991    0.0000000000000009
   0.0000000000000000    0.0000000000000000   49.1920000000000002
Fe
52
Selective dynamics
direct
   0.3530400000000001    0.0451600000000000    0.3558200520409823 T T T Fe
   0.3478800000000001    0.1587300000000000    0.4034904049438934 T T T Fe
   0.3467900000000000    0.1101100000000000    0.4845503333875428 F F F Fe
   0.3427100000000000    0.2723000000000000    0.4511709221011547 F F F Fe
   0.3457200000000001    0.0614800000000000    0.5656102618311921 F F F Fe
   0.3416300000000000    0.2236700000000000    0.5322308505448041 F F F Fe
   0.3375500000000000    0.3858699999999999    0.4988412750040658 F F F Fe
   0.3489500000000000    0.2073600000000000    0.3224304765002440 T T T Fe
   0.3437800000000000    0.3209400000000000    0.3701109936575054 T T T Fe
   0.3396899999999999    0.4831299999999999    0.3367315823711173 T T T Fe
   0.3386200000000000    0.4344999999999999    0.4177813465604164 T T T Fe
   0.3345300000000000    0.5967000000000000    0.3844019352740283 T T T Fe
   0.3304300000000001    0.7588900000000000    0.3510225239876403 T T T Fe
   0.3334500000000000    0.5480600000000000    0.4654618637176778 F F F Fe
   0.3293600000000000    0.7102600000000000    0.4320824524312897 T T T Fe
   0.3252700000000000    0.8724700000000000    0.3986928768905514 T T T Fe
   0.3405600000000000    0.1750400000000000    0.6132806147341032 F F F Fe
   0.3364600000000000    0.3372400000000000    0.5799012034477152 F F F Fe
   0.3323800000000000    0.4994300000000000    0.5465217921613271 F F F Fe
   0.3272200000000001    0.6130100000000001    0.5941921450642382 F F F Fe
   0.3282900000000001    0.6616400000000000    0.5131322166205888 F F F Fe
   0.3242000000000000    0.8238400000000000    0.4797528053342007 F F F Fe
   0.3201000000000000    0.9860300000000000    0.4463733940478128 F F F Fe
   0.3231200000000000    0.7752000000000000    0.5608127337778502 F F F Fe
   0.3190300000000000    0.9374000000000000    0.5274333224914621 F F F Fe
   0.3179600000000001    0.8887699999999999    0.6084830866807611 F F F Fe
   0.8304500000000001    0.1350900000000000    0.4440762725646448 F F F Fe
   0.8293799999999999    0.0864600000000000    0.5251362010082942 F F F Fe
   0.8252900000000000    0.2486500000000000    0.4917567897219061 F F F Fe
   0.8366899999999999    0.0701500000000000    0.3153459912180843 T T T Fe
   0.8315300000000000    0.1837200000000000    0.3630163441209953 T T T Fe
   0.8274300000000000    0.3459199999999999    0.3296369328346073 T T T Fe
   0.8263600000000001    0.2972799999999999    0.4106968612782567 T T T Fe
   0.8222700000000002    0.4594800000000000    0.3773174499918687 T T T Fe
   0.8181899999999999    0.6216800000000000    0.3439278744511304 T T T Fe
   0.8212000000000000    0.4108500000000000    0.4583672141811677 F F F Fe
   0.8171000000000002    0.5730499999999999    0.4249878028947797 T T T Fe
   0.8130200000000000    0.7352500000000000    0.3916083916083917 T T T Fe
   0.8089300000000000    0.8974500000000000    0.3582188160676533 T T T Fe
   0.8283100000000000    0.0378300000000000    0.6061961294519435 F F F Fe
   0.8242200000000000    0.2000200000000000    0.5728167181655555 F F F Fe
   0.8201199999999998    0.3622300000000000    0.5394271426248172 F F F Fe
   0.8149600000000000    0.4757900000000000    0.5871076597820785 F F F Fe
   0.8160300000000000    0.5244200000000000    0.5060477313384291 F F F Fe
   0.8119400000000001    0.6866200000000000    0.4726683200520411 F F F Fe
   0.8078600000000001    0.8488200000000000    0.4392787445113028 T T T Fe
   0.8037600000000000    0.0110100000000000    0.4058993332249147 T T T Fe
   0.8108700000000001    0.6379899999999999    0.5537180842413402 F F F Fe
   0.8067700000000001    0.8001900000000000    0.5203386729549521 F F F Fe
   0.8026900000000000    0.9623800000000000    0.4869592616685641 F F F Fe
   0.8056999999999999    0.7515500000000001    0.6013986013986016 F F F Fe
   0.8016100000000000    0.9137599999999999    0.5680191901122134 F F F Fe
