Ti66 Cr1
1.0
6.309760 0.000000 0.000000
0.000000 9.464640 0.000000
0.000000 0.000000 18.918326
Ti Cr
66 1
Selective dynamics
direct
0.632065 0.040643 0.500090 F F F Ti
0.123918 0.040828 0.660357 F F F Ti
0.624661 0.041377 0.658994 F F F Ti
0.124887 0.041519 0.817545 F F F Ti
0.624758 0.041549 0.817420 F F F Ti
0.122889 0.380076 0.499622 F F F Ti
0.624610 0.375079 0.499776 F F F Ti
0.124822 0.374814 0.658852 F F F Ti
0.623573 0.375030 0.658893 F F F Ti
0.125034 0.374837 0.817385 F F F Ti
0.624768 0.374918 0.817366 F F F Ti
0.126001 0.709642 0.500345 F F F Ti
0.625713 0.707891 0.499997 F F F Ti
0.125006 0.707584 0.658992 F F F Ti
0.625969 0.706855 0.659187 F F F Ti
0.124943 0.708030 0.817412 F F F Ti
0.624949 0.707917 0.817447 F F F Ti
0.868957 0.211142 0.580847 F F F Ti
0.374909 0.208133 0.738109 F F F Ti
0.874363 0.208375 0.738342 F F F Ti
0.375042 0.208319 0.896570 F F F Ti
0.874834 0.208338 0.896597 F F F Ti
0.374741 0.540051 0.579285 F F F Ti
0.875032 0.541221 0.579407 F F F Ti
0.374719 0.541037 0.738043 F F F Ti
0.875287 0.541020 0.738108 F F F Ti
0.374960 0.541458 0.896567 F F F Ti
0.874979 0.541461 0.896573 F F F Ti
0.382033 0.869897 0.581490 F F F Ti
0.874380 0.873730 0.580263 F F F Ti
0.375418 0.874384 0.738449 F F F Ti
0.874425 0.874453 0.738352 F F F Ti
0.375043 0.874846 0.896637 F F F Ti
0.874834 0.874856 0.896625 F F F Ti
0.124994 0.626335 0.356973 F F F Ti
0.625182 0.625748 0.356768 F F F Ti
0.125032 0.625158 0.118929 F F F Ti
0.625062 0.625142 0.118931 F F F Ti
0.125459 0.126496 0.354669 F F F Ti
0.626539 0.125363 0.356552 F F F Ti
0.125072 0.125110 0.118817 F F F Ti
0.625035 0.125094 0.118780 F F F Ti
0.124994 0.375063 0.039662 F F F Ti
0.624937 0.375070 0.039654 F F F Ti
0.124992 0.875014 0.039680 F F F Ti
0.624947 0.874998 0.039675 F F F Ti
0.125006 0.376041 0.277151 F F F Ti
0.625128 0.375442 0.277258 F F F Ti
0.125270 0.875208 0.277281 F F F Ti
0.625936 0.875246 0.277316 F F F Ti
0.375188 0.875053 0.158475 F F F Ti
0.875046 0.875058 0.158471 F F F Ti
0.375142 0.375281 0.158437 F F F Ti
0.874973 0.375303 0.158422 F F F Ti
0.375532 0.376751 0.395950 F F F Ti
0.874085 0.376344 0.396006 F F F Ti
0.378247 0.873839 0.395638 F F F Ti
0.876889 0.875656 0.396526 F F F Ti
0.375085 0.625363 0.237846 F F F Ti
0.875140 0.625398 0.237888 F F F Ti
0.374983 0.625030 0.000038 F F F Ti
0.874983 0.625035 0.000041 F F F Ti
0.375928 0.125266 0.237462 F F F Ti
0.874610 0.125288 0.237440 F F F Ti
0.375017 0.124978 0.000022 F F F Ti
0.874978 0.124970 0.000036 F F F Ti
0.178453 0.059466 0.504765 T T T Cr

0.000000 0.000000 0.000000
0.000000 0.000000 0.000000
0.000000 0.000000 0.000000
0.000000 0.000000 0.000000
0.000000 0.000000 0.000000
0.000000 0.000000 0.000000
0.000000 0.000000 0.000000
0.000000 0.000000 0.000000
0.000000 0.000000 0.000000
0.000000 0.000000 0.000000
0.000000 0.000000 0.000000
0.000000 0.000000 0.000000
0.000000 0.000000 0.000000
0.000000 0.000000 0.000000
0.000000 0.000000 0.000000
0.000000 0.000000 0.000000
0.000000 0.000000 0.000000
0.000000 0.000000 0.000000
0.000000 0.000000 0.000000
0.000000 0.000000 0.000000
0.000000 0.000000 0.000000
0.000000 0.000000 0.000000
0.000000 0.000000 0.000000
0.000000 0.000000 0.000000
0.000000 0.000000 0.000000
0.000000 0.000000 0.000000
0.000000 0.000000 0.000000
0.000000 0.000000 0.000000
0.000000 0.000000 0.000000
0.000000 0.000000 0.000000
0.000000 0.000000 0.000000
0.000000 0.000000 0.000000
0.000000 0.000000 0.000000
0.000000 0.000000 0.000000
0.000000 0.000000 0.000000
0.000000 0.000000 0.000000
0.000000 0.000000 0.000000
0.000000 0.000000 0.000000
0.000000 0.000000 0.000000
0.000000 0.000000 0.000000
0.000000 0.000000 0.000000
0.000000 0.000000 0.000000
0.000000 0.000000 0.000000
0.000000 0.000000 0.000000
0.000000 0.000000 0.000000
0.000000 0.000000 0.000000
0.000000 0.000000 0.000000
0.000000 0.000000 0.000000
0.000000 0.000000 0.000000
0.000000 0.000000 0.000000
0.000000 0.000000 0.000000
0.000000 0.000000 0.000000
0.000000 0.000000 0.000000
0.000000 0.000000 0.000000
0.000000 0.000000 0.000000
0.000000 0.000000 0.000000
0.000000 0.000000 0.000000
0.000000 0.000000 0.000000
0.000000 0.000000 0.000000
0.000000 0.000000 0.000000
0.000000 0.000000 0.000000
0.000000 0.000000 0.000000
0.000000 0.000000 0.000000
0.000000 0.000000 0.000000
0.000000 0.000000 0.000000
0.000000 0.000000 0.000000
0.000000 0.000000 0.000000
