Zr1 Ti96
1.0
9.513020 0.000000 0.000000
0.000000 9.350860 0.000000
0.000000 0.000000 18.547230
Ti Zr
96 1
Selective dynamics
direct
0.147634 0.374025 0.401458 T T T Ti
0.657227 0.384298 0.404370 T T T Ti
0.164639 0.876964 0.400051 T T T Ti
0.599999 0.936962 0.404701 T T T Ti
0.157716 0.373508 0.237159 T T T Ti
0.659877 0.377930 0.231870 T T T Ti
0.163069 0.879608 0.233702 T T T Ti
0.660884 0.878895 0.236667 T T T Ti
0.166644 0.374943 0.077591 F F F Ti
0.666698 0.374987 0.077572 F F F Ti
0.166694 0.875020 0.077595 F F F Ti
0.666660 0.874997 0.077678 F F F Ti
0.401590 0.373196 0.321635 T T T Ti
0.899684 0.354760 0.315402 T T T Ti
0.405685 0.865239 0.312089 T T T Ti
0.920422 0.883845 0.318940 T T T Ti
0.416576 0.374999 0.155177 F F F Ti
0.916776 0.374781 0.155138 F F F Ti
0.416623 0.875070 0.155252 F F F Ti
0.916634 0.874926 0.155173 F F F Ti
0.416631 0.375010 -0.000037 F F F Ti
0.916676 0.374989 -0.000032 F F F Ti
0.416666 0.875001 0.000003 F F F Ti
0.916661 0.874981 -0.000012 F F F Ti
0.098410 0.126805 0.321634 T T T Ti
0.600316 0.145240 0.315400 T T T Ti
0.094315 0.634761 0.312088 T T T Ti
0.579578 0.616156 0.318939 T T T Ti
0.083427 0.125013 0.155176 F F F Ti
0.583220 0.125233 0.155135 F F F Ti
0.083378 0.624939 0.155253 F F F Ti
0.583362 0.625088 0.155173 F F F Ti
0.083373 0.124994 -0.000037 F F F Ti
0.583322 0.125015 -0.000032 F F F Ti
0.083338 0.625000 0.000004 F F F Ti
0.583338 0.625022 -0.000010 F F F Ti
0.352365 0.125975 0.401458 T T T Ti
0.842771 0.115702 0.404370 T T T Ti
0.335360 0.623036 0.400051 T T T Ti
0.900000 0.563038 0.404701 T T T Ti
0.342283 0.126493 0.237159 T T T Ti
0.840122 0.122072 0.231870 T T T Ti
0.336929 0.620394 0.233702 T T T Ti
0.839115 0.621108 0.236667 T T T Ti
0.333355 0.125065 0.077590 F F F Ti
0.833301 0.125023 0.077572 F F F Ti
0.333304 0.624988 0.077595 F F F Ti
0.833340 0.625010 0.077678 F F F Ti
0.374978 0.375011 0.823857 F F F Ti
0.875016 0.374972 0.823878 F F F Ti
0.375046 0.874998 0.823832 F F F Ti
0.874987 0.875006 0.823864 F F F Ti
0.125027 0.124984 0.823857 F F F Ti
0.624988 0.125024 0.823877 F F F Ti
0.124957 0.624995 0.823833 F F F Ti
0.625015 0.624988 0.823865 F F F Ti
0.124953 0.375002 0.910105 F F F Ti
0.625025 0.375029 0.910120 F F F Ti
0.124958 0.874975 0.910092 F F F Ti
0.625016 0.874976 0.910106 F F F Ti
0.375050 0.124994 0.910105 F F F Ti
0.874977 0.124968 0.910120 F F F Ti
0.375045 0.625019 0.910094 F F F Ti
0.874985 0.625021 0.910107 F F F Ti
0.393662 0.367435 0.649858 T T T Ti
0.891669 0.363168 0.662822 T T T Ti
0.389742 0.865966 0.662196 T T T Ti
0.890464 0.860356 0.648797 T T T Ti
0.106337 0.132563 0.649858 T T T Ti
0.608331 0.136829 0.662821 T T T Ti
0.110257 0.634030 0.662196 T T T Ti
0.609536 0.639641 0.648797 T T T Ti
0.141133 0.383574 0.572685 T T T Ti
0.651220 0.380273 0.578725 T T T Ti
0.155832 0.882665 0.577690 T T T Ti
0.629767 0.908698 0.576154 T T T Ti
0.358866 0.116425 0.572685 T T T Ti
0.848780 0.119727 0.578725 T T T Ti
0.344168 0.617334 0.577690 T T T Ti
0.870233 0.591301 0.576155 T T T Ti
0.385485 0.371869 0.485911 T T T Ti
0.903508 0.340592 0.491082 T T T Ti
0.394690 0.855858 0.490824 T T T Ti
0.929592 0.901110 0.491169 T T T Ti
0.114515 0.128131 0.485911 T T T Ti
0.596492 0.159407 0.491082 T T T Ti
0.105310 0.644142 0.490824 T T T Ti
0.570408 0.598890 0.491169 T T T Ti
0.124998 0.875044 0.737585 F F F Ti
0.625111 0.874985 0.737604 F F F Ti
0.374999 0.624943 0.737586 F F F Ti
0.874883 0.625001 0.737606 F F F Ti
0.124937 0.374836 0.737574 F F F Ti
0.624988 0.374929 0.737664 F F F Ti
0.375060 0.125155 0.737571 F F F Ti
0.875005 0.125054 0.737663 F F F Ti
0.750000 0.750000 0.436678 T T T Zr

0.000000 0.000000 0.000000
0.000000 0.000000 0.000000
0.000000 0.000000 0.000000
0.000000 0.000000 0.000000
0.000000 0.000000 0.000000
0.000000 0.000000 0.000000
0.000000 0.000000 0.000000
0.000000 0.000000 0.000000
0.000000 0.000000 0.000000
0.000000 0.000000 0.000000
0.000000 0.000000 0.000000
0.000000 0.000000 0.000000
0.000000 0.000000 0.000000
0.000000 0.000000 0.000000
0.000000 0.000000 0.000000
0.000000 0.000000 0.000000
0.000000 0.000000 0.000000
0.000000 0.000000 0.000000
0.000000 0.000000 0.000000
0.000000 0.000000 0.000000
0.000000 0.000000 0.000000
0.000000 0.000000 0.000000
0.000000 0.000000 0.000000
0.000000 0.000000 0.000000
0.000000 0.000000 0.000000
0.000000 0.000000 0.000000
0.000000 0.000000 0.000000
0.000000 0.000000 0.000000
0.000000 0.000000 0.000000
0.000000 0.000000 0.000000
0.000000 0.000000 0.000000
0.000000 0.000000 0.000000
0.000000 0.000000 0.000000
0.000000 0.000000 0.000000
0.000000 0.000000 0.000000
0.000000 0.000000 0.000000
0.000000 0.000000 0.000000
0.000000 0.000000 0.000000
0.000000 0.000000 0.000000
0.000000 0.000000 0.000000
0.000000 0.000000 0.000000
0.000000 0.000000 0.000000
0.000000 0.000000 0.000000
0.000000 0.000000 0.000000
0.000000 0.000000 0.000000
0.000000 0.000000 0.000000
0.000000 0.000000 0.000000
0.000000 0.000000 0.000000
0.000000 0.000000 0.000000
0.000000 0.000000 0.000000
0.000000 0.000000 0.000000
0.000000 0.000000 0.000000
0.000000 0.000000 0.000000
0.000000 0.000000 0.000000
0.000000 0.000000 0.000000
0.000000 0.000000 0.000000
0.000000 0.000000 0.000000
0.000000 0.000000 0.000000
0.000000 0.000000 0.000000
0.000000 0.000000 0.000000
0.000000 0.000000 0.000000
0.000000 0.000000 0.000000
0.000000 0.000000 0.000000
0.000000 0.000000 0.000000
0.000000 0.000000 0.000000
0.000000 0.000000 0.000000
0.000000 0.000000 0.000000
0.000000 0.000000 0.000000
0.000000 0.000000 0.000000
0.000000 0.000000 0.000000
0.000000 0.000000 0.000000
0.000000 0.000000 0.000000
0.000000 0.000000 0.000000
0.000000 0.000000 0.000000
0.000000 0.000000 0.000000
0.000000 0.000000 0.000000
0.000000 0.000000 0.000000
0.000000 0.000000 0.000000
0.000000 0.000000 0.000000
0.000000 0.000000 0.000000
0.000000 0.000000 0.000000
0.000000 0.000000 0.000000
0.000000 0.000000 0.000000
0.000000 0.000000 0.000000
0.000000 0.000000 0.000000
0.000000 0.000000 0.000000
0.000000 0.000000 0.000000
0.000000 0.000000 0.000000
0.000000 0.000000 0.000000
0.000000 0.000000 0.000000
0.000000 0.000000 0.000000
0.000000 0.000000 0.000000
0.000000 0.000000 0.000000
0.000000 0.000000 0.000000
0.000000 0.000000 0.000000
0.000000 0.000000 0.000000
0.000000 0.000000 0.000000
