total_Ti
1.0
6.391540 0.000000 0.000000
0.000000 9.587310 0.000000
0.000000 0.000000 31.750000
Ti
84
direct
0.125000 0.083333 0.559055 Ti
0.625000 0.083333 0.559055 Ti
0.125000 0.083333 0.653543 Ti
0.625000 0.083333 0.653543 Ti
0.125000 0.083333 0.748031 Ti
0.625000 0.083333 0.748031 Ti
0.125000 0.416667 0.559055 Ti
0.625000 0.416667 0.559055 Ti
0.125000 0.416667 0.653543 Ti
0.625000 0.416667 0.653543 Ti
0.125000 0.416667 0.748031 Ti
0.625000 0.416667 0.748031 Ti
0.125000 0.750000 0.559055 Ti
0.625000 0.750000 0.559055 Ti
0.125000 0.750000 0.653543 Ti
0.625000 0.750000 0.653543 Ti
0.125000 0.750000 0.748031 Ti
0.625000 0.750000 0.748031 Ti
0.375000 0.250000 0.606299 Ti
0.875000 0.250000 0.606299 Ti
0.375000 0.250000 0.700787 Ti
0.875000 0.250000 0.700787 Ti
0.375000 0.250000 0.795276 Ti
0.875000 0.250000 0.795276 Ti
0.375000 0.583333 0.606299 Ti
0.875000 0.583333 0.606299 Ti
0.375000 0.583333 0.700787 Ti
0.875000 0.583333 0.700787 Ti
0.375000 0.583333 0.795276 Ti
0.875000 0.583333 0.795276 Ti
0.375000 0.916667 0.606299 Ti
0.875000 0.916667 0.606299 Ti
0.375000 0.916667 0.700787 Ti
0.875000 0.916667 0.700787 Ti
0.375000 0.916667 0.795276 Ti
0.875000 0.916667 0.795276 Ti
0.125000 0.166667 0.283465 Ti
0.625000 0.166667 0.283465 Ti
0.125000 0.666667 0.283465 Ti
0.625000 0.666667 0.283465 Ti
0.125000 0.166667 -0.000000 Ti
0.625000 0.166667 -0.000000 Ti
0.125000 0.666667 -0.000000 Ti
0.625000 0.666667 -0.000000 Ti
0.125000 0.833333 0.070866 Ti
0.625000 0.833333 0.070866 Ti
0.125000 0.833333 0.354331 Ti
0.625000 0.833333 0.354331 Ti
0.125000 0.333333 0.070866 Ti
0.625000 0.333333 0.070866 Ti
0.125000 0.333333 0.354331 Ti
0.625000 0.333333 0.354331 Ti
0.375000 0.583333 0.354331 Ti
0.875000 0.583333 0.354331 Ti
0.374999 0.583333 0.070866 Ti
0.874999 0.583333 0.070866 Ti
0.375000 0.083333 0.070866 Ti
0.875000 0.083333 0.070866 Ti
0.375000 0.083333 0.354331 Ti
0.875000 0.083333 0.354331 Ti
0.375000 0.416667 0.283465 Ti
0.875000 0.416667 0.283465 Ti
0.375000 0.916667 0.283465 Ti
0.875000 0.916667 0.283465 Ti
0.375000 0.416667 -0.000000 Ti
0.875000 0.416667 -0.000000 Ti
0.375000 0.916667 -0.000000 Ti
0.875000 0.916667 -0.000000 Ti
0.375000 0.083333 0.212598 Ti
0.875000 0.083333 0.212598 Ti
0.125000 0.166667 0.141732 Ti
0.625000 0.166667 0.141732 Ti
0.125000 0.333333 0.212598 Ti
0.625000 0.333333 0.212598 Ti
0.375000 0.416667 0.141732 Ti
0.875000 0.416667 0.141732 Ti
0.374999 0.583333 0.212598 Ti
0.874999 0.583333 0.212598 Ti
0.125000 0.666667 0.141732 Ti
0.625000 0.666667 0.141732 Ti
0.125000 0.833333 0.212598 Ti
0.625000 0.833333 0.212598 Ti
0.375000 0.916667 0.141732 Ti
0.875000 0.916667 0.141732 Ti
