Ti72
1.0
8.805261 0.000000 0.000000
-4.402630 7.625579 0.000000
0.000000 0.000000 19.288801
Ti
72
direct
0.000000 0.000000 0.486911 Ti
1.000000 0.500000 0.486911 Ti
0.500000 0.000000 0.486911 Ti
0.500000 0.500000 0.486911 Ti
0.166667 0.333333 0.822455 Ti
0.166667 0.833333 0.822455 Ti
0.666667 0.333333 0.822455 Ti
0.666667 0.833333 0.822455 Ti
0.333333 0.166667 0.870390 Ti
0.333333 0.666667 0.870390 Ti
0.833333 0.166667 0.870390 Ti
0.833333 0.666667 0.870390 Ti
0.166667 0.333333 0.534846 Ti
0.166667 0.833333 0.534846 Ti
0.666667 0.333333 0.534846 Ti
0.666667 0.833333 0.534846 Ti
0.333333 0.166667 0.582781 Ti
0.333333 0.666667 0.582781 Ti
0.833333 0.166667 0.582781 Ti
0.833333 0.666667 0.582781 Ti
0.000000 0.000000 0.630716 Ti
1.000000 0.500000 0.630716 Ti
0.500000 0.000000 0.630716 Ti
0.500000 0.500000 0.630716 Ti
0.166667 0.333333 0.678651 Ti
0.166667 0.833333 0.678651 Ti
0.666667 0.333333 0.678651 Ti
0.666667 0.833333 0.678651 Ti
0.333333 0.166667 0.726586 Ti
0.333333 0.666667 0.726586 Ti
0.833333 0.166667 0.726586 Ti
0.833333 0.666667 0.726586 Ti
0.000000 0.000000 0.774520 Ti
1.000000 0.500000 0.774520 Ti
0.500000 0.000000 0.774520 Ti
0.500000 0.500000 0.774520 Ti
0.111111 0.888889 -0.000000 Ti
0.111111 0.888889 0.238201 Ti
0.111111 0.555556 -0.000000 Ti
0.222222 0.777778 0.119101 Ti
0.111111 0.555556 0.238201 Ti
0.444444 0.888889 -0.000000 Ti
0.111111 0.222222 -0.000000 Ti
0.222222 0.777778 0.357302 Ti
0.222222 0.444444 0.119101 Ti
0.444444 0.888889 0.238201 Ti
0.111111 0.222222 0.238201 Ti
0.444444 0.555556 -0.000000 Ti
0.222222 0.444444 0.357302 Ti
0.555556 0.777778 0.119101 Ti
0.222222 0.111111 0.119101 Ti
0.444444 0.555556 0.238201 Ti
0.777778 0.888889 -0.000000 Ti
0.444444 0.222222 -0.000000 Ti
0.555556 0.777778 0.357302 Ti
0.222222 0.111111 0.357302 Ti
0.555556 0.444444 0.119101 Ti
0.777778 0.888889 0.238201 Ti
0.444444 0.222222 0.238201 Ti
0.777778 0.555556 -0.000000 Ti
0.555556 0.444444 0.357302 Ti
0.888889 0.777778 0.119101 Ti
0.555556 0.111111 0.119101 Ti
0.777778 0.555556 0.238201 Ti
0.777778 0.222222 -0.000000 Ti
0.888889 0.777778 0.357302 Ti
0.555556 0.111111 0.357302 Ti
0.888889 0.444444 0.119101 Ti
0.777778 0.222222 0.238201 Ti
0.888889 0.444444 0.357302 Ti
0.888889 0.111111 0.119101 Ti
0.888889 0.111111 0.357302 Ti

0.000000 0.000000 0.000000
0.000000 0.000000 0.000000
0.000000 0.000000 0.000000
0.000000 0.000000 0.000000
0.000000 0.000000 0.000000
0.000000 0.000000 0.000000
0.000000 0.000000 0.000000
0.000000 0.000000 0.000000
0.000000 0.000000 0.000000
0.000000 0.000000 0.000000
0.000000 0.000000 0.000000
0.000000 0.000000 0.000000
0.000000 0.000000 0.000000
0.000000 0.000000 0.000000
0.000000 0.000000 0.000000
0.000000 0.000000 0.000000
0.000000 0.000000 0.000000
0.000000 0.000000 0.000000
0.000000 0.000000 0.000000
0.000000 0.000000 0.000000
0.000000 0.000000 0.000000
0.000000 0.000000 0.000000
0.000000 0.000000 0.000000
0.000000 0.000000 0.000000
0.000000 0.000000 0.000000
0.000000 0.000000 0.000000
0.000000 0.000000 0.000000
0.000000 0.000000 0.000000
0.000000 0.000000 0.000000
0.000000 0.000000 0.000000
0.000000 0.000000 0.000000
0.000000 0.000000 0.000000
0.000000 0.000000 0.000000
0.000000 0.000000 0.000000
0.000000 0.000000 0.000000
0.000000 0.000000 0.000000
0.000000 0.000000 0.000000
0.000000 0.000000 0.000000
0.000000 0.000000 0.000000
0.000000 0.000000 0.000000
0.000000 0.000000 0.000000
0.000000 0.000000 0.000000
0.000000 0.000000 0.000000
0.000000 0.000000 0.000000
0.000000 0.000000 0.000000
0.000000 0.000000 0.000000
0.000000 0.000000 0.000000
0.000000 0.000000 0.000000
0.000000 0.000000 0.000000
0.000000 0.000000 0.000000
0.000000 0.000000 0.000000
0.000000 0.000000 0.000000
0.000000 0.000000 0.000000
0.000000 0.000000 0.000000
0.000000 0.000000 0.000000
0.000000 0.000000 0.000000
0.000000 0.000000 0.000000
0.000000 0.000000 0.000000
0.000000 0.000000 0.000000
0.000000 0.000000 0.000000
0.000000 0.000000 0.000000
0.000000 0.000000 0.000000
0.000000 0.000000 0.000000
0.000000 0.000000 0.000000
0.000000 0.000000 0.000000
0.000000 0.000000 0.000000
0.000000 0.000000 0.000000
0.000000 0.000000 0.000000
0.000000 0.000000 0.000000
0.000000 0.000000 0.000000
0.000000 0.000000 0.000000
0.000000 0.000000 0.000000
