Ti36
1.0
8.805261 0.000000 0.000000
-4.402630 7.625579 0.000000
0.000000 0.000000 19.288801
Ti
36
direct
0.000000 0.000000 0.486911 Ti
1.000000 0.500000 0.486911 Ti
0.500000 0.000000 0.486911 Ti
0.500000 0.500000 0.486911 Ti
0.166667 0.333333 0.822455 Ti
0.166667 0.833333 0.822455 Ti
0.666667 0.333333 0.822455 Ti
0.666667 0.833333 0.822455 Ti
0.333333 0.166667 0.870390 Ti
0.333333 0.666667 0.870390 Ti
0.833333 0.166667 0.870390 Ti
0.833333 0.666667 0.870390 Ti
0.166667 0.333333 0.534846 Ti
0.166667 0.833333 0.534846 Ti
0.666667 0.333333 0.534846 Ti
0.666667 0.833333 0.534846 Ti
0.333333 0.166667 0.582781 Ti
0.333333 0.666667 0.582781 Ti
0.833333 0.166667 0.582781 Ti
0.833333 0.666667 0.582781 Ti
0.000000 0.000000 0.630716 Ti
1.000000 0.500000 0.630716 Ti
0.500000 0.000000 0.630716 Ti
0.500000 0.500000 0.630716 Ti
0.166667 0.333333 0.678651 Ti
0.166667 0.833333 0.678651 Ti
0.666667 0.333333 0.678651 Ti
0.666667 0.833333 0.678651 Ti
0.333333 0.166667 0.726586 Ti
0.333333 0.666667 0.726586 Ti
0.833333 0.166667 0.726586 Ti
0.833333 0.666667 0.726586 Ti
0.000000 0.000000 0.774520 Ti
1.000000 0.500000 0.774520 Ti
0.500000 0.000000 0.774520 Ti
0.500000 0.500000 0.774520 Ti

0.000000 0.000000 0.000000
0.000000 0.000000 0.000000
0.000000 0.000000 0.000000
0.000000 0.000000 0.000000
0.000000 0.000000 0.000000
0.000000 0.000000 0.000000
0.000000 0.000000 0.000000
0.000000 0.000000 0.000000
0.000000 0.000000 0.000000
0.000000 0.000000 0.000000
0.000000 0.000000 0.000000
0.000000 0.000000 0.000000
0.000000 0.000000 0.000000
0.000000 0.000000 0.000000
0.000000 0.000000 0.000000
0.000000 0.000000 0.000000
0.000000 0.000000 0.000000
0.000000 0.000000 0.000000
0.000000 0.000000 0.000000
0.000000 0.000000 0.000000
0.000000 0.000000 0.000000
0.000000 0.000000 0.000000
0.000000 0.000000 0.000000
0.000000 0.000000 0.000000
0.000000 0.000000 0.000000
0.000000 0.000000 0.000000
0.000000 0.000000 0.000000
0.000000 0.000000 0.000000
0.000000 0.000000 0.000000
0.000000 0.000000 0.000000
0.000000 0.000000 0.000000
0.000000 0.000000 0.000000
0.000000 0.000000 0.000000
0.000000 0.000000 0.000000
0.000000 0.000000 0.000000
0.000000 0.000000 0.000000
