total_Ti
1.0
4.756512 0.000000 0.000000
0.000000 4.675432 0.000000
0.000000 0.000000 22.211800
Ti
24
direct
0.333333 0.750000 0.324359 Ti
0.333333 0.750000 0.194615 Ti
0.333333 0.750000 0.064872 Ti
0.833334 0.750000 0.259487 Ti
0.833334 0.750000 0.129744 Ti
0.833334 0.750000 -0.000000 Ti
0.166666 0.250000 0.259487 Ti
0.166666 0.250000 0.129744 Ti
0.166666 0.250000 -0.000000 Ti
0.666667 0.250000 0.324359 Ti
0.666667 0.250000 0.194615 Ti
0.666667 0.250000 0.064872 Ti
0.666667 0.750000 0.842428 Ti
0.166667 0.250000 0.842428 Ti
0.166667 0.750000 0.770329 Ti
0.666667 0.250000 0.770329 Ti
0.666667 0.750000 0.698230 Ti
0.166667 0.250000 0.698230 Ti
0.166667 0.750000 0.626131 Ti
0.666667 0.250000 0.626131 Ti
0.666667 0.750000 0.554032 Ti
0.166667 0.250000 0.554032 Ti
0.166667 0.750000 0.481933 Ti
0.666667 0.250000 0.481933 Ti
