total_Ti
1.0
8.805261 0.000000 0.000000
-4.402631 7.625580 0.000000
0.000000 0.000000 35.883422
Ti
90
direct
0.055556 0.055556 0.556986 Ti
0.055556 0.555555 0.556986 Ti
0.555556 0.055556 0.556986 Ti
0.555556 0.555555 0.556986 Ti
0.222222 0.388889 0.737354 Ti
0.222222 0.888889 0.737354 Ti
0.722222 0.388889 0.737354 Ti
0.722222 0.888889 0.737354 Ti
0.388889 0.222222 0.763121 Ti
0.388889 0.722222 0.763121 Ti
0.888889 0.222222 0.763121 Ti
0.888889 0.722222 0.763121 Ti
0.222222 0.388889 0.582753 Ti
0.222222 0.888889 0.582753 Ti
0.722222 0.388889 0.582753 Ti
0.722222 0.888889 0.582753 Ti
0.388889 0.222222 0.608520 Ti
0.388889 0.722222 0.608520 Ti
0.888889 0.222222 0.608520 Ti
0.888889 0.722222 0.608520 Ti
0.055556 0.055556 0.634286 Ti
0.055556 0.555555 0.634286 Ti
0.555556 0.055556 0.634286 Ti
0.555556 0.555555 0.634286 Ti
0.222222 0.388889 0.660053 Ti
0.222222 0.888889 0.660053 Ti
0.722222 0.388889 0.660053 Ti
0.722222 0.888889 0.660053 Ti
0.388889 0.222222 0.685820 Ti
0.388889 0.722222 0.685820 Ti
0.888889 0.222222 0.685820 Ti
0.888889 0.722222 0.685820 Ti
0.055556 0.055556 0.711587 Ti
0.055556 0.555555 0.711587 Ti
0.555556 0.055556 0.711587 Ti
0.555556 0.555555 0.711587 Ti
0.166666 0.944444 -0.000000 Ti
0.166666 0.944444 0.256086 Ti
0.166666 0.611111 -0.000000 Ti
0.277778 0.833333 0.064021 Ti
0.166666 0.611111 0.256086 Ti
0.500000 0.944444 -0.000000 Ti
0.166666 0.277778 -0.000000 Ti
0.277778 0.833333 0.320107 Ti
0.277778 0.500000 0.064021 Ti
0.500000 0.944444 0.256086 Ti
0.166666 0.277778 0.256086 Ti
0.500000 0.611111 -0.000000 Ti
0.277778 0.500000 0.320107 Ti
0.611111 0.833333 0.064021 Ti
0.277778 0.166667 0.064021 Ti
0.500000 0.611111 0.256086 Ti
0.833333 0.944444 -0.000000 Ti
0.500000 0.277778 -0.000000 Ti
0.611111 0.833333 0.320107 Ti
0.277778 0.166667 0.320107 Ti
0.611111 0.500000 0.064021 Ti
0.833333 0.944444 0.256086 Ti
0.500000 0.277778 0.256086 Ti
0.833333 0.611111 -0.000000 Ti
0.611111 0.500000 0.320107 Ti
0.944444 0.833333 0.064021 Ti
0.611111 0.166667 0.064021 Ti
0.833333 0.611111 0.256086 Ti
0.833333 0.277778 -0.000000 Ti
0.944444 0.833333 0.320107 Ti
0.611111 0.166667 0.320107 Ti
0.944444 0.500000 0.064021 Ti
0.833333 0.277778 0.256086 Ti
0.944444 0.500000 0.320107 Ti
0.944444 0.166667 0.064021 Ti
0.944444 0.166667 0.320107 Ti
0.166666 0.944444 0.128043 Ti
0.166666 0.611111 0.128043 Ti
0.277778 0.833333 0.192064 Ti
0.500000 0.944444 0.128043 Ti
0.166666 0.277778 0.128043 Ti
0.277778 0.500000 0.192064 Ti
0.500000 0.611111 0.128043 Ti
0.611111 0.833333 0.192064 Ti
0.277778 0.166667 0.192064 Ti
0.833333 0.944444 0.128043 Ti
0.500000 0.277778 0.128043 Ti
0.611111 0.500000 0.192064 Ti
0.833333 0.611111 0.128043 Ti
0.944444 0.833333 0.192064 Ti
0.611111 0.166667 0.192064 Ti
0.833333 0.277778 0.128043 Ti
0.944444 0.500000 0.192064 Ti
0.944444 0.166667 0.192064 Ti
