Ti66 Sn1
1.0
6.309760 0.000000 0.000000
0.000000 9.464640 0.000000
0.000000 0.000000 18.918326
Ti Sn
66 1
Selective dynamics
direct
0.133242 0.018978 0.486416 T T T Ti
0.614812 0.015516 0.485246 T T T Ti
0.111957 0.052912 0.647647 T T T Ti
0.638225 0.051825 0.648579 T T T Ti
0.125677 0.041852 0.817147 F F F Ti
0.624936 0.041761 0.817247 F F F Ti
0.164992 0.371296 0.474231 T T T Ti
0.583845 0.383727 0.471473 T T T Ti
0.110387 0.376941 0.650625 T T T Ti
0.642565 0.378860 0.651636 T T T Ti
0.125269 0.374586 0.817534 F F F Ti
0.625527 0.374695 0.817665 F F F Ti
0.139180 0.712418 0.490300 T T T Ti
0.609329 0.712857 0.490260 T T T Ti
0.104942 0.685142 0.646784 T T T Ti
0.645594 0.685536 0.647004 T T T Ti
0.125483 0.708887 0.817534 F F F Ti
0.625201 0.708966 0.817541 F F F Ti
0.865521 0.216530 0.541930 T T T Ti
0.375541 0.207304 0.737981 F F F Ti
0.875603 0.206253 0.738319 F F F Ti
0.375198 0.209131 0.896535 F F F Ti
0.875104 0.208946 0.896569 F F F Ti
0.375544 0.522714 0.563593 T T T Ti
0.875593 0.512593 0.546160 T T T Ti
0.375361 0.540286 0.738691 F F F Ti
0.875800 0.540744 0.739148 F F F Ti
0.375158 0.542556 0.896668 F F F Ti
0.875207 0.542659 0.896785 F F F Ti
0.374727 0.858526 0.584614 T T T Ti
0.873051 0.879989 0.568412 T T T Ti
0.375022 0.874855 0.737840 F F F Ti
0.875776 0.875654 0.738034 F F F Ti
0.375038 0.876495 0.896566 F F F Ti
0.875071 0.876545 0.896567 F F F Ti
0.125328 0.635493 0.363540 T T T Ti
0.622743 0.636916 0.363099 T T T Ti
0.125355 0.631941 0.118227 F F F Ti
0.623606 0.631960 0.118189 F F F Ti
0.136120 0.142159 0.366276 T T T Ti
0.611054 0.142568 0.365754 T T T Ti
0.124530 0.131941 0.119099 F F F Ti
0.623611 0.131994 0.119094 F F F Ti
0.124427 0.379139 0.039605 F F F Ti
0.624678 0.379217 0.039636 F F F Ti
0.124745 0.879836 0.039597 F F F Ti
0.624069 0.879783 0.039607 F F F Ti
0.142674 0.387768 0.284333 T T T Ti
0.605606 0.388216 0.284028 T T T Ti
0.104072 0.886992 0.275903 T T T Ti
0.642992 0.887114 0.275774 T T T Ti
0.374188 0.884674 0.158316 F F F Ti
0.874310 0.883947 0.158024 F F F Ti
0.374344 0.383233 0.158021 F F F Ti
0.874720 0.383317 0.158168 F F F Ti
0.875466 0.378340 0.401202 T T T Ti
0.372162 0.878335 0.385439 T T T Ti
0.873115 0.886060 0.401136 T T T Ti
0.374520 0.646709 0.245376 T T T Ti
0.874305 0.625247 0.243768 T T T Ti
0.374585 0.628442 -0.000268 F F F Ti
0.874781 0.628619 -0.000170 F F F Ti
0.372948 0.133498 0.245409 T T T Ti
0.873056 0.147009 0.248695 T T T Ti
0.374547 0.128468 0.000219 F F F Ti
0.874213 0.128338 0.000284 F F F Ti
0.408652 0.204930 0.517716 T T T Sn

0.000000 0.000000 0.000000
0.000000 0.000000 0.000000
0.000000 0.000000 0.000000
0.000000 0.000000 0.000000
0.000000 0.000000 0.000000
0.000000 0.000000 0.000000
0.000000 0.000000 0.000000
0.000000 0.000000 0.000000
0.000000 0.000000 0.000000
0.000000 0.000000 0.000000
0.000000 0.000000 0.000000
0.000000 0.000000 0.000000
0.000000 0.000000 0.000000
0.000000 0.000000 0.000000
0.000000 0.000000 0.000000
0.000000 0.000000 0.000000
0.000000 0.000000 0.000000
0.000000 0.000000 0.000000
0.000000 0.000000 0.000000
0.000000 0.000000 0.000000
0.000000 0.000000 0.000000
0.000000 0.000000 0.000000
0.000000 0.000000 0.000000
0.000000 0.000000 0.000000
0.000000 0.000000 0.000000
0.000000 0.000000 0.000000
0.000000 0.000000 0.000000
0.000000 0.000000 0.000000
0.000000 0.000000 0.000000
0.000000 0.000000 0.000000
0.000000 0.000000 0.000000
0.000000 0.000000 0.000000
0.000000 0.000000 0.000000
0.000000 0.000000 0.000000
0.000000 0.000000 0.000000
0.000000 0.000000 0.000000
0.000000 0.000000 0.000000
0.000000 0.000000 0.000000
0.000000 0.000000 0.000000
0.000000 0.000000 0.000000
0.000000 0.000000 0.000000
0.000000 0.000000 0.000000
0.000000 0.000000 0.000000
0.000000 0.000000 0.000000
0.000000 0.000000 0.000000
0.000000 0.000000 0.000000
0.000000 0.000000 0.000000
0.000000 0.000000 0.000000
0.000000 0.000000 0.000000
0.000000 0.000000 0.000000
0.000000 0.000000 0.000000
0.000000 0.000000 0.000000
0.000000 0.000000 0.000000
0.000000 0.000000 0.000000
0.000000 0.000000 0.000000
0.000000 0.000000 0.000000
0.000000 0.000000 0.000000
0.000000 0.000000 0.000000
0.000000 0.000000 0.000000
0.000000 0.000000 0.000000
0.000000 0.000000 0.000000
0.000000 0.000000 0.000000
0.000000 0.000000 0.000000
0.000000 0.000000 0.000000
0.000000 0.000000 0.000000
0.000000 0.000000 0.000000
0.000000 0.000000 0.000000
