VASP @ Device Studio
# Basic setup:
 ISPIN = 1
 ICHARG = 2

#Basis Set 
 LSORBIT = .FALSE.
 LDAU = .FALSE.

# Accuracy controls:
 PREC = Normal
 LREAL= Auto
 ENCUT= 380

# Electronic loop controls:
 ALGO = Normal
 EDIFF = 5e-06
 NELM = 100
 ISMEAR = 1
 SIGMA = 0.05

# Relaxation control:
 ISIF = 2
 IBRION = -1
 NSW = 1

# Properties:
 LCHARG = .TRUE.
 LWAVE = .FALSE. 
 LELF = .FALSE.
 LVTOT = .FALSE.
 LVHAR = .FALSE.
 LORBIT = 0
 KPAR = 3
 NCORE = 12
 GGA = PS
 
 NGX=62
 NGY=60
 NGZ=118

