Ti67
1.0
6.309760 0.000000 0.000000
0.000000 9.464640 0.000000
0.000000 0.000000 18.918326
Ti
67
Selective dynamics
direct
0.630190 0.040266 0.499678 F F F Ti
0.124101 0.041176 0.659103 F F F Ti
0.625053 0.041432 0.658703 F F F Ti
0.124964 0.041651 0.817238 F F F Ti
0.624925 0.041657 0.817213 F F F Ti
0.122714 0.378159 0.499665 F F F Ti
0.625151 0.375308 0.499898 F F F Ti
0.124720 0.375109 0.658644 F F F Ti
0.624621 0.375075 0.658655 F F F Ti
0.124997 0.374989 0.817190 F F F Ti
0.624931 0.374997 0.817197 F F F Ti
0.124980 0.708564 0.500018 F F F Ti
0.625163 0.708097 0.499953 F F F Ti
0.124919 0.708169 0.658696 F F F Ti
0.625121 0.708130 0.658728 F F F Ti
0.124988 0.708283 0.817220 F F F Ti
0.624958 0.708276 0.817233 F F F Ti
0.872487 0.208995 0.579660 F F F Ti
0.374920 0.208297 0.737885 F F F Ti
0.874768 0.208388 0.737982 F F F Ti
0.374999 0.208336 0.896458 F F F Ti
0.874966 0.208342 0.896472 F F F Ti
0.375016 0.541704 0.579339 F F F Ti
0.874488 0.541985 0.579433 F F F Ti
0.374959 0.541616 0.737924 F F F Ti
0.874939 0.541629 0.737959 F F F Ti
0.374996 0.541638 0.896468 F F F Ti
0.874982 0.541640 0.896475 F F F Ti
0.376009 0.873642 0.579609 F F F Ti
0.875161 0.874642 0.579472 F F F Ti
0.375049 0.874881 0.737980 F F F Ti
0.874789 0.874835 0.738006 F F F Ti
0.375003 0.874983 0.896480 F F F Ti
0.874966 0.874981 0.896487 F F F Ti
0.125033 0.624853 0.356823 F F F Ti
0.624847 0.624901 0.356789 F F F Ti
0.125012 0.624988 0.118937 F F F Ti
0.624991 0.624990 0.118935 F F F Ti
0.124891 0.125069 0.356562 F F F Ti
0.625511 0.124955 0.356600 F F F Ti
0.125009 0.124989 0.118911 F F F Ti
0.624998 0.124987 0.118904 F F F Ti
0.125000 0.374998 0.039638 F F F Ti
0.624993 0.375000 0.039637 F F F Ti
0.125000 0.874987 0.039648 F F F Ti
0.624994 0.874984 0.039648 F F F Ti
0.124941 0.375030 0.277417 F F F Ti
0.625019 0.375020 0.277391 F F F Ti
0.125045 0.874954 0.277481 F F F Ti
0.625100 0.874921 0.277453 F F F Ti
0.375006 0.874974 0.158561 F F F Ti
0.875013 0.874968 0.158558 F F F Ti
0.375004 0.375001 0.158538 F F F Ti
0.875002 0.375009 0.158531 F F F Ti
0.375123 0.375502 0.396209 F F F Ti
0.874406 0.375165 0.396223 F F F Ti
0.375280 0.874774 0.396340 F F F Ti
0.875434 0.874805 0.396341 F F F Ti
0.374982 0.624949 0.237867 F F F Ti
0.875039 0.624958 0.237866 F F F Ti
0.374996 0.624982 0.000006 F F F Ti
0.875004 0.624985 0.000011 F F F Ti
0.375053 0.124985 0.237807 F F F Ti
0.875005 0.124981 0.237778 F F F Ti
0.375002 0.124992 0.000000 F F F Ti
0.874998 0.124990 0.000006 F F F Ti
0.274269 0.141746 0.525660 T T T Ti

0.000000 0.000000 0.000000
0.000000 0.000000 0.000000
0.000000 0.000000 0.000000
0.000000 0.000000 0.000000
0.000000 0.000000 0.000000
0.000000 0.000000 0.000000
0.000000 0.000000 0.000000
0.000000 0.000000 0.000000
0.000000 0.000000 0.000000
0.000000 0.000000 0.000000
0.000000 0.000000 0.000000
0.000000 0.000000 0.000000
0.000000 0.000000 0.000000
0.000000 0.000000 0.000000
0.000000 0.000000 0.000000
0.000000 0.000000 0.000000
0.000000 0.000000 0.000000
0.000000 0.000000 0.000000
0.000000 0.000000 0.000000
0.000000 0.000000 0.000000
0.000000 0.000000 0.000000
0.000000 0.000000 0.000000
0.000000 0.000000 0.000000
0.000000 0.000000 0.000000
0.000000 0.000000 0.000000
0.000000 0.000000 0.000000
0.000000 0.000000 0.000000
0.000000 0.000000 0.000000
0.000000 0.000000 0.000000
0.000000 0.000000 0.000000
0.000000 0.000000 0.000000
0.000000 0.000000 0.000000
0.000000 0.000000 0.000000
0.000000 0.000000 0.000000
0.000000 0.000000 0.000000
0.000000 0.000000 0.000000
0.000000 0.000000 0.000000
0.000000 0.000000 0.000000
0.000000 0.000000 0.000000
0.000000 0.000000 0.000000
0.000000 0.000000 0.000000
0.000000 0.000000 0.000000
0.000000 0.000000 0.000000
0.000000 0.000000 0.000000
0.000000 0.000000 0.000000
0.000000 0.000000 0.000000
0.000000 0.000000 0.000000
0.000000 0.000000 0.000000
0.000000 0.000000 0.000000
0.000000 0.000000 0.000000
0.000000 0.000000 0.000000
0.000000 0.000000 0.000000
0.000000 0.000000 0.000000
0.000000 0.000000 0.000000
0.000000 0.000000 0.000000
0.000000 0.000000 0.000000
0.000000 0.000000 0.000000
0.000000 0.000000 0.000000
0.000000 0.000000 0.000000
0.000000 0.000000 0.000000
0.000000 0.000000 0.000000
0.000000 0.000000 0.000000
0.000000 0.000000 0.000000
0.000000 0.000000 0.000000
0.000000 0.000000 0.000000
0.000000 0.000000 0.000000
0.000000 0.000000 0.000000
