Ti66 Mo1
1.0
6.309760 0.000000 0.000000
0.000000 9.464640 0.000000
0.000000 0.000000 18.918326
Ti Mo
66 1
Selective dynamics
direct
0.641967 0.037908 0.499088 F F F Ti
0.121967 0.040117 0.660307 F F F Ti
0.625193 0.040905 0.659037 F F F Ti
0.124794 0.041585 0.817493 F F F Ti
0.624600 0.041621 0.817417 F F F Ti
0.118825 0.384227 0.499067 F F F Ti
0.626231 0.376629 0.499602 F F F Ti
0.124024 0.375286 0.658772 F F F Ti
0.623418 0.375304 0.658902 F F F Ti
0.124957 0.374868 0.817322 F F F Ti
0.624600 0.374911 0.817362 F F F Ti
0.125192 0.709337 0.500140 F F F Ti
0.625785 0.707685 0.499846 F F F Ti
0.124884 0.707793 0.659073 F F F Ti
0.625428 0.707574 0.659222 F F F Ti
0.124929 0.708110 0.817479 F F F Ti
0.624760 0.708050 0.817538 F F F Ti
0.866857 0.210868 0.580545 F F F Ti
0.374511 0.208107 0.737884 F F F Ti
0.874058 0.208505 0.738304 F F F Ti
0.374932 0.208307 0.896531 F F F Ti
0.874821 0.208342 0.896598 F F F Ti
0.375076 0.541929 0.579492 F F F Ti
0.873414 0.542823 0.579840 F F F Ti
0.374710 0.541414 0.738147 F F F Ti
0.874785 0.541427 0.738281 F F F Ti
0.374922 0.541478 0.896604 F F F Ti
0.874910 0.541480 0.896630 F F F Ti
0.379152 0.870910 0.580376 F F F Ti
0.875610 0.873726 0.580050 F F F Ti
0.375111 0.874579 0.738321 F F F Ti
0.874181 0.874379 0.738458 F F F Ti
0.374964 0.874922 0.896644 F F F Ti
0.874821 0.874915 0.896677 F F F Ti
0.125190 0.624845 0.356807 F F F Ti
0.624687 0.624982 0.356663 F F F Ti
0.125057 0.624980 0.118947 F F F Ti
0.624983 0.624984 0.118938 F F F Ti
0.125110 0.125403 0.356214 F F F Ti
0.626891 0.124952 0.356245 F F F Ti
0.125091 0.124959 0.118889 F F F Ti
0.625015 0.124950 0.118864 F F F Ti
0.125018 0.374939 0.039695 F F F Ti
0.624905 0.374951 0.039687 F F F Ti
0.125016 0.874983 0.039743 F F F Ti
0.624909 0.874971 0.039735 F F F Ti
0.124914 0.375147 0.277221 F F F Ti
0.625052 0.375107 0.277104 F F F Ti
0.125377 0.874973 0.277445 F F F Ti
0.625454 0.874831 0.277343 F F F Ti
0.375069 0.874938 0.158555 F F F Ti
0.875100 0.874911 0.158537 F F F Ti
0.375024 0.375001 0.158459 F F F Ti
0.875045 0.375029 0.158426 F F F Ti
0.375462 0.376548 0.395847 F F F Ti
0.873331 0.375699 0.395705 F F F Ti
0.376325 0.874645 0.396255 F F F Ti
0.876870 0.874371 0.396114 F F F Ti
0.374981 0.624933 0.237827 F F F Ti
0.875167 0.624934 0.237820 F F F Ti
0.374968 0.624923 0.000071 F F F Ti
0.874995 0.624932 0.000090 F F F Ti
0.375279 0.124981 0.237713 F F F Ti
0.875184 0.124955 0.237600 F F F Ti
0.375001 0.124955 0.000031 F F F Ti
0.874985 0.124940 0.000065 F F F Ti
0.258556 0.129863 0.527028 T T T Mo

0.000000 0.000000 0.000000
0.000000 0.000000 0.000000
0.000000 0.000000 0.000000
0.000000 0.000000 0.000000
0.000000 0.000000 0.000000
0.000000 0.000000 0.000000
0.000000 0.000000 0.000000
0.000000 0.000000 0.000000
0.000000 0.000000 0.000000
0.000000 0.000000 0.000000
0.000000 0.000000 0.000000
0.000000 0.000000 0.000000
0.000000 0.000000 0.000000
0.000000 0.000000 0.000000
0.000000 0.000000 0.000000
0.000000 0.000000 0.000000
0.000000 0.000000 0.000000
0.000000 0.000000 0.000000
0.000000 0.000000 0.000000
0.000000 0.000000 0.000000
0.000000 0.000000 0.000000
0.000000 0.000000 0.000000
0.000000 0.000000 0.000000
0.000000 0.000000 0.000000
0.000000 0.000000 0.000000
0.000000 0.000000 0.000000
0.000000 0.000000 0.000000
0.000000 0.000000 0.000000
0.000000 0.000000 0.000000
0.000000 0.000000 0.000000
0.000000 0.000000 0.000000
0.000000 0.000000 0.000000
0.000000 0.000000 0.000000
0.000000 0.000000 0.000000
0.000000 0.000000 0.000000
0.000000 0.000000 0.000000
0.000000 0.000000 0.000000
0.000000 0.000000 0.000000
0.000000 0.000000 0.000000
0.000000 0.000000 0.000000
0.000000 0.000000 0.000000
0.000000 0.000000 0.000000
0.000000 0.000000 0.000000
0.000000 0.000000 0.000000
0.000000 0.000000 0.000000
0.000000 0.000000 0.000000
0.000000 0.000000 0.000000
0.000000 0.000000 0.000000
0.000000 0.000000 0.000000
0.000000 0.000000 0.000000
0.000000 0.000000 0.000000
0.000000 0.000000 0.000000
0.000000 0.000000 0.000000
0.000000 0.000000 0.000000
0.000000 0.000000 0.000000
0.000000 0.000000 0.000000
0.000000 0.000000 0.000000
0.000000 0.000000 0.000000
0.000000 0.000000 0.000000
0.000000 0.000000 0.000000
0.000000 0.000000 0.000000
0.000000 0.000000 0.000000
0.000000 0.000000 0.000000
0.000000 0.000000 0.000000
0.000000 0.000000 0.000000
0.000000 0.000000 0.000000
0.000000 0.000000 0.000000
