Ti96 Al1
1.0
9.513020 0.000000 0.000000
0.000000 9.350860 0.000000
0.000000 0.000000 18.547230
Ti Al
96 1
Selective dynamics
direct
0.141770 0.379162 0.400958 T T T Ti
0.651948 0.370700 0.395917 T T T Ti
0.166201 0.887427 0.395466 T T T Ti
0.647430 0.909377 0.406171 T T T Ti
0.163538 0.377638 0.236329 T T T Ti
0.659882 0.379468 0.235309 T T T Ti
0.157587 0.875477 0.235821 T T T Ti
0.661261 0.875843 0.234530 T T T Ti
0.166662 0.374997 0.077670 F F F Ti
0.666666 0.374987 0.077679 F F F Ti
0.166674 0.875012 0.077685 F F F Ti
0.666674 0.875015 0.077698 F F F Ti
0.407687 0.373854 0.318054 T T T Ti
0.909844 0.371249 0.311498 T T T Ti
0.412813 0.872476 0.316620 T T T Ti
0.899776 0.866390 0.324647 T T T Ti
0.416676 0.374993 0.155322 F F F Ti
0.916646 0.374992 0.155331 F F F Ti
0.416705 0.875038 0.155357 F F F Ti
0.916689 0.875035 0.155369 F F F Ti
0.416679 0.375012 -0.000004 F F F Ti
0.916654 0.375006 0.000004 F F F Ti
0.416685 0.875002 0.000001 F F F Ti
0.916658 0.875001 0.000008 F F F Ti
0.092313 0.126146 0.318052 T T T Ti
0.590156 0.128751 0.311497 T T T Ti
0.087187 0.627524 0.316619 T T T Ti
0.600224 0.633610 0.324646 T T T Ti
0.083325 0.125011 0.155322 F F F Ti
0.583353 0.125012 0.155330 F F F Ti
0.083295 0.624965 0.155357 F F F Ti
0.583311 0.624968 0.155369 F F F Ti
0.083322 0.124993 -0.000004 F F F Ti
0.583345 0.124998 0.000004 F F F Ti
0.083315 0.625002 0.000001 F F F Ti
0.583342 0.625004 0.000008 F F F Ti
0.358229 0.120838 0.400958 T T T Ti
0.848051 0.129300 0.395917 T T T Ti
0.333798 0.612573 0.395466 T T T Ti
0.852569 0.590623 0.406171 T T T Ti
0.336461 0.122363 0.236329 T T T Ti
0.840117 0.120532 0.235309 T T T Ti
0.342412 0.624524 0.235821 T T T Ti
0.838738 0.624158 0.234530 T T T Ti
0.333337 0.125007 0.077670 F F F Ti
0.833333 0.125017 0.077679 F F F Ti
0.333325 0.624992 0.077685 F F F Ti
0.833326 0.624989 0.077698 F F F Ti
0.374998 0.375021 0.823843 F F F Ti
0.875002 0.374980 0.823809 F F F Ti
0.375024 0.875038 0.823832 F F F Ti
0.874923 0.874964 0.823759 F F F Ti
0.125004 0.124979 0.823842 F F F Ti
0.625001 0.125019 0.823809 F F F Ti
0.124977 0.624962 0.823832 F F F Ti
0.625081 0.625035 0.823759 F F F Ti
0.124986 0.374994 0.910145 F F F Ti
0.625032 0.375016 0.910130 F F F Ti
0.124983 0.874996 0.910140 F F F Ti
0.625028 0.874993 0.910126 F F F Ti
0.375018 0.125008 0.910144 F F F Ti
0.874970 0.124985 0.910129 F F F Ti
0.375021 0.625003 0.910140 F F F Ti
0.874975 0.625008 0.910125 F F F Ti
0.394844 0.374824 0.645175 T T T Ti
0.885126 0.350012 0.660324 T T T Ti
0.375372 0.865699 0.669206 T T T Ti
0.889631 0.865435 0.652351 T T T Ti
0.105155 0.125174 0.645175 T T T Ti
0.614873 0.149985 0.660324 T T T Ti
0.124627 0.634299 0.669206 T T T Ti
0.610368 0.634563 0.652351 T T T Ti
0.141577 0.386692 0.574105 T T T Ti
0.657021 0.397537 0.571657 T T T Ti
0.151417 0.874251 0.572915 T T T Ti
0.590075 0.923236 0.581422 T T T Ti
0.358423 0.113307 0.574105 T T T Ti
0.842979 0.102463 0.571657 T T T Ti
0.348582 0.625749 0.572915 T T T Ti
0.909925 0.576763 0.581422 T T T Ti
0.382455 0.366068 0.488459 T T T Ti
0.900434 0.344107 0.490715 T T T Ti
0.397354 0.855141 0.480767 T T T Ti
0.934157 0.905229 0.475930 T T T Ti
0.117545 0.133932 0.488459 T T T Ti
0.599565 0.155893 0.490715 T T T Ti
0.102646 0.644858 0.480767 T T T Ti
0.565843 0.594771 0.475930 T T T Ti
0.125093 0.875081 0.737605 F F F Ti
0.625041 0.875146 0.737577 F F F Ti
0.374902 0.624909 0.737607 F F F Ti
0.874955 0.624844 0.737579 F F F Ti
0.125136 0.374936 0.737612 F F F Ti
0.624981 0.375310 0.737618 F F F Ti
0.374859 0.125055 0.737612 F F F Ti
0.875013 0.124678 0.737621 F F F Ti
0.750000 0.750000 0.523673 T T T Al

0.000000 0.000000 0.000000
0.000000 0.000000 0.000000
0.000000 0.000000 0.000000
0.000000 0.000000 0.000000
0.000000 0.000000 0.000000
0.000000 0.000000 0.000000
0.000000 0.000000 0.000000
0.000000 0.000000 0.000000
0.000000 0.000000 0.000000
0.000000 0.000000 0.000000
0.000000 0.000000 0.000000
0.000000 0.000000 0.000000
0.000000 0.000000 0.000000
0.000000 0.000000 0.000000
0.000000 0.000000 0.000000
0.000000 0.000000 0.000000
0.000000 0.000000 0.000000
0.000000 0.000000 0.000000
0.000000 0.000000 0.000000
0.000000 0.000000 0.000000
0.000000 0.000000 0.000000
0.000000 0.000000 0.000000
0.000000 0.000000 0.000000
0.000000 0.000000 0.000000
0.000000 0.000000 0.000000
0.000000 0.000000 0.000000
0.000000 0.000000 0.000000
0.000000 0.000000 0.000000
0.000000 0.000000 0.000000
0.000000 0.000000 0.000000
0.000000 0.000000 0.000000
0.000000 0.000000 0.000000
0.000000 0.000000 0.000000
0.000000 0.000000 0.000000
0.000000 0.000000 0.000000
0.000000 0.000000 0.000000
0.000000 0.000000 0.000000
0.000000 0.000000 0.000000
0.000000 0.000000 0.000000
0.000000 0.000000 0.000000
0.000000 0.000000 0.000000
0.000000 0.000000 0.000000
0.000000 0.000000 0.000000
0.000000 0.000000 0.000000
0.000000 0.000000 0.000000
0.000000 0.000000 0.000000
0.000000 0.000000 0.000000
0.000000 0.000000 0.000000
0.000000 0.000000 0.000000
0.000000 0.000000 0.000000
0.000000 0.000000 0.000000
0.000000 0.000000 0.000000
0.000000 0.000000 0.000000
0.000000 0.000000 0.000000
0.000000 0.000000 0.000000
0.000000 0.000000 0.000000
0.000000 0.000000 0.000000
0.000000 0.000000 0.000000
0.000000 0.000000 0.000000
0.000000 0.000000 0.000000
0.000000 0.000000 0.000000
0.000000 0.000000 0.000000
0.000000 0.000000 0.000000
0.000000 0.000000 0.000000
0.000000 0.000000 0.000000
0.000000 0.000000 0.000000
0.000000 0.000000 0.000000
0.000000 0.000000 0.000000
0.000000 0.000000 0.000000
0.000000 0.000000 0.000000
0.000000 0.000000 0.000000
0.000000 0.000000 0.000000
0.000000 0.000000 0.000000
0.000000 0.000000 0.000000
0.000000 0.000000 0.000000
0.000000 0.000000 0.000000
0.000000 0.000000 0.000000
0.000000 0.000000 0.000000
0.000000 0.000000 0.000000
0.000000 0.000000 0.000000
0.000000 0.000000 0.000000
0.000000 0.000000 0.000000
0.000000 0.000000 0.000000
0.000000 0.000000 0.000000
0.000000 0.000000 0.000000
0.000000 0.000000 0.000000
0.000000 0.000000 0.000000
0.000000 0.000000 0.000000
0.000000 0.000000 0.000000
0.000000 0.000000 0.000000
0.000000 0.000000 0.000000
0.000000 0.000000 0.000000
0.000000 0.000000 0.000000
0.000000 0.000000 0.000000
0.000000 0.000000 0.000000
0.000000 0.000000 0.000000
0.000000 0.000000 0.000000
