Ti96 Sn1
1.0
9.513020 0.000000 0.000000
0.000000 9.350860 0.000000
0.000000 0.000000 18.547230
Ti Sn
96 1
Selective dynamics
direct
0.136407 0.382715 0.401016 T T T Ti
0.648445 0.370630 0.396594 T T T Ti
0.167808 0.892302 0.393804 T T T Ti
0.646128 0.919404 0.403861 T T T Ti
0.163960 0.379198 0.235452 T T T Ti
0.660076 0.381588 0.234648 T T T Ti
0.157266 0.876089 0.235019 T T T Ti
0.660970 0.876310 0.234217 T T T Ti
0.166658 0.374996 0.077656 F F F Ti
0.666665 0.374991 0.077665 F F F Ti
0.166678 0.875004 0.077663 F F F Ti
0.666676 0.875007 0.077678 F F F Ti
0.405068 0.371548 0.317379 T T T Ti
0.909744 0.367388 0.309938 T T T Ti
0.412590 0.869969 0.316540 T T T Ti
0.900044 0.864896 0.324492 T T T Ti
0.416667 0.375005 0.155294 F F F Ti
0.916646 0.374996 0.155299 F F F Ti
0.416718 0.875022 0.155313 F F F Ti
0.916708 0.875016 0.155330 F F F Ti
0.416688 0.375019 -0.000020 F F F Ti
0.916650 0.375013 -0.000011 F F F Ti
0.416696 0.874991 -0.000019 F F F Ti
0.916650 0.874996 -0.000009 F F F Ti
0.094932 0.128452 0.317378 T T T Ti
0.590256 0.132613 0.309937 T T T Ti
0.087410 0.630031 0.316539 T T T Ti
0.599956 0.635105 0.324491 T T T Ti
0.083335 0.125000 0.155295 F F F Ti
0.583354 0.125009 0.155300 F F F Ti
0.083282 0.624983 0.155313 F F F Ti
0.583292 0.624988 0.155330 F F F Ti
0.083313 0.124988 -0.000020 F F F Ti
0.583350 0.124993 -0.000010 F F F Ti
0.083304 0.625016 -0.000019 F F F Ti
0.583351 0.625010 -0.000010 F F F Ti
0.363592 0.117285 0.401016 T T T Ti
0.851554 0.129370 0.396594 T T T Ti
0.332191 0.607698 0.393804 T T T Ti
0.853871 0.580596 0.403861 T T T Ti
0.336039 0.120803 0.235452 T T T Ti
0.839923 0.118413 0.234648 T T T Ti
0.342733 0.623912 0.235019 T T T Ti
0.839029 0.623690 0.234217 T T T Ti
0.333341 0.125010 0.077656 F F F Ti
0.833334 0.125014 0.077665 F F F Ti
0.333321 0.625002 0.077663 F F F Ti
0.833323 0.624998 0.077677 F F F Ti
0.374996 0.375030 0.823861 F F F Ti
0.874992 0.374984 0.823808 F F F Ti
0.375039 0.874968 0.823865 F F F Ti
0.874897 0.874952 0.823775 F F F Ti
0.125005 0.124968 0.823862 F F F Ti
0.625011 0.125016 0.823809 F F F Ti
0.124964 0.625029 0.823864 F F F Ti
0.625109 0.625047 0.823774 F F F Ti
0.124983 0.374993 0.910144 F F F Ti
0.625045 0.375015 0.910122 F F F Ti
0.124983 0.874986 0.910147 F F F Ti
0.625038 0.874973 0.910121 F F F Ti
0.375021 0.125009 0.910144 F F F Ti
0.874958 0.124985 0.910121 F F F Ti
0.375022 0.625013 0.910146 F F F Ti
0.874965 0.625028 0.910119 F F F Ti
0.396573 0.376579 0.645485 T T T Ti
0.882837 0.352111 0.661070 T T T Ti
0.374844 0.865651 0.669780 T T T Ti
0.889824 0.867155 0.653355 T T T Ti
0.103426 0.123420 0.645485 T T T Ti
0.617162 0.147886 0.661069 T T T Ti
0.125155 0.634346 0.669780 T T T Ti
0.610175 0.632843 0.653355 T T T Ti
0.141365 0.385721 0.576263 T T T Ti
0.656429 0.397097 0.570319 T T T Ti
0.153964 0.873994 0.573546 T T T Ti
0.583896 0.925260 0.581201 T T T Ti
0.358635 0.114278 0.576263 T T T Ti
0.843571 0.102902 0.570319 T T T Ti
0.346035 0.626006 0.573546 T T T Ti
0.916104 0.574739 0.581201 T T T Ti
0.376605 0.365301 0.488938 T T T Ti
0.902187 0.340821 0.491452 T T T Ti
0.392630 0.857031 0.480356 T T T Ti
0.945676 0.910063 0.475732 T T T Ti
0.123395 0.134699 0.488938 T T T Ti
0.597813 0.159179 0.491452 T T T Ti
0.107370 0.642969 0.480356 T T T Ti
0.554324 0.589937 0.475732 T T T Ti
0.125073 0.874973 0.737671 F F F Ti
0.625099 0.874998 0.737619 F F F Ti
0.374920 0.625013 0.737672 F F F Ti
0.874895 0.624989 0.737619 F F F Ti
0.125124 0.374886 0.737655 F F F Ti
0.624998 0.375404 0.737640 F F F Ti
0.374869 0.125102 0.737655 F F F Ti
0.874996 0.124581 0.737645 F F F Ti
0.750000 0.750000 0.517053 T T T Sn

0.000000 0.000000 0.000000
0.000000 0.000000 0.000000
0.000000 0.000000 0.000000
0.000000 0.000000 0.000000
0.000000 0.000000 0.000000
0.000000 0.000000 0.000000
0.000000 0.000000 0.000000
0.000000 0.000000 0.000000
0.000000 0.000000 0.000000
0.000000 0.000000 0.000000
0.000000 0.000000 0.000000
0.000000 0.000000 0.000000
0.000000 0.000000 0.000000
0.000000 0.000000 0.000000
0.000000 0.000000 0.000000
0.000000 0.000000 0.000000
0.000000 0.000000 0.000000
0.000000 0.000000 0.000000
0.000000 0.000000 0.000000
0.000000 0.000000 0.000000
0.000000 0.000000 0.000000
0.000000 0.000000 0.000000
0.000000 0.000000 0.000000
0.000000 0.000000 0.000000
0.000000 0.000000 0.000000
0.000000 0.000000 0.000000
0.000000 0.000000 0.000000
0.000000 0.000000 0.000000
0.000000 0.000000 0.000000
0.000000 0.000000 0.000000
0.000000 0.000000 0.000000
0.000000 0.000000 0.000000
0.000000 0.000000 0.000000
0.000000 0.000000 0.000000
0.000000 0.000000 0.000000
0.000000 0.000000 0.000000
0.000000 0.000000 0.000000
0.000000 0.000000 0.000000
0.000000 0.000000 0.000000
0.000000 0.000000 0.000000
0.000000 0.000000 0.000000
0.000000 0.000000 0.000000
0.000000 0.000000 0.000000
0.000000 0.000000 0.000000
0.000000 0.000000 0.000000
0.000000 0.000000 0.000000
0.000000 0.000000 0.000000
0.000000 0.000000 0.000000
0.000000 0.000000 0.000000
0.000000 0.000000 0.000000
0.000000 0.000000 0.000000
0.000000 0.000000 0.000000
0.000000 0.000000 0.000000
0.000000 0.000000 0.000000
0.000000 0.000000 0.000000
0.000000 0.000000 0.000000
0.000000 0.000000 0.000000
0.000000 0.000000 0.000000
0.000000 0.000000 0.000000
0.000000 0.000000 0.000000
0.000000 0.000000 0.000000
0.000000 0.000000 0.000000
0.000000 0.000000 0.000000
0.000000 0.000000 0.000000
0.000000 0.000000 0.000000
0.000000 0.000000 0.000000
0.000000 0.000000 0.000000
0.000000 0.000000 0.000000
0.000000 0.000000 0.000000
0.000000 0.000000 0.000000
0.000000 0.000000 0.000000
0.000000 0.000000 0.000000
0.000000 0.000000 0.000000
0.000000 0.000000 0.000000
0.000000 0.000000 0.000000
0.000000 0.000000 0.000000
0.000000 0.000000 0.000000
0.000000 0.000000 0.000000
0.000000 0.000000 0.000000
0.000000 0.000000 0.000000
0.000000 0.000000 0.000000
0.000000 0.000000 0.000000
0.000000 0.000000 0.000000
0.000000 0.000000 0.000000
0.000000 0.000000 0.000000
0.000000 0.000000 0.000000
0.000000 0.000000 0.000000
0.000000 0.000000 0.000000
0.000000 0.000000 0.000000
0.000000 0.000000 0.000000
0.000000 0.000000 0.000000
0.000000 0.000000 0.000000
0.000000 0.000000 0.000000
0.000000 0.000000 0.000000
0.000000 0.000000 0.000000
0.000000 0.000000 0.000000
0.000000 0.000000 0.000000
