beta_Ti
1.0
5.745590 0.000000 0.000000
0.000000 9.072750 0.000000
0.000000 0.000000 30.625032
Ti
32
direct
0.291667 0.625000 0.500671 Ti
0.291667 0.125000 0.500671 Ti
0.791667 0.625000 0.500671 Ti
0.791667 0.125000 0.500671 Ti
0.458333 0.625000 0.587360 Ti
0.458333 0.125000 0.587360 Ti
0.958333 0.625000 0.587360 Ti
0.958333 0.125000 0.587360 Ti
0.125000 0.625000 0.674048 Ti
0.125000 0.125000 0.674048 Ti
0.625000 0.625000 0.674048 Ti
0.625000 0.125000 0.674048 Ti
0.291667 0.625000 0.760736 Ti
0.291667 0.125000 0.760736 Ti
0.791667 0.625000 0.760736 Ti
0.791667 0.125000 0.760736 Ti
0.125000 0.875000 0.544015 Ti
0.125000 0.375000 0.544015 Ti
0.625000 0.875000 0.544015 Ti
0.625000 0.375000 0.544015 Ti
0.291667 0.875000 0.630704 Ti
0.291667 0.375000 0.630704 Ti
0.791667 0.875000 0.630704 Ti
0.791667 0.375000 0.630704 Ti
0.458333 0.875000 0.717392 Ti
0.458333 0.375000 0.717392 Ti
0.958333 0.875000 0.717392 Ti
0.958333 0.375000 0.717392 Ti
0.125000 0.875000 0.804080 Ti
0.125000 0.375000 0.804080 Ti
0.625000 0.875000 0.804080 Ti
0.625000 0.375000 0.804080 Ti
