alpha_Ti
1.0
5.745590 0.000000 0.000000
0.000000 9.072750 0.000000
0.000000 0.000000 30.625032
Ti
32
direct
0.041667 0.875000 0.304753 Ti
0.041667 0.375000 0.304753 Ti
0.541667 0.875000 0.304753 Ti
0.541667 0.375000 0.304753 Ti
0.291667 0.875000 0.221638 Ti
0.291667 0.375000 0.221638 Ti
0.791667 0.875000 0.221638 Ti
0.791667 0.375000 0.221638 Ti
0.041667 0.625000 0.249344 Ti
0.041667 0.125000 0.249344 Ti
0.541667 0.625000 0.249344 Ti
0.541667 0.125000 0.249344 Ti
0.041667 0.875000 0.138524 Ti
0.041667 0.375000 0.138524 Ti
0.541667 0.875000 0.138524 Ti
0.541667 0.375000 0.138524 Ti
0.291667 0.625000 0.166229 Ti
0.291667 0.125000 0.166229 Ti
0.791667 0.625000 0.166229 Ti
0.791667 0.125000 0.166229 Ti
0.291667 0.875000 0.055409 Ti
0.291667 0.375000 0.055409 Ti
0.791667 0.875000 0.055409 Ti
0.791667 0.375000 0.055409 Ti
0.041667 0.625000 0.083115 Ti
0.041667 0.125000 0.083115 Ti
0.541667 0.625000 0.083115 Ti
0.541667 0.125000 0.083115 Ti
0.791667 0.125000 0.000000 Ti
0.291667 0.125000 0.000000 Ti
0.791667 0.625000 -0.000000 Ti
0.291667 0.625000 -0.000000 Ti
