Ti66 Sn1
1.0
6.309760 0.000000 0.000000
0.000000 9.464640 0.000000
0.000000 0.000000 18.918326
Ti Sn
66 1
Selective dynamics
direct
0.123627 0.039775 0.501283 F F F Ti
0.626456 0.040808 0.500348 F F F Ti
0.124797 0.041311 0.658862 F F F Ti
0.624853 0.041325 0.658794 F F F Ti
0.124968 0.041565 0.817222 F F F Ti
0.624961 0.041569 0.817219 F F F Ti
0.119688 0.377048 0.501954 F F F Ti
0.624468 0.374817 0.500681 F F F Ti
0.124642 0.374977 0.658991 F F F Ti
0.624694 0.374914 0.658920 F F F Ti
0.124954 0.374992 0.817249 F F F Ti
0.624926 0.374986 0.817251 F F F Ti
0.125452 0.706730 0.499790 F F F Ti
0.623667 0.707379 0.499856 F F F Ti
0.124990 0.708096 0.658672 F F F Ti
0.624479 0.708212 0.658732 F F F Ti
0.124975 0.708310 0.817194 F F F Ti
0.624890 0.708326 0.817205 F F F Ti
0.374777 0.208042 0.579788 F F F Ti
0.873902 0.207980 0.579861 F F F Ti
0.374956 0.208197 0.738035 F F F Ti
0.874791 0.208198 0.738068 F F F Ti
0.375000 0.208305 0.896394 F F F Ti
0.874958 0.208313 0.896390 F F F Ti
0.374972 0.541541 0.579623 F F F Ti
0.873533 0.542184 0.579828 F F F Ti
0.374959 0.541637 0.738028 F F F Ti
0.874791 0.541696 0.738061 F F F Ti
0.374991 0.541683 0.896407 F F F Ti
0.874934 0.541688 0.896401 F F F Ti
0.375160 0.874381 0.579465 F F F Ti
0.874587 0.874022 0.579528 F F F Ti
0.374932 0.874855 0.737981 F F F Ti
0.874870 0.874800 0.737985 F F F Ti
0.375016 0.874978 0.896415 F F F Ti
0.874960 0.874972 0.896410 F F F Ti
0.124392 0.625577 0.356566 F F F Ti
0.623759 0.625226 0.356550 F F F Ti
0.124986 0.625350 0.118640 F F F Ti
0.624934 0.625256 0.118655 F F F Ti
0.639608 0.121922 0.355784 F F F Ti
0.125252 0.125066 0.118620 F F F Ti
0.625516 0.124930 0.118508 F F F Ti
0.125069 0.375081 0.039371 F F F Ti
0.624878 0.375075 0.039298 F F F Ti
0.125025 0.875092 0.039477 F F F Ti
0.625055 0.875018 0.039457 F F F Ti
0.119209 0.379227 0.274743 F F F Ti
0.626065 0.375163 0.276782 F F F Ti
0.125610 0.875497 0.277441 F F F Ti
0.625825 0.874450 0.277215 F F F Ti
0.375165 0.874904 0.158349 F F F Ti
0.875305 0.875110 0.158333 F F F Ti
0.375425 0.375253 0.158090 F F F Ti
0.873754 0.375362 0.157705 F F F Ti
0.866923 0.378735 0.396725 F F F Ti
0.376078 0.874485 0.396473 F F F Ti
0.876192 0.873992 0.396589 F F F Ti
0.375102 0.625442 0.237600 F F F Ti
0.873987 0.626053 0.237456 F F F Ti
0.374975 0.625142 -0.000129 F F F Ti
0.874933 0.625144 -0.000146 F F F Ti
0.377450 0.124569 0.236860 F F F Ti
0.876354 0.125124 0.237097 F F F Ti
0.375047 0.124929 -0.000140 F F F Ti
0.875052 0.124933 -0.000157 F F F Ti
0.255582 0.241944 0.380184 T T T Sn

0.000000 0.000000 0.000000
0.000000 0.000000 0.000000
0.000000 0.000000 0.000000
0.000000 0.000000 0.000000
0.000000 0.000000 0.000000
0.000000 0.000000 0.000000
0.000000 0.000000 0.000000
0.000000 0.000000 0.000000
0.000000 0.000000 0.000000
0.000000 0.000000 0.000000
0.000000 0.000000 0.000000
0.000000 0.000000 0.000000
0.000000 0.000000 0.000000
0.000000 0.000000 0.000000
0.000000 0.000000 0.000000
0.000000 0.000000 0.000000
0.000000 0.000000 0.000000
0.000000 0.000000 0.000000
0.000000 0.000000 0.000000
0.000000 0.000000 0.000000
0.000000 0.000000 0.000000
0.000000 0.000000 0.000000
0.000000 0.000000 0.000000
0.000000 0.000000 0.000000
0.000000 0.000000 0.000000
0.000000 0.000000 0.000000
0.000000 0.000000 0.000000
0.000000 0.000000 0.000000
0.000000 0.000000 0.000000
0.000000 0.000000 0.000000
0.000000 0.000000 0.000000
0.000000 0.000000 0.000000
0.000000 0.000000 0.000000
0.000000 0.000000 0.000000
0.000000 0.000000 0.000000
0.000000 0.000000 0.000000
0.000000 0.000000 0.000000
0.000000 0.000000 0.000000
0.000000 0.000000 0.000000
0.000000 0.000000 0.000000
0.000000 0.000000 0.000000
0.000000 0.000000 0.000000
0.000000 0.000000 0.000000
0.000000 0.000000 0.000000
0.000000 0.000000 0.000000
0.000000 0.000000 0.000000
0.000000 0.000000 0.000000
0.000000 0.000000 0.000000
0.000000 0.000000 0.000000
0.000000 0.000000 0.000000
0.000000 0.000000 0.000000
0.000000 0.000000 0.000000
0.000000 0.000000 0.000000
0.000000 0.000000 0.000000
0.000000 0.000000 0.000000
0.000000 0.000000 0.000000
0.000000 0.000000 0.000000
0.000000 0.000000 0.000000
0.000000 0.000000 0.000000
0.000000 0.000000 0.000000
0.000000 0.000000 0.000000
0.000000 0.000000 0.000000
0.000000 0.000000 0.000000
0.000000 0.000000 0.000000
0.000000 0.000000 0.000000
0.000000 0.000000 0.000000
0.000000 0.000000 0.000000
