beta_Ti
1.0
4.756510 0.000000 0.000000
0.000000 4.675430 0.000000
0.000000 0.000000 21.411761
Ti
12
direct
0.750000 0.750000 0.855223 Ti
0.250000 0.250000 0.855223 Ti
0.250000 0.750000 0.780430 Ti
0.750000 0.250000 0.780430 Ti
0.750000 0.750000 0.705637 Ti
0.250000 0.250000 0.705637 Ti
0.250000 0.750000 0.630844 Ti
0.750000 0.250000 0.630844 Ti
0.750000 0.750000 0.556051 Ti
0.250000 0.250000 0.556051 Ti
0.250000 0.750000 0.481258 Ti
0.750000 0.250000 0.481258 Ti
