beta_Ti
1.0
5.745590 0.000000 0.000000
0.000000 9.072750 0.000000
0.000000 0.000000 33.667173
Ti
28
direct
0.458333 0.625000 0.579466 Ti
0.458333 0.125000 0.579466 Ti
0.958333 0.625000 0.579466 Ti
0.958333 0.125000 0.579466 Ti
0.125000 0.625000 0.658321 Ti
0.125000 0.125000 0.658321 Ti
0.625000 0.625000 0.658321 Ti
0.625000 0.125000 0.658321 Ti
0.291667 0.625000 0.737176 Ti
0.291667 0.125000 0.737177 Ti
0.791667 0.625000 0.737176 Ti
0.791667 0.125000 0.737177 Ti
0.125000 0.875000 0.540038 Ti
0.125000 0.375000 0.540038 Ti
0.625000 0.875000 0.540038 Ti
0.625000 0.375000 0.540038 Ti
0.291667 0.875000 0.618893 Ti
0.291667 0.375000 0.618893 Ti
0.791667 0.875000 0.618893 Ti
0.791667 0.375000 0.618893 Ti
0.458333 0.875000 0.697749 Ti
0.458333 0.375000 0.697749 Ti
0.958333 0.875000 0.697749 Ti
0.958333 0.375000 0.697749 Ti
0.125000 0.875000 0.776604 Ti
0.125000 0.375000 0.776604 Ti
0.625000 0.875000 0.776604 Ti
0.625000 0.375000 0.776604 Ti
