alpha_Ti
1.0
9.445957 0.000000 0.000000
0.000000 9.093951 0.000000
0.000000 0.000000 18.431864
Ti
48
direct
0.166666 0.375000 0.390877 Ti
0.666666 0.375000 0.390877 Ti
0.166666 0.875000 0.390877 Ti
0.666666 0.875000 0.390877 Ti
0.166666 0.375000 0.234527 Ti
0.666666 0.375000 0.234527 Ti
0.166666 0.875000 0.234527 Ti
0.666666 0.875000 0.234527 Ti
0.166666 0.375000 0.078176 Ti
0.666666 0.375000 0.078176 Ti
0.166666 0.875000 0.078176 Ti
0.666666 0.875000 0.078176 Ti
0.416667 0.375000 0.312702 Ti
0.916667 0.375000 0.312702 Ti
0.416667 0.875000 0.312702 Ti
0.916667 0.875000 0.312702 Ti
0.416667 0.375000 0.156351 Ti
0.916667 0.375000 0.156351 Ti
0.416667 0.875000 0.156351 Ti
0.916667 0.875000 0.156351 Ti
0.416667 0.375000 -0.000000 Ti
0.916667 0.375000 -0.000000 Ti
0.416667 0.875000 -0.000000 Ti
0.916667 0.875000 -0.000000 Ti
0.083333 0.125000 0.312701 Ti
0.583333 0.125000 0.312701 Ti
0.083333 0.625000 0.312701 Ti
0.583333 0.625000 0.312701 Ti
0.083333 0.125000 0.156351 Ti
0.583333 0.125000 0.156351 Ti
0.083333 0.625000 0.156351 Ti
0.583333 0.625000 0.156351 Ti
0.083333 0.125000 -0.000000 Ti
0.583333 0.125000 -0.000000 Ti
0.083333 0.625000 -0.000000 Ti
0.583333 0.625000 -0.000000 Ti
0.333333 0.125000 0.390877 Ti
0.833333 0.125000 0.390877 Ti
0.333333 0.625000 0.390877 Ti
0.833333 0.625000 0.390877 Ti
0.333333 0.125000 0.234527 Ti
0.833333 0.125000 0.234527 Ti
0.333333 0.625000 0.234527 Ti
0.833333 0.625000 0.234527 Ti
0.333333 0.125000 0.078176 Ti
0.833333 0.125000 0.078176 Ti
0.333333 0.625000 0.078176 Ti
0.833333 0.625000 0.078176 Ti
