beta_Ti
1.0
9.445957 0.000000 0.000000
0.000000 9.093951 0.000000
0.000000 0.000000 23.211864
Ti
48
direct
0.375000 0.375000 0.758680 Ti
0.875000 0.375000 0.758680 Ti
0.375000 0.875000 0.758680 Ti
0.875000 0.875000 0.758680 Ti
0.125000 0.125000 0.758680 Ti
0.625000 0.125000 0.758680 Ti
0.125000 0.625000 0.758680 Ti
0.625000 0.625000 0.758680 Ti
0.125000 0.375000 0.827674 Ti
0.625000 0.375000 0.827674 Ti
0.125000 0.875000 0.827674 Ti
0.625000 0.875000 0.827674 Ti
0.375000 0.125000 0.827674 Ti
0.875000 0.125000 0.827674 Ti
0.375000 0.625000 0.827674 Ti
0.875000 0.625000 0.827674 Ti
0.375000 0.375000 0.620695 Ti
0.875000 0.375000 0.620695 Ti
0.375000 0.875000 0.620695 Ti
0.875000 0.875000 0.620695 Ti
0.125000 0.125000 0.620695 Ti
0.625000 0.125000 0.620695 Ti
0.125000 0.625000 0.620695 Ti
0.625000 0.625000 0.620695 Ti
0.125000 0.375000 0.551703 Ti
0.625000 0.375000 0.551703 Ti
0.125000 0.875000 0.551703 Ti
0.625000 0.875000 0.551703 Ti
0.375000 0.125000 0.551703 Ti
0.875000 0.125000 0.551703 Ti
0.375000 0.625000 0.551703 Ti
0.875000 0.625000 0.551703 Ti
0.375000 0.375000 0.482710 Ti
0.875000 0.375000 0.482710 Ti
0.375000 0.875000 0.482710 Ti
0.875000 0.875000 0.482710 Ti
0.125000 0.125000 0.482710 Ti
0.625000 0.125000 0.482710 Ti
0.125000 0.625000 0.482710 Ti
0.625000 0.625000 0.482710 Ti
0.125000 0.875000 0.689688 Ti
0.625000 0.875000 0.689688 Ti
0.375000 0.625000 0.689688 Ti
0.875000 0.625000 0.689688 Ti
0.125000 0.375000 0.689688 Ti
0.625000 0.375000 0.689688 Ti
0.375000 0.125000 0.689688 Ti
0.875000 0.125000 0.689688 Ti
