alpha_Ti
1.0
4.756510 0.000000 0.000000
0.000000 4.675430 0.000000
0.000000 0.000000 33.211761
Ti
12
direct
0.333333 0.750000 0.216929 Ti
0.333333 0.750000 0.130158 Ti
0.333333 0.750000 0.043386 Ti
0.833334 0.750000 0.173544 Ti
0.833334 0.750000 0.086772 Ti
0.833334 0.750000 -0.000000 Ti
0.166666 0.250000 0.173543 Ti
0.166666 0.250000 0.086772 Ti
0.166666 0.250000 -0.000000 Ti
0.666667 0.250000 0.216929 Ti
0.666667 0.250000 0.130158 Ti
0.666667 0.250000 0.043386 Ti
