beta_Ti
1.0
8.805261 0.000000 0.000000
-4.402630 7.625580 0.000000
0.000000 0.000000 29.288801
Ti
36
direct
0.055556 0.944452 0.491380 Ti
0.055556 0.444452 0.491380 Ti
0.555556 0.944452 0.491380 Ti
0.555556 0.444452 0.491380 Ti
0.222223 0.277785 0.712360 Ti
0.222223 0.777785 0.712360 Ti
0.722223 0.277785 0.712360 Ti
0.722223 0.777785 0.712360 Ti
0.388889 0.111119 0.743929 Ti
0.388889 0.611119 0.743929 Ti
0.888889 0.111119 0.743929 Ti
0.888889 0.611119 0.743929 Ti
0.222223 0.277785 0.522949 Ti
0.222223 0.777785 0.522949 Ti
0.722223 0.277785 0.522949 Ti
0.722223 0.777785 0.522949 Ti
0.388889 0.111119 0.554517 Ti
0.388889 0.611119 0.554517 Ti
0.888889 0.111119 0.554517 Ti
0.888889 0.611119 0.554517 Ti
0.055556 0.944452 0.586086 Ti
0.055556 0.444452 0.586086 Ti
0.555556 0.944452 0.586086 Ti
0.555556 0.444452 0.586086 Ti
0.222223 0.277785 0.617654 Ti
0.222223 0.777785 0.617654 Ti
0.722223 0.277785 0.617654 Ti
0.722223 0.777785 0.617654 Ti
0.388889 0.111119 0.649223 Ti
0.388889 0.611119 0.649223 Ti
0.888889 0.111119 0.649223 Ti
0.888889 0.611119 0.649223 Ti
0.055556 0.944452 0.680792 Ti
0.055556 0.444452 0.680792 Ti
0.555556 0.944452 0.680792 Ti
0.555556 0.444452 0.680792 Ti
