Ti82 Nb1
1.0
6.391540 0.000000 0.000000
0.000000 9.587310 0.000000
0.000000 0.000000 23.271695
Ti Nb
82 1
Selective dynamics
direct
0.631073 0.083329 0.581109 F F F Ti
0.125286 0.083332 0.709468 F F F Ti
0.625482 0.083326 0.709625 F F F Ti
0.125020 0.083331 0.838409 F F F Ti
0.625057 0.083331 0.838435 F F F Ti
0.124971 0.417413 0.580614 F F F Ti
0.625596 0.416958 0.580602 F F F Ti
0.125118 0.416743 0.709557 F F F Ti
0.625327 0.416827 0.709602 F F F Ti
0.125023 0.416665 0.838430 F F F Ti
0.625042 0.416675 0.838441 F F F Ti
0.124919 0.749258 0.580605 F F F Ti
0.625508 0.749702 0.580599 F F F Ti
0.125101 0.749910 0.709547 F F F Ti
0.625293 0.749851 0.709591 F F F Ti
0.125016 0.750002 0.838427 F F F Ti
0.625037 0.749996 0.838439 F F F Ti
0.376333 0.250636 0.645375 F F F Ti
0.875625 0.250380 0.645166 F F F Ti
0.375073 0.250012 0.774002 F F F Ti
0.875136 0.250010 0.773989 F F F Ti
0.375003 0.249994 0.902868 F F F Ti
0.875023 0.249994 0.902869 F F F Ti
0.375237 0.583272 0.645093 F F F Ti
0.875004 0.583268 0.645127 F F F Ti
0.375036 0.583324 0.773997 F F F Ti
0.875097 0.583321 0.774009 F F F Ti
0.374999 0.583330 0.902872 F F F Ti
0.875018 0.583331 0.902875 F F F Ti
0.376259 0.916068 0.645344 F F F Ti
0.875674 0.916301 0.645151 F F F Ti
0.375064 0.916651 0.773992 F F F Ti
0.875134 0.916651 0.773979 F F F Ti
0.374997 0.916667 0.902864 F F F Ti
0.875019 0.916666 0.902864 F F F Ti
0.124646 0.166754 0.386617 F F F Ti
0.624338 0.166787 0.386599 F F F Ti
0.124986 0.666446 0.386558 F F F Ti
0.624988 0.666631 0.386655 F F F Ti
0.125000 0.166661 -0.000004 F F F Ti
0.624996 0.166663 -0.000002 F F F Ti
0.125000 0.666673 -0.000001 F F F Ti
0.624996 0.666671 0.000001 F F F Ti
0.124999 0.833336 0.096670 F F F Ti
0.624995 0.833337 0.096670 F F F Ti
0.123408 0.831202 0.483004 F F F Ti
0.625198 0.832854 0.483382 F F F Ti
0.124998 0.333330 0.096669 F F F Ti
0.624993 0.333331 0.096668 F F F Ti
0.123336 0.335555 0.482954 F F F Ti
0.625166 0.333768 0.483370 F F F Ti
0.375351 0.583232 0.483371 F F F Ti
0.874358 0.583237 0.483350 F F F Ti
0.375001 0.583333 0.096669 F F F Ti
0.875002 0.583333 0.096667 F F F Ti
0.374998 0.083333 0.096672 F F F Ti
0.874996 0.083334 0.096670 F F F Ti
0.869975 0.083314 0.482636 F F F Ti
0.375067 0.416751 0.386621 F F F Ti
0.874539 0.416803 0.386544 F F F Ti
0.374772 0.916557 0.386694 F F F Ti
0.874643 0.916478 0.386531 F F F Ti
0.374991 0.416664 -0.000001 F F F Ti
0.875000 0.416663 -0.000000 F F F Ti
0.374992 0.916668 -0.000001 F F F Ti
0.875001 0.916667 -0.000000 F F F Ti
0.374882 0.083312 0.290009 F F F Ti
0.874898 0.083339 0.289980 F F F Ti
0.124990 0.166660 0.193338 F F F Ti
0.624963 0.166658 0.193335 F F F Ti
0.124965 0.333348 0.289981 F F F Ti
0.624889 0.333333 0.289971 F F F Ti
0.374976 0.416667 0.193329 F F F Ti
0.874973 0.416664 0.193326 F F F Ti
0.375040 0.583332 0.289985 F F F Ti
0.874928 0.583333 0.289960 F F F Ti
0.124996 0.666663 0.193332 F F F Ti
0.624969 0.666666 0.193329 F F F Ti
0.124994 0.833318 0.289991 F F F Ti
0.624877 0.833313 0.289990 F F F Ti
0.374971 0.916664 0.193339 F F F Ti
0.874976 0.916657 0.193335 F F F Ti
0.227054 0.083688 0.544273 T T T Nb

0.000000 0.000000 0.000000
0.000000 0.000000 0.000000
0.000000 0.000000 0.000000
0.000000 0.000000 0.000000
0.000000 0.000000 0.000000
0.000000 0.000000 0.000000
0.000000 0.000000 0.000000
0.000000 0.000000 0.000000
0.000000 0.000000 0.000000
0.000000 0.000000 0.000000
0.000000 0.000000 0.000000
0.000000 0.000000 0.000000
0.000000 0.000000 0.000000
0.000000 0.000000 0.000000
0.000000 0.000000 0.000000
0.000000 0.000000 0.000000
0.000000 0.000000 0.000000
0.000000 0.000000 0.000000
0.000000 0.000000 0.000000
0.000000 0.000000 0.000000
0.000000 0.000000 0.000000
0.000000 0.000000 0.000000
0.000000 0.000000 0.000000
0.000000 0.000000 0.000000
0.000000 0.000000 0.000000
0.000000 0.000000 0.000000
0.000000 0.000000 0.000000
0.000000 0.000000 0.000000
0.000000 0.000000 0.000000
0.000000 0.000000 0.000000
0.000000 0.000000 0.000000
0.000000 0.000000 0.000000
0.000000 0.000000 0.000000
0.000000 0.000000 0.000000
0.000000 0.000000 0.000000
0.000000 0.000000 0.000000
0.000000 0.000000 0.000000
0.000000 0.000000 0.000000
0.000000 0.000000 0.000000
0.000000 0.000000 0.000000
0.000000 0.000000 0.000000
0.000000 0.000000 0.000000
0.000000 0.000000 0.000000
0.000000 0.000000 0.000000
0.000000 0.000000 0.000000
0.000000 0.000000 0.000000
0.000000 0.000000 0.000000
0.000000 0.000000 0.000000
0.000000 0.000000 0.000000
0.000000 0.000000 0.000000
0.000000 0.000000 0.000000
0.000000 0.000000 0.000000
0.000000 0.000000 0.000000
0.000000 0.000000 0.000000
0.000000 0.000000 0.000000
0.000000 0.000000 0.000000
0.000000 0.000000 0.000000
0.000000 0.000000 0.000000
0.000000 0.000000 0.000000
0.000000 0.000000 0.000000
0.000000 0.000000 0.000000
0.000000 0.000000 0.000000
0.000000 0.000000 0.000000
0.000000 0.000000 0.000000
0.000000 0.000000 0.000000
0.000000 0.000000 0.000000
0.000000 0.000000 0.000000
0.000000 0.000000 0.000000
0.000000 0.000000 0.000000
0.000000 0.000000 0.000000
0.000000 0.000000 0.000000
0.000000 0.000000 0.000000
0.000000 0.000000 0.000000
0.000000 0.000000 0.000000
0.000000 0.000000 0.000000
0.000000 0.000000 0.000000
0.000000 0.000000 0.000000
0.000000 0.000000 0.000000
0.000000 0.000000 0.000000
0.000000 0.000000 0.000000
0.000000 0.000000 0.000000
0.000000 0.000000 0.000000
0.000000 0.000000 0.000000
