total_Ti
1.0
8.805261 0.000000 0.000000
-4.402631 7.625580 0.000000
0.000000 0.000000 22.383422
Ti
90
direct
0.967272 0.027818 0.591355 Ti
0.967272 0.527818 0.591355 Ti
0.467272 0.027818 0.591355 Ti
0.467272 0.527818 0.591355 Ti
0.133938 0.361151 0.880509 Ti
0.133938 0.861151 0.880509 Ti
0.633938 0.361151 0.880509 Ti
0.633938 0.861151 0.880509 Ti
0.300605 0.194485 0.921816 Ti
0.300605 0.694485 0.921816 Ti
0.800605 0.194485 0.921816 Ti
0.800605 0.694485 0.921816 Ti
0.133938 0.361151 0.632663 Ti
0.133938 0.861151 0.632663 Ti
0.633938 0.361151 0.632663 Ti
0.633938 0.861151 0.632663 Ti
0.300605 0.194485 0.673970 Ti
0.300605 0.694485 0.673970 Ti
0.800605 0.194485 0.673970 Ti
0.800605 0.694485 0.673970 Ti
0.967272 0.027818 0.715278 Ti
0.967272 0.527818 0.715278 Ti
0.467272 0.027818 0.715278 Ti
0.467272 0.527818 0.715278 Ti
0.133938 0.361151 0.756586 Ti
0.133938 0.861151 0.756586 Ti
0.633938 0.361151 0.756586 Ti
0.633938 0.861151 0.756586 Ti
0.300605 0.194485 0.797893 Ti
0.300605 0.694485 0.797893 Ti
0.800605 0.194485 0.797893 Ti
0.800605 0.694485 0.797893 Ti
0.967272 0.027818 0.839201 Ti
0.967272 0.527818 0.839201 Ti
0.467272 0.027818 0.839201 Ti
0.467272 0.527818 0.839201 Ti
0.111111 0.888889 -0.000000 Ti
0.111111 0.888889 0.410538 Ti
0.111111 0.555556 -0.000000 Ti
0.222222 0.777778 0.102634 Ti
0.111111 0.555556 0.410538 Ti
0.444444 0.888889 -0.000000 Ti
0.111111 0.222222 -0.000000 Ti
0.222222 0.777778 0.513172 Ti
0.222222 0.444444 0.102634 Ti
0.444444 0.888889 0.410538 Ti
0.111111 0.222222 0.410538 Ti
0.444444 0.555556 -0.000000 Ti
0.222222 0.444444 0.513172 Ti
0.555556 0.777778 0.102634 Ti
0.222222 0.111111 0.102634 Ti
0.444444 0.555556 0.410538 Ti
0.777778 0.888889 -0.000000 Ti
0.444444 0.222222 -0.000000 Ti
0.555556 0.777778 0.513172 Ti
0.222222 0.111111 0.513172 Ti
0.555556 0.444444 0.102634 Ti
0.777778 0.888889 0.410538 Ti
0.444444 0.222222 0.410538 Ti
0.777778 0.555556 -0.000000 Ti
0.555556 0.444444 0.513172 Ti
0.888889 0.777778 0.102634 Ti
0.555556 0.111111 0.102634 Ti
0.777778 0.555556 0.410538 Ti
0.777778 0.222222 -0.000000 Ti
0.888889 0.777778 0.513172 Ti
0.555556 0.111111 0.513172 Ti
0.888889 0.444444 0.102634 Ti
0.777778 0.222222 0.410538 Ti
0.888889 0.444444 0.513172 Ti
0.888889 0.111111 0.102634 Ti
0.888889 0.111111 0.513172 Ti
0.111111 0.888889 0.205269 Ti
0.111111 0.555556 0.205269 Ti
0.222222 0.777778 0.307903 Ti
0.444444 0.888889 0.205269 Ti
0.111111 0.222222 0.205269 Ti
0.222222 0.444444 0.307903 Ti
0.444444 0.555556 0.205269 Ti
0.555556 0.777778 0.307903 Ti
0.222222 0.111111 0.307903 Ti
0.777778 0.888889 0.205269 Ti
0.444444 0.222222 0.205269 Ti
0.555556 0.444444 0.307903 Ti
0.777778 0.555556 0.205269 Ti
0.888889 0.777778 0.307903 Ti
0.555556 0.111111 0.307903 Ti
0.777778 0.222222 0.205269 Ti
0.888889 0.444444 0.307903 Ti
0.888889 0.111111 0.307903 Ti
