beta_Ti
1.0
9.588310 0.000000 0.000000
0.000000 9.588310 0.000000
0.000000 0.000000 25.000006
Ti
54
direct
0.083333 0.083333 0.500000 Ti
0.083333 0.083333 0.620000 Ti
0.083333 0.083333 0.740000 Ti
0.083333 0.416667 0.500000 Ti
0.083333 0.416667 0.620000 Ti
0.083333 0.416667 0.740000 Ti
0.083333 0.750000 0.500000 Ti
0.083333 0.750000 0.620000 Ti
0.083333 0.750000 0.740000 Ti
0.416667 0.083333 0.500000 Ti
0.416667 0.083333 0.620000 Ti
0.416667 0.083333 0.740000 Ti
0.416667 0.416667 0.500000 Ti
0.416667 0.416667 0.620000 Ti
0.416667 0.416667 0.740000 Ti
0.416667 0.750000 0.500000 Ti
0.416667 0.750000 0.620000 Ti
0.416667 0.750000 0.740000 Ti
0.750000 0.083333 0.500000 Ti
0.750000 0.083333 0.620000 Ti
0.750000 0.083333 0.740000 Ti
0.750000 0.416667 0.500000 Ti
0.750000 0.416667 0.620000 Ti
0.750000 0.416667 0.740000 Ti
0.750000 0.750000 0.500000 Ti
0.750000 0.750000 0.620000 Ti
0.750000 0.750000 0.740000 Ti
0.250000 0.250000 0.560000 Ti
0.250000 0.250000 0.680000 Ti
0.250000 0.250000 0.800000 Ti
0.250000 0.583333 0.560000 Ti
0.250000 0.583333 0.680000 Ti
0.250000 0.583333 0.800000 Ti
0.250000 0.916667 0.560000 Ti
0.250000 0.916667 0.680000 Ti
0.250000 0.916667 0.800000 Ti
0.583333 0.250000 0.560000 Ti
0.583333 0.250000 0.680000 Ti
0.583333 0.250000 0.800000 Ti
0.583333 0.583333 0.560000 Ti
0.583333 0.583333 0.680000 Ti
0.583333 0.583333 0.800000 Ti
0.583333 0.916667 0.560000 Ti
0.583333 0.916667 0.680000 Ti
0.583333 0.916667 0.800000 Ti
0.916667 0.250000 0.560000 Ti
0.916667 0.250000 0.680000 Ti
0.916667 0.250000 0.800000 Ti
0.916667 0.583333 0.560000 Ti
0.916667 0.583333 0.680000 Ti
0.916667 0.583333 0.800000 Ti
0.916667 0.916667 0.560000 Ti
0.916667 0.916667 0.680000 Ti
0.916667 0.916667 0.800000 Ti
