Ti82 Cr1
1.0
6.391540 0.000000 0.000000
0.000000 9.587310 0.000000
0.000000 0.000000 23.271695
Ti Cr
82 1
Selective dynamics
direct
0.634393 0.083346 0.581177 F F F Ti
0.126265 0.083405 0.709371 F F F Ti
0.626503 0.083377 0.709736 F F F Ti
0.125157 0.083365 0.838418 F F F Ti
0.625273 0.083363 0.838482 F F F Ti
0.125573 0.419283 0.580605 F F F Ti
0.626507 0.417306 0.580561 F F F Ti
0.125541 0.416995 0.709664 F F F Ti
0.626316 0.417258 0.709817 F F F Ti
0.125147 0.416664 0.838495 F F F Ti
0.625226 0.416692 0.838529 F F F Ti
0.125185 0.747592 0.580575 F F F Ti
0.626477 0.749534 0.580548 F F F Ti
0.125392 0.749796 0.709685 F F F Ti
0.626271 0.749665 0.709828 F F F Ti
0.125107 0.750059 0.838502 F F F Ti
0.625228 0.750053 0.838536 F F F Ti
0.379853 0.252381 0.646055 F F F Ti
0.876497 0.250939 0.645241 F F F Ti
0.375414 0.250087 0.774109 F F F Ti
0.875581 0.250019 0.774017 F F F Ti
0.375062 0.249987 0.902897 F F F Ti
0.875119 0.249981 0.902891 F F F Ti
0.376149 0.583696 0.645240 F F F Ti
0.875107 0.583421 0.645273 F F F Ti
0.375261 0.583415 0.774136 F F F Ti
0.875475 0.583359 0.774164 F F F Ti
0.375036 0.583349 0.902921 F F F Ti
0.875097 0.583341 0.902930 F F F Ti
0.379543 0.914523 0.645981 F F F Ti
0.876559 0.915921 0.645247 F F F Ti
0.375373 0.916686 0.774098 F F F Ti
0.875580 0.916752 0.774008 F F F Ti
0.375042 0.916705 0.902886 F F F Ti
0.875103 0.916710 0.902880 F F F Ti
0.124421 0.166869 0.386492 F F F Ti
0.623140 0.166971 0.386392 F F F Ti
0.124955 0.666146 0.386278 F F F Ti
0.624989 0.666652 0.386488 F F F Ti
0.125000 0.166653 -0.000024 F F F Ti
0.624988 0.166657 -0.000018 F F F Ti
0.125001 0.666697 -0.000006 F F F Ti
0.624993 0.666694 -0.000002 F F F Ti
0.124986 0.833349 0.096632 F F F Ti
0.624986 0.833353 0.096632 F F F Ti
0.122536 0.829396 0.482469 F F F Ti
0.625166 0.832686 0.483299 F F F Ti
0.124987 0.333327 0.096631 F F F Ti
0.624981 0.333329 0.096631 F F F Ti
0.122425 0.337563 0.482434 F F F Ti
0.624621 0.334019 0.483342 F F F Ti
0.376030 0.583779 0.483225 F F F Ti
0.873556 0.583561 0.483190 F F F Ti
0.375005 0.583335 0.096630 F F F Ti
0.875009 0.583334 0.096628 F F F Ti
0.374990 0.083344 0.096637 F F F Ti
0.874987 0.083346 0.096634 F F F Ti
0.864945 0.083308 0.481367 F F F Ti
0.375128 0.416907 0.386464 F F F Ti
0.873939 0.416933 0.386328 F F F Ti
0.374434 0.916436 0.386562 F F F Ti
0.874329 0.916233 0.386208 F F F Ti
0.374970 0.416655 -0.000011 F F F Ti
0.875001 0.416648 -0.000009 F F F Ti
0.374972 0.916682 -0.000011 F F F Ti
0.875004 0.916683 -0.000013 F F F Ti
0.374621 0.083296 0.289905 F F F Ti
0.874751 0.083386 0.289867 F F F Ti
0.124947 0.166660 0.193272 F F F Ti
0.624885 0.166647 0.193268 F F F Ti
0.124885 0.333384 0.289870 F F F Ti
0.624679 0.333341 0.289841 F F F Ti
0.374913 0.416665 0.193249 F F F Ti
0.874915 0.416655 0.193248 F F F Ti
0.375101 0.583350 0.289854 F F F Ti
0.874808 0.583350 0.289802 F F F Ti
0.124974 0.666650 0.193248 F F F Ti
0.624912 0.666665 0.193242 F F F Ti
0.124967 0.833290 0.289851 F F F Ti
0.624664 0.833317 0.289860 F F F Ti
0.374902 0.916666 0.193264 F F F Ti
0.874920 0.916656 0.193262 F F F Ti
0.181428 0.086435 0.560761 T T T Cr

0.000000 0.000000 0.000000
0.000000 0.000000 0.000000
0.000000 0.000000 0.000000
0.000000 0.000000 0.000000
0.000000 0.000000 0.000000
0.000000 0.000000 0.000000
0.000000 0.000000 0.000000
0.000000 0.000000 0.000000
0.000000 0.000000 0.000000
0.000000 0.000000 0.000000
0.000000 0.000000 0.000000
0.000000 0.000000 0.000000
0.000000 0.000000 0.000000
0.000000 0.000000 0.000000
0.000000 0.000000 0.000000
0.000000 0.000000 0.000000
0.000000 0.000000 0.000000
0.000000 0.000000 0.000000
0.000000 0.000000 0.000000
0.000000 0.000000 0.000000
0.000000 0.000000 0.000000
0.000000 0.000000 0.000000
0.000000 0.000000 0.000000
0.000000 0.000000 0.000000
0.000000 0.000000 0.000000
0.000000 0.000000 0.000000
0.000000 0.000000 0.000000
0.000000 0.000000 0.000000
0.000000 0.000000 0.000000
0.000000 0.000000 0.000000
0.000000 0.000000 0.000000
0.000000 0.000000 0.000000
0.000000 0.000000 0.000000
0.000000 0.000000 0.000000
0.000000 0.000000 0.000000
0.000000 0.000000 0.000000
0.000000 0.000000 0.000000
0.000000 0.000000 0.000000
0.000000 0.000000 0.000000
0.000000 0.000000 0.000000
0.000000 0.000000 0.000000
0.000000 0.000000 0.000000
0.000000 0.000000 0.000000
0.000000 0.000000 0.000000
0.000000 0.000000 0.000000
0.000000 0.000000 0.000000
0.000000 0.000000 0.000000
0.000000 0.000000 0.000000
0.000000 0.000000 0.000000
0.000000 0.000000 0.000000
0.000000 0.000000 0.000000
0.000000 0.000000 0.000000
0.000000 0.000000 0.000000
0.000000 0.000000 0.000000
0.000000 0.000000 0.000000
0.000000 0.000000 0.000000
0.000000 0.000000 0.000000
0.000000 0.000000 0.000000
0.000000 0.000000 0.000000
0.000000 0.000000 0.000000
0.000000 0.000000 0.000000
0.000000 0.000000 0.000000
0.000000 0.000000 0.000000
0.000000 0.000000 0.000000
0.000000 0.000000 0.000000
0.000000 0.000000 0.000000
0.000000 0.000000 0.000000
0.000000 0.000000 0.000000
0.000000 0.000000 0.000000
0.000000 0.000000 0.000000
0.000000 0.000000 0.000000
0.000000 0.000000 0.000000
0.000000 0.000000 0.000000
0.000000 0.000000 0.000000
0.000000 0.000000 0.000000
0.000000 0.000000 0.000000
0.000000 0.000000 0.000000
0.000000 0.000000 0.000000
0.000000 0.000000 0.000000
0.000000 0.000000 0.000000
0.000000 0.000000 0.000000
0.000000 0.000000 0.000000
0.000000 0.000000 0.000000
