Ti36
1.0
8.805261 0.000000 0.000000
-4.402630 7.625579 0.000000
0.000000 0.000000 19.088801
Ti
36
direct
0.000000 0.000000 0.486774 Ti
1.000000 0.500000 0.486774 Ti
0.500000 0.000000 0.486774 Ti
0.500000 0.500000 0.486774 Ti
0.166667 0.333333 0.825834 Ti
0.166667 0.833333 0.825834 Ti
0.666667 0.333333 0.825834 Ti
0.666667 0.833333 0.825834 Ti
0.333333 0.166667 0.874271 Ti
0.333333 0.666667 0.874271 Ti
0.833333 0.166667 0.874271 Ti
0.833333 0.666667 0.874271 Ti
0.166667 0.333333 0.535211 Ti
0.166667 0.833333 0.535211 Ti
0.666667 0.333333 0.535211 Ti
0.666667 0.833333 0.535211 Ti
0.333333 0.166667 0.583648 Ti
0.333333 0.666667 0.583648 Ti
0.833333 0.166667 0.583648 Ti
0.833333 0.666667 0.583648 Ti
0.000000 0.000000 0.632085 Ti
1.000000 0.500000 0.632085 Ti
0.500000 0.000000 0.632085 Ti
0.500000 0.500000 0.632085 Ti
0.166667 0.333333 0.680522 Ti
0.166667 0.833333 0.680522 Ti
0.666667 0.333333 0.680522 Ti
0.666667 0.833333 0.680522 Ti
0.333333 0.166667 0.728960 Ti
0.333333 0.666667 0.728960 Ti
0.833333 0.166667 0.728960 Ti
0.833333 0.666667 0.728960 Ti
0.000000 0.000000 0.777397 Ti
1.000000 0.500000 0.777397 Ti
0.500000 0.000000 0.777397 Ti
0.500000 0.500000 0.777397 Ti

0.000000 0.000000 0.000000
0.000000 0.000000 0.000000
0.000000 0.000000 0.000000
0.000000 0.000000 0.000000
0.000000 0.000000 0.000000
0.000000 0.000000 0.000000
0.000000 0.000000 0.000000
0.000000 0.000000 0.000000
0.000000 0.000000 0.000000
0.000000 0.000000 0.000000
0.000000 0.000000 0.000000
0.000000 0.000000 0.000000
0.000000 0.000000 0.000000
0.000000 0.000000 0.000000
0.000000 0.000000 0.000000
0.000000 0.000000 0.000000
0.000000 0.000000 0.000000
0.000000 0.000000 0.000000
0.000000 0.000000 0.000000
0.000000 0.000000 0.000000
0.000000 0.000000 0.000000
0.000000 0.000000 0.000000
0.000000 0.000000 0.000000
0.000000 0.000000 0.000000
0.000000 0.000000 0.000000
0.000000 0.000000 0.000000
0.000000 0.000000 0.000000
0.000000 0.000000 0.000000
0.000000 0.000000 0.000000
0.000000 0.000000 0.000000
0.000000 0.000000 0.000000
0.000000 0.000000 0.000000
0.000000 0.000000 0.000000
0.000000 0.000000 0.000000
0.000000 0.000000 0.000000
0.000000 0.000000 0.000000
