Ti72
1.0
8.805261 0.000000 0.000000
-4.402630 7.625579 0.000000
0.000000 0.000000 17.688801
Ti
72
direct
0.000000 0.000000 0.485727 Ti
1.000000 0.500000 0.485727 Ti
0.500000 0.000000 0.485727 Ti
0.500000 0.500000 0.485727 Ti
0.166667 0.333333 0.851622 Ti
0.166667 0.833333 0.851622 Ti
0.666667 0.333333 0.851622 Ti
0.666667 0.833333 0.851622 Ti
0.333333 0.166667 0.903893 Ti
0.333333 0.666667 0.903893 Ti
0.833333 0.166667 0.903893 Ti
0.833333 0.666667 0.903893 Ti
0.166667 0.333333 0.537998 Ti
0.166667 0.833333 0.537998 Ti
0.666667 0.333333 0.537998 Ti
0.666667 0.833333 0.537998 Ti
0.333333 0.166667 0.590269 Ti
0.333333 0.666667 0.590269 Ti
0.833333 0.166667 0.590269 Ti
0.833333 0.666667 0.590269 Ti
0.000000 0.000000 0.642539 Ti
1.000000 0.500000 0.642539 Ti
0.500000 0.000000 0.642539 Ti
0.500000 0.500000 0.642539 Ti
0.166667 0.333333 0.694810 Ti
0.166667 0.833333 0.694810 Ti
0.666667 0.333333 0.694810 Ti
0.666667 0.833333 0.694810 Ti
0.333333 0.166667 0.747081 Ti
0.333333 0.666667 0.747081 Ti
0.833333 0.166667 0.747081 Ti
0.833333 0.666667 0.747081 Ti
0.000000 0.000000 0.799352 Ti
1.000000 0.500000 0.799352 Ti
0.500000 0.000000 0.799352 Ti
0.500000 0.500000 0.799352 Ti
0.111111 0.888889 -0.000000 Ti
0.111111 0.888889 0.259747 Ti
0.111111 0.555556 -0.000000 Ti
0.222222 0.777778 0.129874 Ti
0.111111 0.555556 0.259747 Ti
0.444444 0.888889 -0.000000 Ti
0.111111 0.222222 -0.000000 Ti
0.222222 0.777778 0.389621 Ti
0.222222 0.444444 0.129874 Ti
0.444444 0.888889 0.259747 Ti
0.111111 0.222222 0.259747 Ti
0.444444 0.555556 -0.000000 Ti
0.222222 0.444444 0.389621 Ti
0.555556 0.777778 0.129874 Ti
0.222222 0.111111 0.129874 Ti
0.444444 0.555556 0.259747 Ti
0.777778 0.888889 -0.000000 Ti
0.444444 0.222222 -0.000000 Ti
0.555556 0.777778 0.389621 Ti
0.222222 0.111111 0.389621 Ti
0.555556 0.444444 0.129874 Ti
0.777778 0.888889 0.259747 Ti
0.444444 0.222222 0.259747 Ti
0.777778 0.555556 -0.000000 Ti
0.555556 0.444444 0.389621 Ti
0.888889 0.777778 0.129874 Ti
0.555556 0.111111 0.129874 Ti
0.777778 0.555556 0.259747 Ti
0.777778 0.222222 -0.000000 Ti
0.888889 0.777778 0.389621 Ti
0.555556 0.111111 0.389621 Ti
0.888889 0.444444 0.129874 Ti
0.777778 0.222222 0.259747 Ti
0.888889 0.444444 0.389621 Ti
0.888889 0.111111 0.129874 Ti
0.888889 0.111111 0.389621 Ti

0.000000 0.000000 0.000000
0.000000 0.000000 0.000000
0.000000 0.000000 0.000000
0.000000 0.000000 0.000000
0.000000 0.000000 0.000000
0.000000 0.000000 0.000000
0.000000 0.000000 0.000000
0.000000 0.000000 0.000000
0.000000 0.000000 0.000000
0.000000 0.000000 0.000000
0.000000 0.000000 0.000000
0.000000 0.000000 0.000000
0.000000 0.000000 0.000000
0.000000 0.000000 0.000000
0.000000 0.000000 0.000000
0.000000 0.000000 0.000000
0.000000 0.000000 0.000000
0.000000 0.000000 0.000000
0.000000 0.000000 0.000000
0.000000 0.000000 0.000000
0.000000 0.000000 0.000000
0.000000 0.000000 0.000000
0.000000 0.000000 0.000000
0.000000 0.000000 0.000000
0.000000 0.000000 0.000000
0.000000 0.000000 0.000000
0.000000 0.000000 0.000000
0.000000 0.000000 0.000000
0.000000 0.000000 0.000000
0.000000 0.000000 0.000000
0.000000 0.000000 0.000000
0.000000 0.000000 0.000000
0.000000 0.000000 0.000000
0.000000 0.000000 0.000000
0.000000 0.000000 0.000000
0.000000 0.000000 0.000000
0.000000 0.000000 0.000000
0.000000 0.000000 0.000000
0.000000 0.000000 0.000000
0.000000 0.000000 0.000000
0.000000 0.000000 0.000000
0.000000 0.000000 0.000000
0.000000 0.000000 0.000000
0.000000 0.000000 0.000000
0.000000 0.000000 0.000000
0.000000 0.000000 0.000000
0.000000 0.000000 0.000000
0.000000 0.000000 0.000000
0.000000 0.000000 0.000000
0.000000 0.000000 0.000000
0.000000 0.000000 0.000000
0.000000 0.000000 0.000000
0.000000 0.000000 0.000000
0.000000 0.000000 0.000000
0.000000 0.000000 0.000000
0.000000 0.000000 0.000000
0.000000 0.000000 0.000000
0.000000 0.000000 0.000000
0.000000 0.000000 0.000000
0.000000 0.000000 0.000000
0.000000 0.000000 0.000000
0.000000 0.000000 0.000000
0.000000 0.000000 0.000000
0.000000 0.000000 0.000000
0.000000 0.000000 0.000000
0.000000 0.000000 0.000000
0.000000 0.000000 0.000000
0.000000 0.000000 0.000000
0.000000 0.000000 0.000000
0.000000 0.000000 0.000000
0.000000 0.000000 0.000000
0.000000 0.000000 0.000000
