Ti72
1.0
8.805261 0.000000 0.000000
-4.402630 7.625579 0.000000
0.000000 0.000000 23.288801
Ti
72
direct
0.000000 0.000000 0.489159 Ti
1.000000 0.500000 0.489159 Ti
0.500000 0.000000 0.489159 Ti
0.500000 0.500000 0.489159 Ti
0.166667 0.333333 0.767072 Ti
0.166667 0.833333 0.767072 Ti
0.666667 0.333333 0.767072 Ti
0.666667 0.833333 0.767072 Ti
0.333333 0.166667 0.806773 Ti
0.333333 0.666667 0.806773 Ti
0.833333 0.166667 0.806773 Ti
0.833333 0.666667 0.806773 Ti
0.166667 0.333333 0.528861 Ti
0.166667 0.833333 0.528861 Ti
0.666667 0.333333 0.528861 Ti
0.666667 0.833333 0.528861 Ti
0.333333 0.166667 0.568563 Ti
0.333333 0.666667 0.568563 Ti
0.833333 0.166667 0.568563 Ti
0.833333 0.666667 0.568563 Ti
0.000000 0.000000 0.608264 Ti
1.000000 0.500000 0.608264 Ti
0.500000 0.000000 0.608264 Ti
0.500000 0.500000 0.608264 Ti
0.166667 0.333333 0.647966 Ti
0.166667 0.833333 0.647966 Ti
0.666667 0.333333 0.647966 Ti
0.666667 0.833333 0.647966 Ti
0.333333 0.166667 0.687668 Ti
0.333333 0.666667 0.687668 Ti
0.833333 0.166667 0.687668 Ti
0.833333 0.666667 0.687668 Ti
0.000000 0.000000 0.727370 Ti
1.000000 0.500000 0.727370 Ti
0.500000 0.000000 0.727370 Ti
0.500000 0.500000 0.727370 Ti
0.111111 0.888889 -0.000000 Ti
0.111111 0.888889 0.197289 Ti
0.111111 0.555556 -0.000000 Ti
0.222222 0.777778 0.098644 Ti
0.111111 0.555556 0.197289 Ti
0.444444 0.888889 -0.000000 Ti
0.111111 0.222222 -0.000000 Ti
0.222222 0.777778 0.295933 Ti
0.222222 0.444444 0.098644 Ti
0.444444 0.888889 0.197289 Ti
0.111111 0.222222 0.197289 Ti
0.444444 0.555556 -0.000000 Ti
0.222222 0.444444 0.295933 Ti
0.555556 0.777778 0.098644 Ti
0.222222 0.111111 0.098644 Ti
0.444444 0.555556 0.197289 Ti
0.777778 0.888889 -0.000000 Ti
0.444444 0.222222 -0.000000 Ti
0.555556 0.777778 0.295933 Ti
0.222222 0.111111 0.295933 Ti
0.555556 0.444444 0.098644 Ti
0.777778 0.888889 0.197289 Ti
0.444444 0.222222 0.197289 Ti
0.777778 0.555556 -0.000000 Ti
0.555556 0.444444 0.295933 Ti
0.888889 0.777778 0.098644 Ti
0.555556 0.111111 0.098644 Ti
0.777778 0.555556 0.197289 Ti
0.777778 0.222222 -0.000000 Ti
0.888889 0.777778 0.295933 Ti
0.555556 0.111111 0.295933 Ti
0.888889 0.444444 0.098644 Ti
0.777778 0.222222 0.197289 Ti
0.888889 0.444444 0.295933 Ti
0.888889 0.111111 0.098644 Ti
0.888889 0.111111 0.295933 Ti

0.000000 0.000000 0.000000
0.000000 0.000000 0.000000
0.000000 0.000000 0.000000
0.000000 0.000000 0.000000
0.000000 0.000000 0.000000
0.000000 0.000000 0.000000
0.000000 0.000000 0.000000
0.000000 0.000000 0.000000
0.000000 0.000000 0.000000
0.000000 0.000000 0.000000
0.000000 0.000000 0.000000
0.000000 0.000000 0.000000
0.000000 0.000000 0.000000
0.000000 0.000000 0.000000
0.000000 0.000000 0.000000
0.000000 0.000000 0.000000
0.000000 0.000000 0.000000
0.000000 0.000000 0.000000
0.000000 0.000000 0.000000
0.000000 0.000000 0.000000
0.000000 0.000000 0.000000
0.000000 0.000000 0.000000
0.000000 0.000000 0.000000
0.000000 0.000000 0.000000
0.000000 0.000000 0.000000
0.000000 0.000000 0.000000
0.000000 0.000000 0.000000
0.000000 0.000000 0.000000
0.000000 0.000000 0.000000
0.000000 0.000000 0.000000
0.000000 0.000000 0.000000
0.000000 0.000000 0.000000
0.000000 0.000000 0.000000
0.000000 0.000000 0.000000
0.000000 0.000000 0.000000
0.000000 0.000000 0.000000
0.000000 0.000000 0.000000
0.000000 0.000000 0.000000
0.000000 0.000000 0.000000
0.000000 0.000000 0.000000
0.000000 0.000000 0.000000
0.000000 0.000000 0.000000
0.000000 0.000000 0.000000
0.000000 0.000000 0.000000
0.000000 0.000000 0.000000
0.000000 0.000000 0.000000
0.000000 0.000000 0.000000
0.000000 0.000000 0.000000
0.000000 0.000000 0.000000
0.000000 0.000000 0.000000
0.000000 0.000000 0.000000
0.000000 0.000000 0.000000
0.000000 0.000000 0.000000
0.000000 0.000000 0.000000
0.000000 0.000000 0.000000
0.000000 0.000000 0.000000
0.000000 0.000000 0.000000
0.000000 0.000000 0.000000
0.000000 0.000000 0.000000
0.000000 0.000000 0.000000
0.000000 0.000000 0.000000
0.000000 0.000000 0.000000
0.000000 0.000000 0.000000
0.000000 0.000000 0.000000
0.000000 0.000000 0.000000
0.000000 0.000000 0.000000
0.000000 0.000000 0.000000
0.000000 0.000000 0.000000
0.000000 0.000000 0.000000
0.000000 0.000000 0.000000
0.000000 0.000000 0.000000
0.000000 0.000000 0.000000
