substance_bottem
1.0
   3.5062000000000002    0.0000000000000000    0.0000000000000002
   0.0000000000000019   12.0001999999999995    0.0000000000000007
   0.0000000000000000    0.0000000000000000   28.8049410620000010
Cr Mo N
20 4 24
Selective dynamics
direct
   0.6482100000000000    0.3787300000000000    0.3302202428578606 T T T Cr
   0.6482100000000000    0.1287300000000000    0.3302202428578606 T T T Cr
   0.1482100000000000    0.0037300000000000    0.2518134374719798 T T T Cr
   0.6482100000000000    0.3787300000000000    0.1733965696110751 F F F Cr
   0.6482100000000000    0.1287300000000000    0.1733965696110752 F F F Cr
   0.1482100000000000    0.2537300000000000    0.2518134374719798 T T T Cr
   0.6482100000000000    0.8787300000000000    0.3302202428578606 T T T Cr
   0.6482100000000000    0.6287300000000000    0.3302202428578606 T T T Cr
   0.1482100000000000    0.5037300000000000    0.2518134374719798 T T T Cr
   0.6482100000000000    0.8787300000000000    0.1733965696110752 F F F Cr
   0.6482100000000000    0.6287300000000000    0.1733965696110752 F F F Cr
   0.1482100000000000    0.7537299999999999    0.2518134374719798 T T T Cr
   0.1317400000000000    0.0053800000000000    0.0951004514504568 F F F Cr
   0.6317400000000001    0.3803800000000000    0.0166835835895521 F F F Cr
   0.6317400000000000    0.1303800000000000    0.0166835835895521 F F F Cr
   0.1317400000000000    0.2553800000000000    0.0951004514504568 F F F Cr
   0.1317400000000000    0.5053800000000001    0.0951004514504568 F F F Cr
   0.6317400000000001    0.8803800000000001    0.0166835835895521 F F F Cr
   0.6317400000000001    0.6303800000000001    0.0166835835895521 F F F Cr
   0.1317400000000000    0.7553800000000001    0.0951004514504568 F F F Cr
   0.1482100000000000    0.0037300000000000    0.4086371107187652 T T T Mo
   0.1482100000000000    0.2537300000000000    0.4086371107187652 T T T Mo
   0.1482100000000000    0.5037300000000000    0.4086371107187652 T T T Mo
   0.1482100000000000    0.7537299999999999    0.4086371107187652 T T T Mo
   0.6482100000000000    0.3787300000000000    0.4086371107187652 T T T N
   0.1482100000000000    0.0037300000000000    0.3302202428578606 T T T N
   0.1482100000000000    0.2537300000000000    0.3302202428578606 T T T N
   0.6482100000000000    0.1287300000000000    0.4086371107187652 T T T N
   0.6482100000000000    0.3787300000000000    0.2518134374719798 T T T N
   0.1482100000000000    0.0037300000000000    0.1733965696110752 F F F N
   0.1482100000000000    0.2537300000000000    0.1733965696110752 F F F N
   0.6482100000000000    0.1287300000000000    0.2518134374719798 T T T N
   0.6482100000000000    0.8787300000000000    0.4086371107187652 T T T N
   0.1482100000000000    0.5037300000000000    0.3302202428578606 T T T N
   0.1482100000000000    0.7537299999999999    0.3302202428578606 T T T N
   0.6482100000000000    0.6287300000000000    0.4086371107187652 T T T N
   0.6482100000000000    0.8787300000000000    0.2518134374719798 T T T N
   0.1482100000000000    0.5037300000000000    0.1733965696110751 F F F N
   0.1482100000000000    0.7537299999999999    0.1733965696110752 F F F N
   0.6482100000000000    0.6287300000000000    0.2518134374719798 T T T N
   0.6317400000000001    0.3803800000000000    0.0951004514504568 F F F N
   0.1317400000000000    0.0053800000000000    0.0166835835895522 F F F N
   0.1317400000000000    0.2553800000000000    0.0166835835895521 F F F N
   0.6317400000000000    0.1303800000000000    0.0951004514504568 F F F N
   0.6317400000000001    0.8803800000000001    0.0951004514504568 F F F N
   0.1317400000000000    0.5053800000000001    0.0166835835895521 F F F N
   0.1317400000000000    0.7553800000000001    0.0166835835895521 F F F N
   0.6317400000000001    0.6303800000000001    0.0951004514504568 F F F N
