substance_bottem
1.0
   2.7260000000000000    0.0000000000000000    0.0000000000000002
   0.0000000000000023   14.1679999999999993    0.0000000000000009
   0.0000000000000000    0.0000000000000000   49.3864786799999962
Cr N
33 36
Selective dynamics
direct
   0.3402200000000000    0.8341999999999999    0.1831470123352394 T T T Cr
   0.3398500000000000    0.9438900000000000    0.2342073107691346 T T T Cr
   0.8396200000000000    0.8041900000000000    0.2381962430693388 T T T Cr
   0.3424900000000000    0.5052899999999999    0.1811427212287329 T T T Cr
   0.3411600000000001    0.6162599999999999    0.2326647926136369 T T T Cr
   0.8405600000000000    0.6954299999999999    0.1845028563190527 T T T Cr
   0.8396199999999999    0.4771099999999999    0.2351505065839612 T T T Cr
   0.3371300000000000    0.4036000000000000    0.2818386994178788 T T T Cr
   0.3474099999999999    0.1683100000000000    0.1808872723622173 T T T Cr
   0.3412800000000000    0.2841300000000000    0.2294225570001704 T T T Cr
   0.8425500000000001    0.3646599999999999    0.1830782376404084 T T T Cr
   0.8385700000000001    0.1407000000000000    0.2317117718424059 T T T Cr
   0.3366500000000001    0.0740200000000000    0.2791761362322746 T T T Cr
   0.8365899999999998    0.2453000000000000    0.2806990044749633 T T T Cr
   0.3190500000000000    0.8541799999999999    0.0323437564834294 F F F Cr
   0.3182000000000000    0.9636699999999999    0.0816945125029514 F F F Cr
   0.8254899999999999    0.7978399999999999    0.0813309891159869 F F F Cr
   0.3320900000000000    0.7398699999999999    0.1299743482743888 F F F Cr
   0.8246500000000000    0.9073299999999999    0.1306719201791044 F F F Cr
   0.3338200000000000    0.5208600000000000    0.0323437564834294 F F F Cr
   0.3329700000000000    0.6303500000000000    0.0816945125029514 F F F Cr
   0.8263400000000001    0.6883500000000000    0.0319900580528695 F F F Cr
   0.8402600000000000    0.4645199999999999    0.0813309891159869 F F F Cr
   0.3468600000000000    0.4065500000000000    0.1299743482743889 F F F Cr
   0.8394100000000001    0.5740100000000000    0.1306719201791044 F F F Cr
   0.3485900000000000    0.1875400000000000    0.0323437564834294 F F F Cr
   0.3477400000000000    0.2970300000000000    0.0816945125029513 F F F Cr
   0.8411000000000001    0.3550300000000000    0.0319802330964650 F F F Cr
   0.8550300000000001    0.1312000000000000    0.0813309891159869 F F F Cr
   0.3616200000000001    0.0732300000000000    0.1299743482743889 F F F Cr
   0.8541799999999999    0.2406900000000000    0.1306719201791044 F F F Cr
   0.8436700000000000    0.0267600000000000    0.1826164646893995 T T T Cr
   0.8411000000000001    0.0233700000000000    0.0319802330964650 F F F Cr
   0.8385600000000000    0.9023899999999999    0.2079746771692693 T T T N
   0.3395500000000000    0.7405299999999999    0.2122878330308202 T T T N
   0.3399900000000000    0.8528099999999998    0.2653622475276263 T T T N
   0.8384500000000000    0.7960399999999999    0.1565705052612186 T T T N
   0.3341900000000000    0.9600099999999999    0.1573859766427874 T T T N
   0.8418500000000000    0.5746399999999999    0.2068055073571405 T T T N
   0.8372900000000001    0.6882999999999999    0.2657454208273997 T T T N
   0.3425300000000000    0.4098200000000000    0.2096350948016203 T T T N
   0.3391800000000000    0.5235400000000000    0.2616287640939377 T T T N
   0.8439100000000000    0.4641200000000000    0.1554111604054942 T T T N
   0.3401300000000000    0.6315100000000000    0.1579754740270541 T T T N
   0.8421599999999999    0.2412500000000000    0.2036811712205273 T T T N
   0.8378500000000000    0.3543200000000000    0.2562053881586846 T T T N
   0.3405900000000000    0.0683600000000000    0.2088490982892648 T T T N
   0.3378900000000000    0.1883700000000000    0.2575710570989023 T T T N
   0.8469400000000001    0.1279400000000000    0.1552441361466187 T T T N
   0.3466900000000000    0.2963600000000000    0.1570617530814408 T T T N
   0.8185500000000001    0.9097400000000000    0.0571910712302682 F F F N
   0.3259900000000000    0.7422800000000001    0.0564836743691482 F F F N
   0.3251400000000000    0.8517699999999999    0.1058246054322657 F F F N
   0.8326500000000000    0.7954399999999999    0.0078403152107463 F F F N
   0.3253600000000000    0.9612700000000000    0.0081940136413062 F F F N
   0.8333200000000001    0.5764199999999999    0.0571910712302682 F F F N
   0.8324300000000001    0.6859399999999999    0.1054709070017057 F F F N
   0.3407600000000000    0.4089599999999999    0.0564836743691482 F F F N
   0.3399100000000000    0.5184500000000000    0.1058246054322657 F F F N
   0.8474200000000000    0.4621199999999999    0.0078403152107463 F F F N
   0.3401300000000000    0.6279399999999999    0.0081940136413062 F F F N
   0.8480900000000000    0.2431000000000000    0.0571910712302682 F F F N
   0.8472000000000000    0.3526200000000000    0.1054709070017057 F F F N
   0.3555300000000001    0.0756400000000000    0.0564836743691482 F F F N
   0.3546800000000000    0.1851300000000000    0.1058246054322657 F F F N
   0.8621900000000000    0.1288000000000000    0.0078403152107463 F F F N
   0.3549000000000000    0.2946200000000000    0.0081940136413062 F F F N
   0.8379799999999999    0.0198500000000000    0.2556846654692491 T T T N
   0.8472000000000000    0.0209600000000000    0.1054709070017057 F F F N
