substance_top
1.0
   2.7260000000000000    0.0000000000000000    0.0000000000000002
   0.0000000000000023   14.1679999999999993    0.0000000000000009
   0.0000000000000000    0.0000000000000000   49.3864786799999962
Cr Fe W
3 45 7
Selective dynamics
direct
   0.3366600000000000    0.7370800000000000    0.3084704434732135 T T T Cr
   0.8391800000000001    0.9167299999999999    0.3045601108242448 T T T Cr
   0.8378500000000000    0.5692599999999999    0.3043144869141337 T T T Cr
   0.3284800000000000    0.9996199999999998    0.3717333377614280 T T T Fe
   0.3295700000000000    0.0997800000000000    0.4096871443517949 T T T Fe
   0.3467899999999999    0.1101100000000000    0.4865772531729732 F F F Fe
   0.3427100000000000    0.2722999999999999    0.4533296007003348 T T T Fe
   0.3457200000000000    0.0614800000000000    0.5673187449046935 F F F Fe
   0.3416300000000000    0.2236700000000000    0.5340710924320552 F F F Fe
   0.3375500000000000    0.3858699999999999    0.5008136150030125 F F F Fe
   0.3324800000000000    0.2996600000000000    0.3774023376067922 T T T Fe
   0.3292100000000000    0.3883400000000000    0.4197675496227545 T T T Fe
   0.3277600000000000    0.5880499999999999    0.3865690219321383 T T T Fe
   0.3334500000000000    0.5480600000000000    0.4675659625303741 T T T Fe
   0.3226400000000000    0.6702900000000001    0.4355857294339092 T T T Fe
   0.3246500000000000    0.8524799999999999    0.3942030130583912 T T T Fe
   0.3405600000000000    0.1750400000000000    0.6148027592073712 F F F Fe
   0.3364600000000000    0.3372400000000000    0.5815551067347328 F F F Fe
   0.3323800000000000    0.4994299999999999    0.5483074542620945 F F F Fe
   0.3272200000000001    0.6130100000000001    0.5957914685647719 F F F Fe
   0.3282900000000000    0.6616400000000000    0.5150499768330518 F F F Fe
   0.3242000000000000    0.8238399999999999    0.4818023243604134 F F F Fe
   0.3201000000000000    0.9860299999999999    0.4485546718877751 T T T Fe
   0.3231200000000000    0.7751999999999999    0.5625438160921338 F F F Fe
   0.3190300000000000    0.9373999999999999    0.5292961636194954 F F F Fe
   0.3179600000000001    0.8887699999999998    0.6100278303948112 F F F Fe
   0.8304500000000000    0.1350900000000000    0.4462654570455397 T T T Fe
   0.8293800000000000    0.0864600000000000    0.5270069487772601 F F F Fe
   0.8252900000000000    0.2486500000000000    0.4937592963046216 F F F Fe
   0.8318000000000001    0.1610600000000000    0.3740422025164722 T T T Fe
   0.8326799999999999    0.2478200000000000    0.4139413504749192 T T T Fe
   0.8297200000000000    0.4491300000000000    0.3828257135420452 T T T Fe
   0.8212000000000000    0.4108500000000000    0.4605018188755789 T T T Fe
   0.8270500000000000    0.5314400000000000    0.4255839238141852 T T T Fe
   0.8235800000000001    0.7229499999999999    0.4003632607239775 T T T Fe
   0.8283100000000000    0.0378300000000000    0.6077484405089802 F F F Fe
   0.8242199999999998    0.2000200000000000    0.5745007880363421 F F F Fe
   0.8201200000000000    0.3622300000000000    0.5412433106072994 F F F Fe
   0.8149599999999998    0.4757899999999999    0.5887371498663813 F F F Fe
   0.8160300000000001    0.5244200000000000    0.5079956581346610 F F F Fe
   0.8119400000000001    0.6866199999999999    0.4747480056620227 T T T Fe
   0.8176700000000001    0.8249400000000000    0.4393290378240023 T T T Fe
   0.8259300000000001    0.9640400000000000    0.4115047612866170 T T T Fe
   0.8108700000000000    0.6379899999999998    0.5554796724373385 F F F Fe
   0.8067700000000000    0.8001899999999998    0.5222320199647001 F F F Fe
   0.8026900000000001    0.9623799999999999    0.4889843674920619 F F F Fe
   0.8057000000000000    0.7515500000000001    0.6029636867400161 F F F Fe
   0.8016100000000002    0.9137599999999999    0.5697160342673778 F F F Fe
   0.3337000000000000    0.1884100000000000    0.3356266229750965 T T T W
   0.3323800000000001    0.4853300000000000    0.3433686886217983 T T T W
   0.3252800000000000    0.7474400000000000    0.3601005893785664 T T T W
   0.8334200000000000    0.0510400000000000    0.3354202988906032 T T T W
   0.8343200000000000    0.3458499999999999    0.3368842173948653 T T T W
   0.8274799999999999    0.6329300000000000    0.3443217093930293 T T T W
   0.8260400000000001    0.8794399999999999    0.3464046001507716 T T T W
