substance_top
1.0
   2.9630000000000001    0.0000000000000000    0.0000000000000002
   0.0000000000000025   15.3989999999999991    0.0000000000000009
   0.0000000000000000    0.0000000000000000   48.5020000000000024
Fe
52
Selective dynamics
direct
   0.3530400000000001    0.0451600000000000    0.3466558080079172 T T T Fe
   0.3478800000000001    0.1587300000000000    0.3950043297183621 T T T Fe
   0.3467900000000000    0.1101100000000000    0.4772174343326048 F F F Fe
   0.3427100000000000    0.2723000000000000    0.4433631602820502 F F F Fe
   0.3457200000000001    0.0614800000000000    0.5594305389468475 F F F Fe
   0.3416300000000000    0.2236700000000000    0.5255762648962929 F F F Fe
   0.3375500000000000    0.3858699999999999    0.4917116819924951 F F F Fe
   0.3489500000000000    0.2073600000000000    0.3127912251041194 T T T Fe
   0.3437800000000000    0.3209400000000000    0.3611500556678076 T T T Fe
   0.3396899999999999    0.4831299999999999    0.3272957816172529 T T T Fe
   0.3386200000000000    0.4344999999999999    0.4094985773782525 T T T Fe
   0.3345300000000000    0.5967000000000000    0.3756443033276978 T T T Fe
   0.3304300000000001    0.7588900000000000    0.3417900292771432 T T T Fe
   0.3334500000000000    0.5480600000000000    0.4578574079419406 F F F Fe
   0.3293600000000000    0.7102600000000000    0.4240031338913859 T T T Fe
   0.3252700000000000    0.8724700000000000    0.3901385509875882 T T T Fe
   0.3405600000000000    0.1750400000000000    0.6077790606572925 F F F Fe
   0.3364600000000000    0.3372400000000000    0.5739247866067378 F F F Fe
   0.3323800000000000    0.4994300000000000    0.5400705125561832 F F F Fe
   0.3272200000000001    0.6130100000000001    0.5884190342666282 F F F Fe
   0.3282900000000001    0.6616400000000000    0.5062059296523854 F F F Fe
   0.3242000000000000    0.8238400000000000    0.4723516556018308 F F F Fe
   0.3201000000000000    0.9860300000000000    0.4384973815512763 F F F Fe
   0.3231200000000000    0.7752000000000000    0.5545647602160736 F F F Fe
   0.3190300000000000    0.9374000000000000    0.5207104861655190 F F F Fe
   0.3179600000000001    0.8887699999999999    0.6029132819265184 F F F Fe
   0.8304500000000001    0.1350900000000000    0.4361675807183210 F F F Fe
   0.8293799999999999    0.0864600000000000    0.5183806853325635 F F F Fe
   0.8252900000000000    0.2486500000000000    0.4845264112820090 F F F Fe
   0.8366899999999999    0.0701500000000000    0.3056059543936333 T T T Fe
   0.8315300000000000    0.1837200000000000    0.3539544761040782 T T T Fe
   0.8274300000000000    0.3459199999999999    0.3201002020535235 T T T Fe
   0.8263600000000001    0.2972799999999999    0.4023133066677663 T T T Fe
   0.8222700000000002    0.4594800000000000    0.3684590326172116 T T T Fe
   0.8181899999999999    0.6216800000000000    0.3345944497134139 T T T Fe
   0.8212000000000000    0.4108500000000000    0.4506618283782112 F F F Fe
   0.8171000000000002    0.5730499999999999    0.4168075543276565 T T T Fe
   0.8130200000000000    0.7352500000000000    0.3829532802771020 T T T Fe
   0.8089300000000000    0.8974500000000000    0.3490886973733042 T T T Fe
   0.8283100000000000    0.0378300000000000    0.6005937899468063 F F F Fe
   0.8242200000000000    0.2000200000000000    0.5667395158962517 F F F Fe
   0.8201199999999998    0.3622300000000000    0.5328749329924539 F F F Fe
   0.8149600000000000    0.4757900000000000    0.5812337635561420 F F F Fe
   0.8160300000000000    0.5244200000000000    0.4990206589418993 F F F Fe
   0.8119400000000001    0.6866200000000000    0.4651663848913447 F F F Fe
   0.8078600000000001    0.8488200000000000    0.4313018019875469 T T T Fe
   0.8037600000000000    0.0110100000000000    0.3974475279369923 T T T Fe
   0.8108700000000001    0.6379899999999999    0.5473691806523443 F F F Fe
   0.8067700000000001    0.8001900000000000    0.5135149066017896 F F F Fe
   0.8026900000000000    0.9623800000000000    0.4796606325512350 F F F Fe
   0.8056999999999999    0.7515500000000001    0.5957280112160324 F F F Fe
   0.8016100000000000    0.9137599999999999    0.5618737371654776 F F F Fe
