Ti96 Sn1
1.0
9.513020 0.000000 0.000000
0.000000 9.350860 0.000000
0.000000 0.000000 18.547230
Ti Sn
96 1
Selective dynamics
direct
0.145855 0.379313 0.401413 T T T Ti
0.656937 0.342599 0.392561 T T T Ti
0.129639 0.860070 0.398668 T T T Ti
0.674741 0.862898 0.403502 T T T Ti
0.162468 0.370014 0.236383 T T T Ti
0.655397 0.373424 0.233739 T T T Ti
0.165361 0.874861 0.234312 T T T Ti
0.657432 0.871246 0.234170 T T T Ti
0.166672 0.375037 0.077665 F F F Ti
0.666679 0.375009 0.077632 F F F Ti
0.166662 0.874987 0.077677 F F F Ti
0.666685 0.874985 0.077651 F F F Ti
0.405532 0.395342 0.318605 T T T Ti
0.905537 0.378699 0.318167 T T T Ti
0.398092 0.884446 0.325735 T T T Ti
0.907449 0.880598 0.310164 T T T Ti
0.416690 0.375011 0.155244 F F F Ti
0.916685 0.374964 0.155245 F F F Ti
0.416659 0.874994 0.155275 F F F Ti
0.916692 0.874980 0.155268 F F F Ti
0.416662 0.375036 -0.000024 F F F Ti
0.916638 0.375021 -0.000011 F F F Ti
0.416658 0.874976 -0.000041 F F F Ti
0.916649 0.874986 -0.000022 F F F Ti
0.094463 0.121302 0.318166 T T T Ti
0.594468 0.104658 0.318604 T T T Ti
0.092551 0.619403 0.310163 T T T Ti
0.601908 0.615554 0.325734 T T T Ti
0.083315 0.125046 0.155245 F F F Ti
0.583310 0.124998 0.155245 F F F Ti
0.083308 0.625030 0.155268 F F F Ti
0.583341 0.625015 0.155275 F F F Ti
0.083364 0.124986 -0.000010 F F F Ti
0.583339 0.124973 -0.000022 F F F Ti
0.083351 0.625025 -0.000022 F F F Ti
0.583343 0.625035 -0.000041 F F F Ti
0.343062 0.157401 0.392561 T T T Ti
0.854144 0.120687 0.401413 T T T Ti
0.325258 0.637102 0.403502 T T T Ti
0.870360 0.639930 0.398668 T T T Ti
0.344602 0.126578 0.233739 T T T Ti
0.837531 0.129988 0.236383 T T T Ti
0.342567 0.628755 0.234170 T T T Ti
0.834638 0.625140 0.234311 T T T Ti
0.333320 0.125000 0.077633 F F F Ti
0.833328 0.124971 0.077665 F F F Ti
0.333314 0.625025 0.077651 F F F Ti
0.833337 0.625022 0.077677 F F F Ti
0.374969 0.375046 0.823920 F F F Ti
0.874983 0.374974 0.823925 F F F Ti
0.375048 0.874902 0.823794 F F F Ti
0.875052 0.874986 0.823853 F F F Ti
0.125021 0.125016 0.823925 F F F Ti
0.625037 0.124955 0.823921 F F F Ti
0.124952 0.625014 0.823854 F F F Ti
0.624956 0.625090 0.823795 F F F Ti
0.124982 0.375032 0.910181 F F F Ti
0.625009 0.375027 0.910168 F F F Ti
0.125025 0.874962 0.910143 F F F Ti
0.624994 0.874966 0.910133 F F F Ti
0.374996 0.124972 0.910168 F F F Ti
0.875024 0.124966 0.910181 F F F Ti
0.375010 0.625034 0.910132 F F F Ti
0.874980 0.625038 0.910142 F F F Ti
0.386198 0.375397 0.668086 T T T Ti
0.879039 0.391154 0.646503 T T T Ti
0.382955 0.890466 0.654855 T T T Ti
0.895838 0.881049 0.661469 T T T Ti
0.120960 0.108843 0.646503 T T T Ti
0.613800 0.124598 0.668086 T T T Ti
0.104160 0.618946 0.661469 T T T Ti
0.617044 0.609530 0.654855 T T T Ti
0.137693 0.363378 0.574715 T T T Ti
0.629058 0.344865 0.574706 T T T Ti
0.147642 0.849760 0.571861 T T T Ti
0.674658 0.912815 0.579564 T T T Ti
0.370942 0.155134 0.574706 T T T Ti
0.862306 0.136621 0.574714 T T T Ti
0.325341 0.587183 0.579564 T T T Ti
0.852358 0.650239 0.571862 T T T Ti
0.398159 0.388241 0.480543 T T T Ti
0.888368 0.374999 0.488269 T T T Ti
0.340905 0.946410 0.478255 T T T Ti
0.913233 0.894749 0.491582 T T T Ti
0.111632 0.125001 0.488269 T T T Ti
0.601840 0.111759 0.480543 T T T Ti
0.086766 0.605250 0.491582 T T T Ti
0.659095 0.553590 0.478255 T T T Ti
0.125411 0.875028 0.737697 F F F Ti
0.625065 0.874845 0.737682 F F F Ti
0.374926 0.625138 0.737680 F F F Ti
0.874580 0.624954 0.737701 F F F Ti
0.124794 0.374882 0.737758 F F F Ti
0.625100 0.374831 0.737768 F F F Ti
0.374892 0.125146 0.737767 F F F Ti
0.875197 0.125096 0.737755 F F F Ti
0.500000 0.750000 0.513161 T T T Sn

0.000000 0.000000 0.000000
0.000000 0.000000 0.000000
0.000000 0.000000 0.000000
0.000000 0.000000 0.000000
0.000000 0.000000 0.000000
0.000000 0.000000 0.000000
0.000000 0.000000 0.000000
0.000000 0.000000 0.000000
0.000000 0.000000 0.000000
0.000000 0.000000 0.000000
0.000000 0.000000 0.000000
0.000000 0.000000 0.000000
0.000000 0.000000 0.000000
0.000000 0.000000 0.000000
0.000000 0.000000 0.000000
0.000000 0.000000 0.000000
0.000000 0.000000 0.000000
0.000000 0.000000 0.000000
0.000000 0.000000 0.000000
0.000000 0.000000 0.000000
0.000000 0.000000 0.000000
0.000000 0.000000 0.000000
0.000000 0.000000 0.000000
0.000000 0.000000 0.000000
0.000000 0.000000 0.000000
0.000000 0.000000 0.000000
0.000000 0.000000 0.000000
0.000000 0.000000 0.000000
0.000000 0.000000 0.000000
0.000000 0.000000 0.000000
0.000000 0.000000 0.000000
0.000000 0.000000 0.000000
0.000000 0.000000 0.000000
0.000000 0.000000 0.000000
0.000000 0.000000 0.000000
0.000000 0.000000 0.000000
0.000000 0.000000 0.000000
0.000000 0.000000 0.000000
0.000000 0.000000 0.000000
0.000000 0.000000 0.000000
0.000000 0.000000 0.000000
0.000000 0.000000 0.000000
0.000000 0.000000 0.000000
0.000000 0.000000 0.000000
0.000000 0.000000 0.000000
0.000000 0.000000 0.000000
0.000000 0.000000 0.000000
0.000000 0.000000 0.000000
0.000000 0.000000 0.000000
0.000000 0.000000 0.000000
0.000000 0.000000 0.000000
0.000000 0.000000 0.000000
0.000000 0.000000 0.000000
0.000000 0.000000 0.000000
0.000000 0.000000 0.000000
0.000000 0.000000 0.000000
0.000000 0.000000 0.000000
0.000000 0.000000 0.000000
0.000000 0.000000 0.000000
0.000000 0.000000 0.000000
0.000000 0.000000 0.000000
0.000000 0.000000 0.000000
0.000000 0.000000 0.000000
0.000000 0.000000 0.000000
0.000000 0.000000 0.000000
0.000000 0.000000 0.000000
0.000000 0.000000 0.000000
0.000000 0.000000 0.000000
0.000000 0.000000 0.000000
0.000000 0.000000 0.000000
0.000000 0.000000 0.000000
0.000000 0.000000 0.000000
0.000000 0.000000 0.000000
0.000000 0.000000 0.000000
0.000000 0.000000 0.000000
0.000000 0.000000 0.000000
0.000000 0.000000 0.000000
0.000000 0.000000 0.000000
0.000000 0.000000 0.000000
0.000000 0.000000 0.000000
0.000000 0.000000 0.000000
0.000000 0.000000 0.000000
0.000000 0.000000 0.000000
0.000000 0.000000 0.000000
0.000000 0.000000 0.000000
0.000000 0.000000 0.000000
0.000000 0.000000 0.000000
0.000000 0.000000 0.000000
0.000000 0.000000 0.000000
0.000000 0.000000 0.000000
0.000000 0.000000 0.000000
0.000000 0.000000 0.000000
0.000000 0.000000 0.000000
0.000000 0.000000 0.000000
0.000000 0.000000 0.000000
0.000000 0.000000 0.000000
0.000000 0.000000 0.000000
