Ti96 Mo1
1.0
9.513020 0.000000 0.000000
0.000000 9.350860 0.000000
0.000000 0.000000 18.547230
Ti Mo
96 1
Selective dynamics
direct
0.146655 0.370452 0.401403 T T T Ti
0.665358 0.363056 0.386979 T T T Ti
0.150064 0.867338 0.402127 T T T Ti
0.656900 0.857020 0.415073 T T T Ti
0.162861 0.369775 0.237635 T T T Ti
0.656074 0.373516 0.235258 T T T Ti
0.161228 0.873481 0.235420 T T T Ti
0.662531 0.873938 0.234150 T T T Ti
0.166666 0.375000 0.077689 F F F Ti
0.666666 0.375000 0.077689 F F F Ti
0.166666 0.875000 0.077689 F F F Ti
0.666666 0.875000 0.077689 F F F Ti
0.407408 0.389218 0.320049 T T T Ti
0.914551 0.381979 0.316610 T T T Ti
0.403278 0.870588 0.317234 T T T Ti
0.901174 0.875603 0.318530 T T T Ti
0.416667 0.375000 0.155379 F F F Ti
0.916667 0.375000 0.155379 F F F Ti
0.416667 0.875000 0.155379 F F F Ti
0.916667 0.875000 0.155379 F F F Ti
0.416667 0.375000 0.000000 F F F Ti
0.916667 0.375000 0.000000 F F F Ti
0.416667 0.875000 0.000000 F F F Ti
0.916667 0.875000 0.000000 F F F Ti
0.085449 0.118021 0.316609 T T T Ti
0.592592 0.110782 0.320048 T T T Ti
0.098826 0.624397 0.318529 T T T Ti
0.596722 0.629412 0.317233 T T T Ti
0.083333 0.125000 0.155379 F F F Ti
0.583333 0.125000 0.155379 F F F Ti
0.083333 0.625000 0.155379 F F F Ti
0.583333 0.625000 0.155379 F F F Ti
0.083333 0.125000 0.000000 F F F Ti
0.583333 0.125000 0.000000 F F F Ti
0.083333 0.625000 0.000000 F F F Ti
0.583333 0.625000 0.000000 F F F Ti
0.334641 0.136944 0.386979 T T T Ti
0.853344 0.129548 0.401403 T T T Ti
0.343099 0.642980 0.415073 T T T Ti
0.849935 0.632662 0.402127 T T T Ti
0.343925 0.126484 0.235258 T T T Ti
0.837138 0.130225 0.237635 T T T Ti
0.337468 0.626062 0.234150 T T T Ti
0.838771 0.626519 0.235420 T T T Ti
0.333333 0.125000 0.077689 F F F Ti
0.833333 0.125000 0.077689 F F F Ti
0.333333 0.625000 0.077689 F F F Ti
0.833333 0.625000 0.077689 F F F Ti
0.375000 0.375000 0.823738 F F F Ti
0.875000 0.375000 0.823738 F F F Ti
0.375000 0.875000 0.823738 F F F Ti
0.875000 0.875000 0.823738 F F F Ti
0.125000 0.125000 0.823738 F F F Ti
0.625000 0.125000 0.823738 F F F Ti
0.125000 0.625000 0.823738 F F F Ti
0.625000 0.625000 0.823738 F F F Ti
0.125000 0.375000 0.910084 F F F Ti
0.625000 0.375000 0.910084 F F F Ti
0.125000 0.875000 0.910084 F F F Ti
0.625000 0.875000 0.910084 F F F Ti
0.375000 0.125000 0.910084 F F F Ti
0.875000 0.125000 0.910084 F F F Ti
0.375000 0.625000 0.910084 F F F Ti
0.875000 0.625000 0.910084 F F F Ti
0.377411 0.367563 0.672893 T T T Ti
0.877198 0.399253 0.647392 T T T Ti
0.374563 0.884995 0.664306 T T T Ti
0.910551 0.879804 0.647434 T T T Ti
0.122802 0.100747 0.647392 T T T Ti
0.622589 0.132437 0.672893 T T T Ti
0.089449 0.620196 0.647434 T T T Ti
0.625437 0.615005 0.664306 T T T Ti
0.132219 0.350675 0.573879 T T T Ti
0.626406 0.365026 0.579453 T T T Ti
0.175773 0.845891 0.558232 T T T Ti
0.673205 0.932873 0.573080 T T T Ti
0.373594 0.134974 0.579453 T T T Ti
0.867781 0.149325 0.573879 T T T Ti
0.326795 0.567127 0.573080 T T T Ti
0.824227 0.654109 0.558232 T T T Ti
0.393029 0.355198 0.477599 T T T Ti
0.878192 0.387912 0.490875 T T T Ti
0.402285 -0.077058 0.473007 T T T Ti
0.917609 0.890982 0.486801 T T T Ti
0.121808 0.112088 0.490875 T T T Ti
0.606971 0.144802 0.477599 T T T Ti
0.082391 0.609018 0.486801 T T T Ti
0.597715 0.577058 0.473007 T T T Ti
0.125000 0.875000 0.737395 F F F Ti
0.625000 0.875000 0.737395 F F F Ti
0.375000 0.625000 0.737395 F F F Ti
0.875000 0.625000 0.737395 F F F Ti
0.125000 0.375000 0.737395 F F F Ti
0.625000 0.375000 0.737395 F F F Ti
0.375000 0.125000 0.737395 F F F Ti
0.875000 0.125000 0.737395 F F F Ti
0.500000 0.750000 0.565550 T T T Mo

0.000000 0.000000 0.000000
0.000000 0.000000 0.000000
0.000000 0.000000 0.000000
0.000000 0.000000 0.000000
0.000000 0.000000 0.000000
0.000000 0.000000 0.000000
0.000000 0.000000 0.000000
0.000000 0.000000 0.000000
0.000000 0.000000 0.000000
0.000000 0.000000 0.000000
0.000000 0.000000 0.000000
0.000000 0.000000 0.000000
0.000000 0.000000 0.000000
0.000000 0.000000 0.000000
0.000000 0.000000 0.000000
0.000000 0.000000 0.000000
0.000000 0.000000 0.000000
0.000000 0.000000 0.000000
0.000000 0.000000 0.000000
0.000000 0.000000 0.000000
0.000000 0.000000 0.000000
0.000000 0.000000 0.000000
0.000000 0.000000 0.000000
0.000000 0.000000 0.000000
0.000000 0.000000 0.000000
0.000000 0.000000 0.000000
0.000000 0.000000 0.000000
0.000000 0.000000 0.000000
0.000000 0.000000 0.000000
0.000000 0.000000 0.000000
0.000000 0.000000 0.000000
0.000000 0.000000 0.000000
0.000000 0.000000 0.000000
0.000000 0.000000 0.000000
0.000000 0.000000 0.000000
0.000000 0.000000 0.000000
0.000000 0.000000 0.000000
0.000000 0.000000 0.000000
0.000000 0.000000 0.000000
0.000000 0.000000 0.000000
0.000000 0.000000 0.000000
0.000000 0.000000 0.000000
0.000000 0.000000 0.000000
0.000000 0.000000 0.000000
0.000000 0.000000 0.000000
0.000000 0.000000 0.000000
0.000000 0.000000 0.000000
0.000000 0.000000 0.000000
0.000000 0.000000 0.000000
0.000000 0.000000 0.000000
0.000000 0.000000 0.000000
0.000000 0.000000 0.000000
0.000000 0.000000 0.000000
0.000000 0.000000 0.000000
0.000000 0.000000 0.000000
0.000000 0.000000 0.000000
0.000000 0.000000 0.000000
0.000000 0.000000 0.000000
0.000000 0.000000 0.000000
0.000000 0.000000 0.000000
0.000000 0.000000 0.000000
0.000000 0.000000 0.000000
0.000000 0.000000 0.000000
0.000000 0.000000 0.000000
0.000000 0.000000 0.000000
0.000000 0.000000 0.000000
0.000000 0.000000 0.000000
0.000000 0.000000 0.000000
0.000000 0.000000 0.000000
0.000000 0.000000 0.000000
0.000000 0.000000 0.000000
0.000000 0.000000 0.000000
0.000000 0.000000 0.000000
0.000000 0.000000 0.000000
0.000000 0.000000 0.000000
0.000000 0.000000 0.000000
0.000000 0.000000 0.000000
0.000000 0.000000 0.000000
0.000000 0.000000 0.000000
0.000000 0.000000 0.000000
0.000000 0.000000 0.000000
0.000000 0.000000 0.000000
0.000000 0.000000 0.000000
0.000000 0.000000 0.000000
0.000000 0.000000 0.000000
0.000000 0.000000 0.000000
0.000000 0.000000 0.000000
0.000000 0.000000 0.000000
0.000000 0.000000 0.000000
0.000000 0.000000 0.000000
0.000000 0.000000 0.000000
0.000000 0.000000 0.000000
0.000000 0.000000 0.000000
0.000000 0.000000 0.000000
0.000000 0.000000 0.000000
0.000000 0.000000 0.000000
0.000000 0.000000 0.000000
