Ti66 Al1
1.0
6.309760 0.000000 0.000000
0.000000 9.464640 0.000000
0.000000 0.000000 18.918326
Ti Al
66 1
Selective dynamics
direct
0.136700 0.033037 0.472374 T T T Ti
0.632398 0.058929 0.488459 T T T Ti
0.126379 0.054883 0.656293 T T T Ti
0.626526 0.062596 0.645860 T T T Ti
0.125321 0.041249 0.817579 F F F Ti
0.625395 0.041241 0.817538 F F F Ti
0.628983 0.376858 0.477079 T T T Ti
0.126311 0.385574 0.654100 T T T Ti
0.625963 0.372678 0.643987 T T T Ti
0.125465 0.374687 0.817723 F F F Ti
0.625407 0.375001 0.817533 F F F Ti
0.126125 0.727607 0.488646 T T T Ti
0.622154 0.730774 0.501050 T T T Ti
0.125781 0.698922 0.644483 T T T Ti
0.624572 0.702711 0.648588 T T T Ti
0.125261 0.708187 0.817501 F F F Ti
0.625078 0.707975 0.817329 F F F Ti
0.350652 0.224846 0.558751 T T T Ti
0.903389 0.224851 0.559885 T T T Ti
0.376591 0.208015 0.738616 F F F Ti
0.874889 0.208028 0.738690 F F F Ti
0.375422 0.208382 0.896543 F F F Ti
0.875098 0.208402 0.896551 F F F Ti
0.355036 0.527152 0.553642 T T T Ti
0.895231 0.528775 0.554065 T T T Ti
0.374907 0.540778 0.738422 F F F Ti
0.875981 0.540887 0.738411 F F F Ti
0.375185 0.541866 0.896487 F F F Ti
0.875162 0.541891 0.896477 F F F Ti
0.363851 0.898159 0.572604 T T T Ti
0.889674 0.897441 0.572423 T T T Ti
0.376086 0.874125 0.738281 F F F Ti
0.874805 0.874002 0.738218 F F F Ti
0.375276 0.875269 0.896545 F F F Ti
0.875019 0.875234 0.896530 F F F Ti
0.127731 0.597215 0.371504 T T T Ti
0.620808 0.615165 0.375310 T T T Ti
0.125340 0.627498 0.118222 F F F Ti
0.624782 0.627672 0.117863 F F F Ti
0.634333 0.107076 0.358360 T T T Ti
0.125700 0.126777 0.119148 F F F Ti
0.625104 0.126648 0.118355 F F F Ti
0.125301 0.376130 0.039085 F F F Ti
0.625126 0.376254 0.038869 F F F Ti
0.124995 0.876625 0.039647 F F F Ti
0.624826 0.876471 0.039449 F F F Ti
0.126952 0.385190 0.271724 T T T Ti
0.621238 0.379992 0.279290 T T T Ti
0.125311 0.865508 0.284353 T T T Ti
0.625354 0.867968 0.273404 T T T Ti
0.375224 0.877932 0.158529 F F F Ti
0.874988 0.877616 0.158399 F F F Ti
0.375067 0.377050 0.157103 F F F Ti
0.875515 0.377486 0.157092 F F F Ti
0.365313 0.329269 0.384324 T T T Ti
0.872045 0.345462 0.379470 T T T Ti
0.405145 0.869489 0.396402 T T T Ti
0.847863 0.866919 0.396720 T T T Ti
0.378134 0.624136 0.247511 T T T Ti
0.871845 0.624170 0.247572 T T T Ti
0.374801 0.626433 -0.000314 F F F Ti
0.875208 0.626430 -0.000307 F F F Ti
0.381159 0.125508 0.245877 T T T Ti
0.870202 0.125918 0.244754 T T T Ti
0.374880 0.125697 0.000041 F F F Ti
0.875383 0.125699 0.000043 F F F Ti
0.083254 0.223532 0.431153 T T T Al

0.000000 0.000000 0.000000
0.000000 0.000000 0.000000
0.000000 0.000000 0.000000
0.000000 0.000000 0.000000
0.000000 0.000000 0.000000
0.000000 0.000000 0.000000
0.000000 0.000000 0.000000
0.000000 0.000000 0.000000
0.000000 0.000000 0.000000
0.000000 0.000000 0.000000
0.000000 0.000000 0.000000
0.000000 0.000000 0.000000
0.000000 0.000000 0.000000
0.000000 0.000000 0.000000
0.000000 0.000000 0.000000
0.000000 0.000000 0.000000
0.000000 0.000000 0.000000
0.000000 0.000000 0.000000
0.000000 0.000000 0.000000
0.000000 0.000000 0.000000
0.000000 0.000000 0.000000
0.000000 0.000000 0.000000
0.000000 0.000000 0.000000
0.000000 0.000000 0.000000
0.000000 0.000000 0.000000
0.000000 0.000000 0.000000
0.000000 0.000000 0.000000
0.000000 0.000000 0.000000
0.000000 0.000000 0.000000
0.000000 0.000000 0.000000
0.000000 0.000000 0.000000
0.000000 0.000000 0.000000
0.000000 0.000000 0.000000
0.000000 0.000000 0.000000
0.000000 0.000000 0.000000
0.000000 0.000000 0.000000
0.000000 0.000000 0.000000
0.000000 0.000000 0.000000
0.000000 0.000000 0.000000
0.000000 0.000000 0.000000
0.000000 0.000000 0.000000
0.000000 0.000000 0.000000
0.000000 0.000000 0.000000
0.000000 0.000000 0.000000
0.000000 0.000000 0.000000
0.000000 0.000000 0.000000
0.000000 0.000000 0.000000
0.000000 0.000000 0.000000
0.000000 0.000000 0.000000
0.000000 0.000000 0.000000
0.000000 0.000000 0.000000
0.000000 0.000000 0.000000
0.000000 0.000000 0.000000
0.000000 0.000000 0.000000
0.000000 0.000000 0.000000
0.000000 0.000000 0.000000
0.000000 0.000000 0.000000
0.000000 0.000000 0.000000
0.000000 0.000000 0.000000
0.000000 0.000000 0.000000
0.000000 0.000000 0.000000
0.000000 0.000000 0.000000
0.000000 0.000000 0.000000
0.000000 0.000000 0.000000
0.000000 0.000000 0.000000
0.000000 0.000000 0.000000
0.000000 0.000000 0.000000
