Ti96 Mo1
1.0
9.513020 0.000000 0.000000
0.000000 9.350860 0.000000
0.000000 0.000000 18.547230
Ti Mo
96 1
Selective dynamics
direct
0.141711 0.370363 0.407537 T T T Ti
0.656701 0.351648 0.416668 T T T Ti
0.159867 0.859253 0.408247 T T T Ti
0.666667 0.897725 0.403986 T T T Ti
0.148582 0.369732 0.239318 T T T Ti
0.664446 0.364802 0.229298 T T T Ti
0.163604 0.865657 0.237041 T T T Ti
0.670416 0.889992 0.243828 T T T Ti
0.166576 0.375056 0.077390 F F F Ti
0.666778 0.374898 0.077367 F F F Ti
0.166707 0.875059 0.077574 F F F Ti
0.666623 0.874919 0.077574 F F F Ti
0.398930 0.359305 0.320029 T T T Ti
0.895093 0.375365 0.323870 T T T Ti
0.380955 0.942976 0.326173 T T T Ti
0.919527 0.879991 0.321372 T T T Ti
0.416883 0.374818 0.154890 F F F Ti
0.916715 0.374730 0.154935 F F F Ti
0.416487 0.874975 0.155603 F F F Ti
0.917069 0.875134 0.154978 F F F Ti
0.416693 0.375041 -0.000166 F F F Ti
0.916621 0.374982 -0.000200 F F F Ti
0.416671 0.874964 0.000006 F F F Ti
0.916670 0.874978 -0.000148 F F F Ti
0.104907 0.124635 0.323869 T T T Ti
0.601070 0.140695 0.320027 T T T Ti
0.080472 0.620011 0.321371 T T T Ti
0.619046 0.557025 0.326173 T T T Ti
0.083283 0.125292 0.154931 F F F Ti
0.583118 0.125207 0.154887 F F F Ti
0.082929 0.624886 0.154980 F F F Ti
0.583516 0.625017 0.155603 F F F Ti
0.083380 0.125022 -0.000202 F F F Ti
0.583307 0.124970 -0.000166 F F F Ti
0.083329 0.625024 -0.000146 F F F Ti
0.583332 0.625026 0.000007 F F F Ti
0.343298 0.148352 0.416668 T T T Ti
0.858288 0.129637 0.407537 T T T Ti
0.333332 0.602275 0.403986 T T T Ti
0.840132 0.640747 0.408247 T T T Ti
0.335554 0.135200 0.229297 T T T Ti
0.851417 0.130271 0.239317 T T T Ti
0.329582 0.610011 0.243829 T T T Ti
0.836395 0.634348 0.237041 T T T Ti
0.333222 0.125116 0.077366 F F F Ti
0.833423 0.124958 0.077390 F F F Ti
0.333375 0.625089 0.077574 F F F Ti
0.833293 0.624949 0.077575 F F F Ti
0.375041 0.375069 0.823687 F F F Ti
0.874910 0.375037 0.823703 F F F Ti
0.375055 0.874951 0.823626 F F F Ti
0.874903 0.874955 0.823679 F F F Ti
0.125093 0.124955 0.823703 F F F Ti
0.624962 0.124932 0.823688 F F F Ti
0.125099 0.625038 0.823679 F F F Ti
0.624948 0.625042 0.823626 F F F Ti
0.124993 0.375036 0.909995 F F F Ti
0.625003 0.375022 0.910014 F F F Ti
0.125050 0.874975 0.910036 F F F Ti
0.624954 0.874947 0.910067 F F F Ti
0.375002 0.124979 0.910015 F F F Ti
0.875012 0.124964 0.909994 F F F Ti
0.375048 0.625038 0.910068 F F F Ti
0.874955 0.625015 0.910038 F F F Ti
0.393679 0.389926 0.654315 T T T Ti
0.901424 0.380322 0.652449 T T T Ti
0.396939 0.878653 0.653155 T T T Ti
0.891609 0.884138 0.655763 T T T Ti
0.098575 0.119674 0.652449 T T T Ti
0.606319 0.110070 0.654315 T T T Ti
0.108389 0.615858 0.655763 T T T Ti
0.603060 0.621344 0.653155 T T T Ti
0.151345 0.370225 0.569204 T T T Ti
0.650972 0.362365 0.582228 T T T Ti
0.146304 0.865321 0.577481 T T T Ti
0.653590 0.862775 0.566778 T T T Ti
0.349028 0.137634 0.582228 T T T Ti
0.848655 0.129774 0.569204 T T T Ti
0.346409 0.637224 0.566778 T T T Ti
0.853695 0.634678 0.577481 T T T Ti
0.405496 0.380187 0.495314 T T T Ti
0.899013 0.382627 0.491351 T T T Ti
0.393301 0.898024 0.496794 T T T Ti
0.911312 0.879116 0.489444 T T T Ti
0.100987 0.117372 0.491351 T T T Ti
0.594504 0.119812 0.495314 T T T Ti
0.088687 0.620884 0.489444 T T T Ti
0.606699 0.601976 0.496794 T T T Ti
0.125063 0.875008 0.737490 F F F Ti
0.624971 0.874971 0.737443 F F F Ti
0.375024 0.625014 0.737442 F F F Ti
0.874930 0.624975 0.737492 F F F Ti
0.124958 0.374989 0.737528 F F F Ti
0.625017 0.374993 0.737489 F F F Ti
0.374978 0.124993 0.737490 F F F Ti
0.875035 0.124996 0.737527 F F F Ti
0.500000 0.750000 0.337645 T T T Mo

0.000000 0.000000 0.000000
0.000000 0.000000 0.000000
0.000000 0.000000 0.000000
0.000000 0.000000 0.000000
0.000000 0.000000 0.000000
0.000000 0.000000 0.000000
0.000000 0.000000 0.000000
0.000000 0.000000 0.000000
0.000000 0.000000 0.000000
0.000000 0.000000 0.000000
0.000000 0.000000 0.000000
0.000000 0.000000 0.000000
0.000000 0.000000 0.000000
0.000000 0.000000 0.000000
0.000000 0.000000 0.000000
0.000000 0.000000 0.000000
0.000000 0.000000 0.000000
0.000000 0.000000 0.000000
0.000000 0.000000 0.000000
0.000000 0.000000 0.000000
0.000000 0.000000 0.000000
0.000000 0.000000 0.000000
0.000000 0.000000 0.000000
0.000000 0.000000 0.000000
0.000000 0.000000 0.000000
0.000000 0.000000 0.000000
0.000000 0.000000 0.000000
0.000000 0.000000 0.000000
0.000000 0.000000 0.000000
0.000000 0.000000 0.000000
0.000000 0.000000 0.000000
0.000000 0.000000 0.000000
0.000000 0.000000 0.000000
0.000000 0.000000 0.000000
0.000000 0.000000 0.000000
0.000000 0.000000 0.000000
0.000000 0.000000 0.000000
0.000000 0.000000 0.000000
0.000000 0.000000 0.000000
0.000000 0.000000 0.000000
0.000000 0.000000 0.000000
0.000000 0.000000 0.000000
0.000000 0.000000 0.000000
0.000000 0.000000 0.000000
0.000000 0.000000 0.000000
0.000000 0.000000 0.000000
0.000000 0.000000 0.000000
0.000000 0.000000 0.000000
0.000000 0.000000 0.000000
0.000000 0.000000 0.000000
0.000000 0.000000 0.000000
0.000000 0.000000 0.000000
0.000000 0.000000 0.000000
0.000000 0.000000 0.000000
0.000000 0.000000 0.000000
0.000000 0.000000 0.000000
0.000000 0.000000 0.000000
0.000000 0.000000 0.000000
0.000000 0.000000 0.000000
0.000000 0.000000 0.000000
0.000000 0.000000 0.000000
0.000000 0.000000 0.000000
0.000000 0.000000 0.000000
0.000000 0.000000 0.000000
0.000000 0.000000 0.000000
0.000000 0.000000 0.000000
0.000000 0.000000 0.000000
0.000000 0.000000 0.000000
0.000000 0.000000 0.000000
0.000000 0.000000 0.000000
0.000000 0.000000 0.000000
0.000000 0.000000 0.000000
0.000000 0.000000 0.000000
0.000000 0.000000 0.000000
0.000000 0.000000 0.000000
0.000000 0.000000 0.000000
0.000000 0.000000 0.000000
0.000000 0.000000 0.000000
0.000000 0.000000 0.000000
0.000000 0.000000 0.000000
0.000000 0.000000 0.000000
0.000000 0.000000 0.000000
0.000000 0.000000 0.000000
0.000000 0.000000 0.000000
0.000000 0.000000 0.000000
0.000000 0.000000 0.000000
0.000000 0.000000 0.000000
0.000000 0.000000 0.000000
0.000000 0.000000 0.000000
0.000000 0.000000 0.000000
0.000000 0.000000 0.000000
0.000000 0.000000 0.000000
0.000000 0.000000 0.000000
0.000000 0.000000 0.000000
0.000000 0.000000 0.000000
0.000000 0.000000 0.000000
0.000000 0.000000 0.000000
