total_Ti
1.0
8.805261 0.000000 0.000000
-4.402631 7.625580 0.000000
0.000000 0.000000 22.583422
Ti
90
direct
0.967272 0.027818 0.590546 Ti
0.967272 0.527818 0.590546 Ti
0.467272 0.027818 0.590546 Ti
0.467272 0.527818 0.590546 Ti
0.133938 0.361151 0.877139 Ti
0.133938 0.861151 0.877139 Ti
0.633938 0.361151 0.877139 Ti
0.633938 0.861151 0.877139 Ti
0.300605 0.194485 0.918081 Ti
0.300605 0.694485 0.918081 Ti
0.800605 0.194485 0.918081 Ti
0.800605 0.694485 0.918081 Ti
0.133938 0.361151 0.631488 Ti
0.133938 0.861151 0.631488 Ti
0.633938 0.361151 0.631488 Ti
0.633938 0.861151 0.631488 Ti
0.300605 0.194485 0.672430 Ti
0.300605 0.694485 0.672430 Ti
0.800605 0.194485 0.672430 Ti
0.800605 0.694485 0.672430 Ti
0.967272 0.027818 0.713371 Ti
0.967272 0.527818 0.713371 Ti
0.467272 0.027818 0.713371 Ti
0.467272 0.527818 0.713371 Ti
0.133938 0.361151 0.754313 Ti
0.133938 0.861151 0.754313 Ti
0.633938 0.361151 0.754313 Ti
0.633938 0.861151 0.754313 Ti
0.300605 0.194485 0.795255 Ti
0.300605 0.694485 0.795255 Ti
0.800605 0.194485 0.795255 Ti
0.800605 0.694485 0.795255 Ti
0.967272 0.027818 0.836197 Ti
0.967272 0.527818 0.836197 Ti
0.467272 0.027818 0.836197 Ti
0.467272 0.527818 0.836197 Ti
0.111111 0.888889 -0.000000 Ti
0.111111 0.888889 0.406902 Ti
0.111111 0.555556 -0.000000 Ti
0.222222 0.777778 0.101725 Ti
0.111111 0.555556 0.406902 Ti
0.444444 0.888889 -0.000000 Ti
0.111111 0.222222 -0.000000 Ti
0.222222 0.777778 0.508628 Ti
0.222222 0.444444 0.101725 Ti
0.444444 0.888889 0.406902 Ti
0.111111 0.222222 0.406902 Ti
0.444444 0.555556 -0.000000 Ti
0.222222 0.444444 0.508628 Ti
0.555556 0.777778 0.101725 Ti
0.222222 0.111111 0.101725 Ti
0.444444 0.555556 0.406902 Ti
0.777778 0.888889 -0.000000 Ti
0.444444 0.222222 -0.000000 Ti
0.555556 0.777778 0.508628 Ti
0.222222 0.111111 0.508628 Ti
0.555556 0.444444 0.101725 Ti
0.777778 0.888889 0.406902 Ti
0.444444 0.222222 0.406902 Ti
0.777778 0.555556 -0.000000 Ti
0.555556 0.444444 0.508628 Ti
0.888889 0.777778 0.101725 Ti
0.555556 0.111111 0.101725 Ti
0.777778 0.555556 0.406902 Ti
0.777778 0.222222 -0.000000 Ti
0.888889 0.777778 0.508628 Ti
0.555556 0.111111 0.508628 Ti
0.888889 0.444444 0.101725 Ti
0.777778 0.222222 0.406902 Ti
0.888889 0.444444 0.508628 Ti
0.888889 0.111111 0.101725 Ti
0.888889 0.111111 0.508628 Ti
0.111111 0.888889 0.203451 Ti
0.111111 0.555556 0.203451 Ti
0.222222 0.777778 0.305177 Ti
0.444444 0.888889 0.203451 Ti
0.111111 0.222222 0.203451 Ti
0.222222 0.444444 0.305177 Ti
0.444444 0.555556 0.203451 Ti
0.555556 0.777778 0.305177 Ti
0.222222 0.111111 0.305177 Ti
0.777778 0.888889 0.203451 Ti
0.444444 0.222222 0.203451 Ti
0.555556 0.444444 0.305177 Ti
0.777778 0.555556 0.203451 Ti
0.888889 0.777778 0.305177 Ti
0.555556 0.111111 0.305177 Ti
0.777778 0.222222 0.203451 Ti
0.888889 0.444444 0.305177 Ti
0.888889 0.111111 0.305177 Ti
