substance_top
1.0
   3.5061499999999999    0.0000000000000000    0.0000000000000002
   0.0000000000000019   12.0001999999999995    0.0000000000000007
   0.0000000000000000    0.0000000000000000   27.5716049620000021
Fe
36
Selective dynamics
direct
   0.9933200000000000    0.7184400000000000    0.6373049401809429 F F F Fe
   0.4933200000000000    0.5543100000000000    0.6247141385399629 F F F Fe
   0.4933200000000000    0.7391600000000000    0.5861712662819051 F F F Fe
   0.9933200000000000    0.5750200000000000    0.5735804646409252 F F F Fe
   0.9933200000000001    0.3901700000000000    0.6121135841479055 F F F Fe
   0.4933200000000000    0.2260400000000000    0.5995227825069256 F F F Fe
   0.4933200000000000    0.4108899999999999    0.5609799102488677 F F F Fe
   0.9933200000000001    0.2467500000000000    0.5483891086078878 F F F Fe
   0.9933200000000000    0.0619000000000000    0.5869222281148682 F F F Fe
   0.4933200000000000    0.8977699999999998    0.5743314264738884 F F F Fe
   0.4933200000000000    0.0826200000000000    0.5357885542158305 F F F Fe
   0.9933200000000000    0.9184800000000000    0.5231977525748506 F F F Fe
   0.9933200000000000    0.7598700000000000    0.5350473451339447 F F F Fe
   0.4933200000000000    0.5957300000000000    0.5224467907418874 F F F Fe
   0.4933200000000000    0.7805800000000001    0.4839136712349070 F F F Fe
   0.9933200000000001    0.6164500000000001    0.4713131168428495 F F F Fe
   0.9933200000000001    0.4315999999999999    0.5098559891009075 F F F Fe
   0.4933200000000000    0.2674600000000000    0.4972554347088501 F F F Fe
   0.4933200000000000    0.4523100000000000    0.4587223152018697 F F F Fe
   0.9933200000000001    0.2881800000000000    0.4461217608098123 F F F Fe
   0.9933199999999999    0.1033300000000000    0.4846646330678702 F F F Fe
   0.4933200000000000    0.9391999999999999    0.4720640786758127 F F F Fe
   0.4933200000000000    0.1240400000000000    0.4335309591688324 F F F Fe
   0.9933200000000000    0.9599100000000000    0.4209304047767750 F F F Fe
   0.9933200000000000    0.8013000000000000    0.4327799973358691 F F F Fe
   0.4933200000000000    0.6371599999999998    0.4201891956948893 F F F Fe
   0.4933200000000000    0.8220099999999999    0.3816463234368314 F F F Fe
   0.9933200000000001    0.6578799999999999    0.3690555217958515 F F F Fe
   0.9933200000000001    0.4730300000000000    0.4075886413028319 F F F Fe
   0.4933200000000000    0.3088900000000000    0.3949978396618520 F F F Fe
   0.4933200000000000    0.4937400000000000    0.3564549674037941 F F F Fe
   0.9933200000000000    0.3296100000000000    0.3438641657628143 F F F Fe
   0.9933200000000001    0.1447600000000000    0.3823972852697946 F F F Fe
   0.4933200000000000    0.9806200000000000    0.3698064836288146 F F F Fe
   0.4933200000000000    0.1654700000000000    0.3312636113707568 F F F Fe
   0.9933200000000000    0.0013400000000000    0.3186728097297769 F F F Fe
