Ti96 Sn1
1.0
9.513020 0.000000 0.000000
0.000000 9.350860 0.000000
0.000000 0.000000 18.547230
Ti Sn
96 1
Selective dynamics
direct
0.146269 0.381611 0.401063 T T T Ti
0.663143 0.346943 0.386239 T T T Ti
0.137502 0.862901 0.401493 T T T Ti
0.667047 0.858505 0.410957 T T T Ti
0.162400 0.370171 0.237313 T T T Ti
0.653687 0.372371 0.233542 T T T Ti
0.164077 0.874963 0.234112 T T T Ti
0.659742 0.871949 0.233402 T T T Ti
0.166662 0.375018 0.077677 F F F Ti
0.666674 0.374990 0.077651 F F F Ti
0.166659 0.875016 0.077680 F F F Ti
0.666660 0.875006 0.077665 F F F Ti
0.405126 0.400728 0.321073 T T T Ti
0.910358 0.381331 0.317033 T T T Ti
0.397796 0.878818 0.321669 T T T Ti
0.903883 0.876540 0.313398 T T T Ti
0.416668 0.374969 0.155267 F F F Ti
0.916685 0.374957 0.155292 F F F Ti
0.416662 0.875051 0.155278 F F F Ti
0.916675 0.874986 0.155298 F F F Ti
0.416659 0.375017 -0.000014 F F F Ti
0.916653 0.375007 -0.000007 F F F Ti
0.416660 0.874999 -0.000031 F F F Ti
0.916655 0.874994 -0.000019 F F F Ti
0.089642 0.118669 0.317032 T T T Ti
0.594874 0.099272 0.321072 T T T Ti
0.096117 0.623460 0.313397 T T T Ti
0.602204 0.621182 0.321668 T T T Ti
0.083314 0.125049 0.155291 F F F Ti
0.583332 0.125038 0.155267 F F F Ti
0.083325 0.625021 0.155298 F F F Ti
0.583338 0.624957 0.155278 F F F Ti
0.083348 0.124997 -0.000008 F F F Ti
0.583342 0.124988 -0.000015 F F F Ti
0.083346 0.625014 -0.000018 F F F Ti
0.583341 0.625008 -0.000030 F F F Ti
0.336856 0.153057 0.386239 T T T Ti
0.853730 0.118389 0.401063 T T T Ti
0.332952 0.641495 0.410957 T T T Ti
0.862497 0.637099 0.401493 T T T Ti
0.346312 0.127630 0.233541 T T T Ti
0.837599 0.129830 0.237313 T T T Ti
0.340257 0.628053 0.233402 T T T Ti
0.835922 0.625039 0.234112 T T T Ti
0.333326 0.125015 0.077651 F F F Ti
0.833337 0.124986 0.077676 F F F Ti
0.333339 0.625000 0.077665 F F F Ti
0.833340 0.624990 0.077680 F F F Ti
0.375026 0.375012 0.823884 F F F Ti
0.875000 0.374942 0.823874 F F F Ti
0.375041 0.875051 0.823798 F F F Ti
0.875040 0.875012 0.823815 F F F Ti
0.125006 0.125051 0.823872 F F F Ti
0.624980 0.124990 0.823883 F F F Ti
0.124962 0.624988 0.823816 F F F Ti
0.624962 0.624943 0.823800 F F F Ti
0.124980 0.375030 0.910122 F F F Ti
0.624994 0.375008 0.910124 F F F Ti
0.125007 0.875002 0.910086 F F F Ti
0.624976 0.875002 0.910075 F F F Ti
0.375008 0.124993 0.910124 F F F Ti
0.875025 0.124970 0.910121 F F F Ti
0.375027 0.625000 0.910075 F F F Ti
0.874998 0.624999 0.910087 F F F Ti
0.382256 0.370964 0.670812 T T T Ti
0.874068 0.398645 0.647062 T T T Ti
0.380500 0.888189 0.660817 T T T Ti
0.902021 0.878954 0.655374 T T T Ti
0.125931 0.101353 0.647061 T T T Ti
0.617742 0.129033 0.670812 T T T Ti
0.097977 0.621042 0.655375 T T T Ti
0.619499 0.611807 0.660818 T T T Ti
0.130181 0.355454 0.574965 T T T Ti
0.626086 0.350895 0.577454 T T T Ti
0.166258 0.847514 0.564965 T T T Ti
0.679525 0.931706 0.577861 T T T Ti
0.373914 0.149105 0.577453 T T T Ti
0.869819 0.144546 0.574965 T T T Ti
0.320475 0.568293 0.577861 T T T Ti
0.833742 0.652485 0.564965 T T T Ti
0.391481 0.369624 0.478702 T T T Ti
0.880614 0.380541 0.488381 T T T Ti
0.369002 0.950273 0.472387 T T T Ti
0.916932 0.893499 0.492413 T T T Ti
0.119386 0.119459 0.488381 T T T Ti
0.608519 0.130376 0.478702 T T T Ti
0.083068 0.606500 0.492413 T T T Ti
0.630998 0.549727 0.472388 T T T Ti
0.125295 0.875227 0.737597 F F F Ti
0.624990 0.875098 0.737615 F F F Ti
0.375002 0.624888 0.737616 F F F Ti
0.874700 0.624760 0.737604 F F F Ti
0.124823 0.374921 0.737612 F F F Ti
0.624998 0.374822 0.737674 F F F Ti
0.374994 0.125161 0.737671 F F F Ti
0.875171 0.125065 0.737609 F F F Ti
0.500000 0.750000 0.531436 T T T Sn

0.000000 0.000000 0.000000
0.000000 0.000000 0.000000
0.000000 0.000000 0.000000
0.000000 0.000000 0.000000
0.000000 0.000000 0.000000
0.000000 0.000000 0.000000
0.000000 0.000000 0.000000
0.000000 0.000000 0.000000
0.000000 0.000000 0.000000
0.000000 0.000000 0.000000
0.000000 0.000000 0.000000
0.000000 0.000000 0.000000
0.000000 0.000000 0.000000
0.000000 0.000000 0.000000
0.000000 0.000000 0.000000
0.000000 0.000000 0.000000
0.000000 0.000000 0.000000
0.000000 0.000000 0.000000
0.000000 0.000000 0.000000
0.000000 0.000000 0.000000
0.000000 0.000000 0.000000
0.000000 0.000000 0.000000
0.000000 0.000000 0.000000
0.000000 0.000000 0.000000
0.000000 0.000000 0.000000
0.000000 0.000000 0.000000
0.000000 0.000000 0.000000
0.000000 0.000000 0.000000
0.000000 0.000000 0.000000
0.000000 0.000000 0.000000
0.000000 0.000000 0.000000
0.000000 0.000000 0.000000
0.000000 0.000000 0.000000
0.000000 0.000000 0.000000
0.000000 0.000000 0.000000
0.000000 0.000000 0.000000
0.000000 0.000000 0.000000
0.000000 0.000000 0.000000
0.000000 0.000000 0.000000
0.000000 0.000000 0.000000
0.000000 0.000000 0.000000
0.000000 0.000000 0.000000
0.000000 0.000000 0.000000
0.000000 0.000000 0.000000
0.000000 0.000000 0.000000
0.000000 0.000000 0.000000
0.000000 0.000000 0.000000
0.000000 0.000000 0.000000
0.000000 0.000000 0.000000
0.000000 0.000000 0.000000
0.000000 0.000000 0.000000
0.000000 0.000000 0.000000
0.000000 0.000000 0.000000
0.000000 0.000000 0.000000
0.000000 0.000000 0.000000
0.000000 0.000000 0.000000
0.000000 0.000000 0.000000
0.000000 0.000000 0.000000
0.000000 0.000000 0.000000
0.000000 0.000000 0.000000
0.000000 0.000000 0.000000
0.000000 0.000000 0.000000
0.000000 0.000000 0.000000
0.000000 0.000000 0.000000
0.000000 0.000000 0.000000
0.000000 0.000000 0.000000
0.000000 0.000000 0.000000
0.000000 0.000000 0.000000
0.000000 0.000000 0.000000
0.000000 0.000000 0.000000
0.000000 0.000000 0.000000
0.000000 0.000000 0.000000
0.000000 0.000000 0.000000
0.000000 0.000000 0.000000
0.000000 0.000000 0.000000
0.000000 0.000000 0.000000
0.000000 0.000000 0.000000
0.000000 0.000000 0.000000
0.000000 0.000000 0.000000
0.000000 0.000000 0.000000
0.000000 0.000000 0.000000
0.000000 0.000000 0.000000
0.000000 0.000000 0.000000
0.000000 0.000000 0.000000
0.000000 0.000000 0.000000
0.000000 0.000000 0.000000
0.000000 0.000000 0.000000
0.000000 0.000000 0.000000
0.000000 0.000000 0.000000
0.000000 0.000000 0.000000
0.000000 0.000000 0.000000
0.000000 0.000000 0.000000
0.000000 0.000000 0.000000
0.000000 0.000000 0.000000
0.000000 0.000000 0.000000
0.000000 0.000000 0.000000
0.000000 0.000000 0.000000
