Ti66 Cr1
1.0
6.309760 0.000000 0.000000
0.000000 9.464640 0.000000
0.000000 0.000000 18.918326
Ti Cr
66 1
Selective dynamics
direct
0.132924 0.089612 0.477371 T T T Ti
0.622038 0.076991 0.499309 T T T Ti
0.123688 0.101547 0.653696 T T T Ti
0.622900 0.113445 0.648415 T T T Ti
0.124263 0.079504 0.821329 F F F Ti
0.624201 0.079435 0.821265 F F F Ti
0.623153 0.409887 0.483409 T T T Ti
0.123971 0.411739 0.656482 T T T Ti
0.623718 0.418803 0.641476 T T T Ti
0.124353 0.413173 0.821379 F F F Ti
0.624275 0.413389 0.821282 F F F Ti
0.124895 0.778386 0.488963 T T T Ti
0.621725 0.751116 0.500690 T T T Ti
0.123466 0.734584 0.648354 T T T Ti
0.623119 0.736371 0.651931 T T T Ti
0.124268 0.746188 0.821178 F F F Ti
0.624231 0.746079 0.821134 F F F Ti
0.339183 0.265245 0.553918 T T T Ti
0.909010 0.264424 0.553785 T T T Ti
0.374755 0.247099 0.742510 F F F Ti
0.873282 0.247048 0.742471 F F F Ti
0.374779 0.246389 0.900160 F F F Ti
0.874430 0.246374 0.900173 F F F Ti
0.338810 0.563361 0.550753 T T T Ti
0.908407 0.563688 0.550751 T T T Ti
0.373592 0.579713 0.742135 F F F Ti
0.874493 0.579722 0.742122 F F F Ti
0.374636 0.579642 0.900276 F F F Ti
0.874547 0.579657 0.900298 F F F Ti
0.372692 0.922109 0.581585 T T T Ti
0.874683 0.922295 0.581369 T T T Ti
0.374207 0.912547 0.742122 F F F Ti
0.873758 0.912563 0.742083 F F F Ti
0.374732 0.912628 0.900203 F F F Ti
0.874539 0.912632 0.900213 F F F Ti
0.126174 0.628996 0.377988 T T T Ti
0.623708 0.650091 0.375532 T T T Ti
0.126438 0.662409 0.122421 F F F Ti
0.626212 0.662317 0.122336 F F F Ti
0.634617 0.161747 0.369436 T T T Ti
0.126868 0.162389 0.121608 F F F Ti
0.626697 0.162449 0.120896 F F F Ti
0.125965 0.412881 0.042809 F F F Ti
0.625988 0.412955 0.042639 F F F Ti
0.126038 0.912319 0.042894 F F F Ti
0.625939 0.912181 0.042776 F F F Ti
0.126854 0.413211 0.279867 T T T Ti
0.628765 0.411859 0.289905 T T T Ti
0.126917 0.886149 0.288178 T T T Ti
0.629199 0.912751 0.280625 T T T Ti
0.376720 0.911365 0.161449 F F F Ti
0.876397 0.911037 0.161201 F F F Ti
0.377575 0.412890 0.161192 F F F Ti
0.875758 0.413333 0.160985 F F F Ti
0.328206 0.359110 0.403294 T T T Ti
0.922375 0.363193 0.404395 T T T Ti
0.403359 0.913404 0.400216 T T T Ti
0.847496 0.911053 0.401186 T T T Ti
0.384111 0.654043 0.251021 T T T Ti
0.868648 0.654264 0.251077 T T T Ti
0.375692 0.662750 0.003652 F F F Ti
0.875765 0.662770 0.003680 F F F Ti
0.387538 0.161018 0.250930 T T T Ti
0.865837 0.161340 0.249505 T T T Ti
0.375673 0.162488 0.003243 F F F Ti
0.876141 0.162473 0.003261 F F F Ti
0.105606 0.149802 0.363021 T T T Cr

0.000000 0.000000 0.000000
0.000000 0.000000 0.000000
0.000000 0.000000 0.000000
0.000000 0.000000 0.000000
0.000000 0.000000 0.000000
0.000000 0.000000 0.000000
0.000000 0.000000 0.000000
0.000000 0.000000 0.000000
0.000000 0.000000 0.000000
0.000000 0.000000 0.000000
0.000000 0.000000 0.000000
0.000000 0.000000 0.000000
0.000000 0.000000 0.000000
0.000000 0.000000 0.000000
0.000000 0.000000 0.000000
0.000000 0.000000 0.000000
0.000000 0.000000 0.000000
0.000000 0.000000 0.000000
0.000000 0.000000 0.000000
0.000000 0.000000 0.000000
0.000000 0.000000 0.000000
0.000000 0.000000 0.000000
0.000000 0.000000 0.000000
0.000000 0.000000 0.000000
0.000000 0.000000 0.000000
0.000000 0.000000 0.000000
0.000000 0.000000 0.000000
0.000000 0.000000 0.000000
0.000000 0.000000 0.000000
0.000000 0.000000 0.000000
0.000000 0.000000 0.000000
0.000000 0.000000 0.000000
0.000000 0.000000 0.000000
0.000000 0.000000 0.000000
0.000000 0.000000 0.000000
0.000000 0.000000 0.000000
0.000000 0.000000 0.000000
0.000000 0.000000 0.000000
0.000000 0.000000 0.000000
0.000000 0.000000 0.000000
0.000000 0.000000 0.000000
0.000000 0.000000 0.000000
0.000000 0.000000 0.000000
0.000000 0.000000 0.000000
0.000000 0.000000 0.000000
0.000000 0.000000 0.000000
0.000000 0.000000 0.000000
0.000000 0.000000 0.000000
0.000000 0.000000 0.000000
0.000000 0.000000 0.000000
0.000000 0.000000 0.000000
0.000000 0.000000 0.000000
0.000000 0.000000 0.000000
0.000000 0.000000 0.000000
0.000000 0.000000 0.000000
0.000000 0.000000 0.000000
0.000000 0.000000 0.000000
0.000000 0.000000 0.000000
0.000000 0.000000 0.000000
0.000000 0.000000 0.000000
0.000000 0.000000 0.000000
0.000000 0.000000 0.000000
0.000000 0.000000 0.000000
0.000000 0.000000 0.000000
0.000000 0.000000 0.000000
0.000000 0.000000 0.000000
0.000000 0.000000 0.000000
