Ti96 Nb1
1.0
9.513020 0.000000 0.000000
0.000000 9.350860 0.000000
0.000000 0.000000 18.547230
Ti Nb
96 1
Selective dynamics
direct
0.145128 0.377316 0.399309 T T T Ti
0.650883 0.367371 0.395214 T T T Ti
0.166723 0.884025 0.398545 T T T Ti
0.649222 0.912037 0.398110 T T T Ti
0.164079 0.377347 0.235972 T T T Ti
0.660628 0.380830 0.235115 T T T Ti
0.157654 0.875278 0.235541 T T T Ti
0.659962 0.873907 0.234183 T T T Ti
0.166661 0.374998 0.077678 F F F Ti
0.666667 0.375001 0.077687 F F F Ti
0.166674 0.875004 0.077683 F F F Ti
0.666672 0.875001 0.077695 F F F Ti
0.408199 0.376549 0.317862 T T T Ti
0.912038 0.368753 0.309736 T T T Ti
0.408310 0.872181 0.316351 T T T Ti
0.901896 0.862187 0.326036 T T T Ti
0.416662 0.375008 0.155329 F F F Ti
0.916660 0.375016 0.155339 F F F Ti
0.416693 0.874991 0.155342 F F F Ti
0.916696 0.875037 0.155352 F F F Ti
0.416679 0.375016 -0.000011 F F F Ti
0.916655 0.375015 -0.000007 F F F Ti
0.416685 0.874995 -0.000010 F F F Ti
0.916654 0.874999 -0.000007 F F F Ti
0.091801 0.123451 0.317861 T T T Ti
0.587962 0.131248 0.309735 T T T Ti
0.091690 0.627820 0.316350 T T T Ti
0.598104 0.637813 0.326035 T T T Ti
0.083339 0.124996 0.155329 F F F Ti
0.583339 0.124987 0.155340 F F F Ti
0.083307 0.625012 0.155342 F F F Ti
0.583304 0.624965 0.155353 F F F Ti
0.083322 0.124989 -0.000011 F F F Ti
0.583345 0.124990 -0.000007 F F F Ti
0.083315 0.625009 -0.000010 F F F Ti
0.583347 0.625005 -0.000007 F F F Ti
0.354871 0.122684 0.399309 T T T Ti
0.849116 0.132629 0.395214 T T T Ti
0.333276 0.615975 0.398545 T T T Ti
0.850777 0.587963 0.398110 T T T Ti
0.335920 0.122654 0.235972 T T T Ti
0.839371 0.119171 0.235115 T T T Ti
0.342345 0.624722 0.235541 T T T Ti
0.840037 0.626093 0.234183 T T T Ti
0.333338 0.125005 0.077678 F F F Ti
0.833332 0.125002 0.077687 F F F Ti
0.333325 0.624999 0.077683 F F F Ti
0.833327 0.625002 0.077695 F F F Ti
0.374981 0.375010 0.823805 F F F Ti
0.875009 0.374977 0.823790 F F F Ti
0.375020 0.875012 0.823819 F F F Ti
0.874954 0.874968 0.823786 F F F Ti
0.125020 0.124989 0.823805 F F F Ti
0.624993 0.125023 0.823790 F F F Ti
0.124981 0.624987 0.823819 F F F Ti
0.625049 0.625031 0.823786 F F F Ti
0.124993 0.374988 0.910118 F F F Ti
0.625019 0.375012 0.910113 F F F Ti
0.124998 0.874999 0.910125 F F F Ti
0.625018 0.874992 0.910116 F F F Ti
0.375010 0.125014 0.910117 F F F Ti
0.874982 0.124989 0.910113 F F F Ti
0.375005 0.625000 0.910125 F F F Ti
0.874984 0.625008 0.910114 F F F Ti
0.392742 0.372249 0.645416 T T T Ti
0.887198 0.358475 0.664207 T T T Ti
0.378995 0.863338 0.665983 T T T Ti
0.893053 0.864510 0.648614 T T T Ti
0.107257 0.127750 0.645416 T T T Ti
0.612802 0.141522 0.664206 T T T Ti
0.121005 0.636660 0.665982 T T T Ti
0.606946 0.635489 0.648614 T T T Ti
0.138630 0.390278 0.574825 T T T Ti
0.654604 0.381225 0.575524 T T T Ti
0.157578 0.875834 0.570169 T T T Ti
0.609254 0.914782 0.581817 T T T Ti
0.361370 0.109721 0.574824 T T T Ti
0.845396 0.118774 0.575525 T T T Ti
0.342422 0.624166 0.570169 T T T Ti
0.890746 0.585217 0.581817 T T T Ti
0.379902 0.360770 0.488443 T T T Ti
0.900814 0.350884 0.489577 T T T Ti
0.408132 0.856035 0.480487 T T T Ti
-0.063939 -0.082791 0.481252 T T T Ti
0.120098 0.139230 0.488443 T T T Ti
0.599186 0.149116 0.489577 T T T Ti
0.091868 0.643965 0.480487 T T T Ti
0.563939 0.582791 0.481252 T T T Ti
0.125064 0.875077 0.737572 F F F Ti
0.625053 0.875048 0.737566 F F F Ti
0.374931 0.624914 0.737574 F F F Ti
0.874943 0.624942 0.737566 F F F Ti
0.125091 0.374872 0.737523 F F F Ti
0.624985 0.375275 0.737556 F F F Ti
0.374907 0.125123 0.737522 F F F Ti
0.875011 0.124715 0.737560 F F F Ti
0.750000 0.750000 0.506338 T T T Nb

0.000000 0.000000 0.000000
0.000000 0.000000 0.000000
0.000000 0.000000 0.000000
0.000000 0.000000 0.000000
0.000000 0.000000 0.000000
0.000000 0.000000 0.000000
0.000000 0.000000 0.000000
0.000000 0.000000 0.000000
0.000000 0.000000 0.000000
0.000000 0.000000 0.000000
0.000000 0.000000 0.000000
0.000000 0.000000 0.000000
0.000000 0.000000 0.000000
0.000000 0.000000 0.000000
0.000000 0.000000 0.000000
0.000000 0.000000 0.000000
0.000000 0.000000 0.000000
0.000000 0.000000 0.000000
0.000000 0.000000 0.000000
0.000000 0.000000 0.000000
0.000000 0.000000 0.000000
0.000000 0.000000 0.000000
0.000000 0.000000 0.000000
0.000000 0.000000 0.000000
0.000000 0.000000 0.000000
0.000000 0.000000 0.000000
0.000000 0.000000 0.000000
0.000000 0.000000 0.000000
0.000000 0.000000 0.000000
0.000000 0.000000 0.000000
0.000000 0.000000 0.000000
0.000000 0.000000 0.000000
0.000000 0.000000 0.000000
0.000000 0.000000 0.000000
0.000000 0.000000 0.000000
0.000000 0.000000 0.000000
0.000000 0.000000 0.000000
0.000000 0.000000 0.000000
0.000000 0.000000 0.000000
0.000000 0.000000 0.000000
0.000000 0.000000 0.000000
0.000000 0.000000 0.000000
0.000000 0.000000 0.000000
0.000000 0.000000 0.000000
0.000000 0.000000 0.000000
0.000000 0.000000 0.000000
0.000000 0.000000 0.000000
0.000000 0.000000 0.000000
0.000000 0.000000 0.000000
0.000000 0.000000 0.000000
0.000000 0.000000 0.000000
0.000000 0.000000 0.000000
0.000000 0.000000 0.000000
0.000000 0.000000 0.000000
0.000000 0.000000 0.000000
0.000000 0.000000 0.000000
0.000000 0.000000 0.000000
0.000000 0.000000 0.000000
0.000000 0.000000 0.000000
0.000000 0.000000 0.000000
0.000000 0.000000 0.000000
0.000000 0.000000 0.000000
0.000000 0.000000 0.000000
0.000000 0.000000 0.000000
0.000000 0.000000 0.000000
0.000000 0.000000 0.000000
0.000000 0.000000 0.000000
0.000000 0.000000 0.000000
0.000000 0.000000 0.000000
0.000000 0.000000 0.000000
0.000000 0.000000 0.000000
0.000000 0.000000 0.000000
0.000000 0.000000 0.000000
0.000000 0.000000 0.000000
0.000000 0.000000 0.000000
0.000000 0.000000 0.000000
0.000000 0.000000 0.000000
0.000000 0.000000 0.000000
0.000000 0.000000 0.000000
0.000000 0.000000 0.000000
0.000000 0.000000 0.000000
0.000000 0.000000 0.000000
0.000000 0.000000 0.000000
0.000000 0.000000 0.000000
0.000000 0.000000 0.000000
0.000000 0.000000 0.000000
0.000000 0.000000 0.000000
0.000000 0.000000 0.000000
0.000000 0.000000 0.000000
0.000000 0.000000 0.000000
0.000000 0.000000 0.000000
0.000000 0.000000 0.000000
0.000000 0.000000 0.000000
0.000000 0.000000 0.000000
0.000000 0.000000 0.000000
0.000000 0.000000 0.000000
0.000000 0.000000 0.000000
