Ti96 Mo1
1.0
9.513020 0.000000 0.000000
0.000000 9.350860 0.000000
0.000000 0.000000 18.547230
Ti Mo
96 1
Selective dynamics
direct
0.139637 0.367250 0.406182 T T T Ti
0.647130 0.342870 0.406481 T T T Ti
0.149045 0.854313 0.396709 T T T Ti
0.675687 0.898713 0.398278 T T T Ti
0.159838 0.375790 0.235981 T T T Ti
0.663658 0.371152 0.231055 T T T Ti
0.161449 0.872879 0.234460 T T T Ti
0.654231 0.864412 0.242341 T T T Ti
0.166672 0.375009 0.077615 F F F Ti
0.666666 0.374990 0.077618 F F F Ti
0.166709 0.874994 0.077649 F F F Ti
0.666674 0.875011 0.077653 F F F Ti
0.404043 0.372848 0.313167 T T T Ti
0.896739 0.374828 0.319450 T T T Ti
0.400722 0.906229 0.322775 T T T Ti
0.915658 0.883309 0.314247 T T T Ti
0.416669 0.374986 0.155271 F F F Ti
0.916625 0.374958 0.155267 F F F Ti
0.416697 0.875045 0.155348 F F F Ti
0.916771 0.874960 0.155268 F F F Ti
0.416668 0.375005 -0.000020 F F F Ti
0.916656 0.375001 -0.000024 F F F Ti
0.416674 0.874992 0.000007 F F F Ti
0.916676 0.874986 -0.000016 F F F Ti
0.103261 0.125173 0.319449 T T T Ti
0.595957 0.127152 0.313166 T T T Ti
0.084342 0.616692 0.314246 T T T Ti
0.599278 0.593771 0.322774 T T T Ti
0.083375 0.125047 0.155267 F F F Ti
0.583330 0.125020 0.155271 F F F Ti
0.083229 0.625045 0.155268 F F F Ti
0.583304 0.624959 0.155349 F F F Ti
0.083344 0.125001 -0.000024 F F F Ti
0.583332 0.124998 -0.000020 F F F Ti
0.083324 0.625016 -0.000016 F F F Ti
0.583326 0.625009 0.000007 F F F Ti
0.352869 0.157130 0.406481 T T T Ti
0.860362 0.132750 0.406182 T T T Ti
0.324312 0.601287 0.398278 T T T Ti
0.850954 0.645687 0.396709 T T T Ti
0.336341 0.128849 0.231055 T T T Ti
0.840161 0.124211 0.235981 T T T Ti
0.345768 0.635588 0.242341 T T T Ti
0.838550 0.627122 0.234460 T T T Ti
0.333333 0.125014 0.077618 F F F Ti
0.833327 0.124996 0.077616 F F F Ti
0.333325 0.624993 0.077653 F F F Ti
0.833290 0.625010 0.077648 F F F Ti
0.375014 0.375033 0.823806 F F F Ti
0.874988 0.374990 0.823817 F F F Ti
0.375003 0.874976 0.823804 F F F Ti
0.874998 0.874950 0.823789 F F F Ti
0.125013 0.125008 0.823818 F F F Ti
0.624987 0.124964 0.823806 F F F Ti
0.125003 0.625047 0.823789 F F F Ti
0.625000 0.625021 0.823804 F F F Ti
0.125000 0.375018 0.910098 F F F Ti
0.624999 0.375007 0.910101 F F F Ti
0.124999 0.874980 0.910099 F F F Ti
0.624995 0.874979 0.910096 F F F Ti
0.375002 0.124991 0.910101 F F F Ti
0.875002 0.124981 0.910098 F F F Ti
0.375005 0.625018 0.910096 F F F Ti
0.875001 0.625017 0.910099 F F F Ti
0.391635 0.391414 0.656486 T T T Ti
0.897270 0.375251 0.648530 T T T Ti
0.393307 0.886979 0.648225 T T T Ti
0.882544 0.885914 0.664789 T T T Ti
0.102729 0.124748 0.648530 T T T Ti
0.608364 0.108585 0.656486 T T T Ti
0.117456 0.614085 0.664789 T T T Ti
0.606693 0.613020 0.648225 T T T Ti
0.149535 0.376827 0.566301 T T T Ti
0.645637 0.345036 0.578209 T T T Ti
0.128268 0.858215 0.584209 T T T Ti
0.654488 0.858617 0.569574 T T T Ti
0.354363 0.154964 0.578208 T T T Ti
0.850465 0.123172 0.566301 T T T Ti
0.345512 0.641383 0.569574 T T T Ti
0.871731 0.641785 0.584209 T T T Ti
0.410010 0.395793 0.492139 T T T Ti
0.895150 0.379727 0.489360 T T T Ti
0.345580 0.921792 0.494531 T T T Ti
0.912751 0.878641 0.486604 T T T Ti
0.104850 0.120273 0.489360 T T T Ti
0.589990 0.104207 0.492139 T T T Ti
0.087249 0.621359 0.486604 T T T Ti
0.654420 0.578208 0.494531 T T T Ti
0.124946 0.874928 0.737520 F F F Ti
0.625010 0.874859 0.737471 F F F Ti
0.374988 0.625137 0.737470 F F F Ti
0.875051 0.625066 0.737518 F F F Ti
0.124974 0.375021 0.737525 F F F Ti
0.624985 0.374905 0.737529 F F F Ti
0.375011 0.125087 0.737528 F F F Ti
0.875024 0.124972 0.737526 F F F Ti
0.500000 0.750000 0.445967 T T T Mo

0.000000 0.000000 0.000000
0.000000 0.000000 0.000000
0.000000 0.000000 0.000000
0.000000 0.000000 0.000000
0.000000 0.000000 0.000000
0.000000 0.000000 0.000000
0.000000 0.000000 0.000000
0.000000 0.000000 0.000000
0.000000 0.000000 0.000000
0.000000 0.000000 0.000000
0.000000 0.000000 0.000000
0.000000 0.000000 0.000000
0.000000 0.000000 0.000000
0.000000 0.000000 0.000000
0.000000 0.000000 0.000000
0.000000 0.000000 0.000000
0.000000 0.000000 0.000000
0.000000 0.000000 0.000000
0.000000 0.000000 0.000000
0.000000 0.000000 0.000000
0.000000 0.000000 0.000000
0.000000 0.000000 0.000000
0.000000 0.000000 0.000000
0.000000 0.000000 0.000000
0.000000 0.000000 0.000000
0.000000 0.000000 0.000000
0.000000 0.000000 0.000000
0.000000 0.000000 0.000000
0.000000 0.000000 0.000000
0.000000 0.000000 0.000000
0.000000 0.000000 0.000000
0.000000 0.000000 0.000000
0.000000 0.000000 0.000000
0.000000 0.000000 0.000000
0.000000 0.000000 0.000000
0.000000 0.000000 0.000000
0.000000 0.000000 0.000000
0.000000 0.000000 0.000000
0.000000 0.000000 0.000000
0.000000 0.000000 0.000000
0.000000 0.000000 0.000000
0.000000 0.000000 0.000000
0.000000 0.000000 0.000000
0.000000 0.000000 0.000000
0.000000 0.000000 0.000000
0.000000 0.000000 0.000000
0.000000 0.000000 0.000000
0.000000 0.000000 0.000000
0.000000 0.000000 0.000000
0.000000 0.000000 0.000000
0.000000 0.000000 0.000000
0.000000 0.000000 0.000000
0.000000 0.000000 0.000000
0.000000 0.000000 0.000000
0.000000 0.000000 0.000000
0.000000 0.000000 0.000000
0.000000 0.000000 0.000000
0.000000 0.000000 0.000000
0.000000 0.000000 0.000000
0.000000 0.000000 0.000000
0.000000 0.000000 0.000000
0.000000 0.000000 0.000000
0.000000 0.000000 0.000000
0.000000 0.000000 0.000000
0.000000 0.000000 0.000000
0.000000 0.000000 0.000000
0.000000 0.000000 0.000000
0.000000 0.000000 0.000000
0.000000 0.000000 0.000000
0.000000 0.000000 0.000000
0.000000 0.000000 0.000000
0.000000 0.000000 0.000000
0.000000 0.000000 0.000000
0.000000 0.000000 0.000000
0.000000 0.000000 0.000000
0.000000 0.000000 0.000000
0.000000 0.000000 0.000000
0.000000 0.000000 0.000000
0.000000 0.000000 0.000000
0.000000 0.000000 0.000000
0.000000 0.000000 0.000000
0.000000 0.000000 0.000000
0.000000 0.000000 0.000000
0.000000 0.000000 0.000000
0.000000 0.000000 0.000000
0.000000 0.000000 0.000000
0.000000 0.000000 0.000000
0.000000 0.000000 0.000000
0.000000 0.000000 0.000000
0.000000 0.000000 0.000000
0.000000 0.000000 0.000000
0.000000 0.000000 0.000000
0.000000 0.000000 0.000000
0.000000 0.000000 0.000000
0.000000 0.000000 0.000000
0.000000 0.000000 0.000000
0.000000 0.000000 0.000000
