Ti96 Nb1
1.0
9.513020 0.000000 0.000000
0.000000 9.350860 0.000000
0.000000 0.000000 18.547230
Ti Nb
96 1
Selective dynamics
direct
0.142222 0.377113 0.404776 T T T Ti
0.648780 0.360586 0.403497 T T T Ti
0.168612 0.883608 0.401588 T T T Ti
0.626328 0.943788 0.407786 T T T Ti
0.160918 0.377826 0.235494 T T T Ti
0.659769 0.376515 0.232784 T T T Ti
0.162461 0.876039 0.236228 T T T Ti
0.655553 0.883380 0.233322 T T T Ti
0.166635 0.374987 0.077464 F F F Ti
0.666692 0.375021 0.077497 F F F Ti
0.166690 0.874985 0.077507 F F F Ti
0.666671 0.874957 0.077683 F F F Ti
0.395741 0.366744 0.320276 T T T Ti
0.908526 0.361585 0.311913 T T T Ti
0.411877 0.864255 0.319379 T T T Ti
0.921325 0.894858 0.323781 T T T Ti
0.416507 0.375038 0.154993 F F F Ti
0.916803 0.374879 0.155000 F F F Ti
0.416711 0.875037 0.155181 F F F Ti
0.916641 0.874842 0.155169 F F F Ti
0.416659 0.375017 -0.000102 F F F Ti
0.916634 0.375007 -0.000077 F F F Ti
0.416725 0.874990 -0.000038 F F F Ti
0.916610 0.874963 -0.000022 F F F Ti
0.104259 0.133257 0.320275 T T T Ti
0.591474 0.138416 0.311912 T T T Ti
0.088123 0.635746 0.319378 T T T Ti
0.578675 0.605144 0.323781 T T T Ti
0.083499 0.124987 0.154992 F F F Ti
0.583192 0.125145 0.154998 F F F Ti
0.083292 0.624979 0.155181 F F F Ti
0.583356 0.625176 0.155168 F F F Ti
0.083347 0.124993 -0.000102 F F F Ti
0.583362 0.125001 -0.000075 F F F Ti
0.083281 0.625012 -0.000038 F F F Ti
0.583388 0.625041 -0.000022 F F F Ti
0.357777 0.122887 0.404776 T T T Ti
0.851219 0.139414 0.403497 T T T Ti
0.331387 0.616392 0.401589 T T T Ti
0.873671 0.556212 0.407786 T T T Ti
0.339082 0.122178 0.235494 T T T Ti
0.840230 0.123490 0.232784 T T T Ti
0.337538 0.623966 0.236228 T T T Ti
0.844446 0.616625 0.233322 T T T Ti
0.333364 0.125030 0.077463 F F F Ti
0.833308 0.124995 0.077497 F F F Ti
0.333309 0.625032 0.077507 F F F Ti
0.833329 0.625053 0.077683 F F F Ti
0.374965 0.374993 0.823903 F F F Ti
0.875012 0.374960 0.823860 F F F Ti
0.375063 0.874996 0.823891 F F F Ti
0.874970 0.874953 0.823808 F F F Ti
0.125041 0.124998 0.823902 F F F Ti
0.624995 0.125034 0.823860 F F F Ti
0.124942 0.624990 0.823892 F F F Ti
0.625037 0.625039 0.823810 F F F Ti
0.124895 0.375051 0.910078 F F F Ti
0.625060 0.375084 0.910059 F F F Ti
0.124869 0.874942 0.910075 F F F Ti
0.625076 0.874939 0.910041 F F F Ti
0.375111 0.124947 0.910079 F F F Ti
0.874945 0.124913 0.910059 F F F Ti
0.375136 0.625048 0.910075 F F F Ti
0.874930 0.625059 0.910040 F F F Ti
0.394635 0.366220 0.647677 T T T Ti
0.891779 0.364325 0.662089 T T T Ti
0.383419 0.863826 0.663764 T T T Ti
0.889876 0.864525 0.656621 T T T Ti
0.105363 0.133775 0.647676 T T T Ti
0.608218 0.135669 0.662089 T T T Ti
0.116578 0.636166 0.663764 T T T Ti
0.610122 0.635468 0.656621 T T T Ti
0.145926 0.392726 0.574197 T T T Ti
0.653537 0.387558 0.578171 T T T Ti
0.148001 0.879010 0.574844 T T T Ti
0.629147 0.893428 0.580789 T T T Ti
0.354073 0.107271 0.574197 T T T Ti
0.846463 0.112440 0.578171 T T T Ti
0.351999 0.620988 0.574844 T T T Ti
0.870852 0.606570 0.580789 T T T Ti
0.387312 0.365834 0.490843 T T T Ti
0.904763 0.349306 0.499098 T T T Ti
0.400212 0.854732 0.487545 T T T Ti
0.921019 0.897551 0.483611 T T T Ti
0.112688 0.134166 0.490843 T T T Ti
0.595237 0.150693 0.499098 T T T Ti
0.099787 0.645267 0.487545 T T T Ti
0.578981 0.602449 0.483611 T T T Ti
0.125147 0.874962 0.737745 F F F Ti
0.624988 0.875141 0.737584 F F F Ti
0.374840 0.625007 0.737746 F F F Ti
0.875005 0.624839 0.737587 F F F Ti
0.125053 0.374912 0.737688 F F F Ti
0.624960 0.374944 0.737706 F F F Ti
0.374938 0.125065 0.737687 F F F Ti
0.875030 0.125030 0.737706 F F F Ti
0.750000 0.750000 0.413873 T T T Nb

0.000000 0.000000 0.000000
0.000000 0.000000 0.000000
0.000000 0.000000 0.000000
0.000000 0.000000 0.000000
0.000000 0.000000 0.000000
0.000000 0.000000 0.000000
0.000000 0.000000 0.000000
0.000000 0.000000 0.000000
0.000000 0.000000 0.000000
0.000000 0.000000 0.000000
0.000000 0.000000 0.000000
0.000000 0.000000 0.000000
0.000000 0.000000 0.000000
0.000000 0.000000 0.000000
0.000000 0.000000 0.000000
0.000000 0.000000 0.000000
0.000000 0.000000 0.000000
0.000000 0.000000 0.000000
0.000000 0.000000 0.000000
0.000000 0.000000 0.000000
0.000000 0.000000 0.000000
0.000000 0.000000 0.000000
0.000000 0.000000 0.000000
0.000000 0.000000 0.000000
0.000000 0.000000 0.000000
0.000000 0.000000 0.000000
0.000000 0.000000 0.000000
0.000000 0.000000 0.000000
0.000000 0.000000 0.000000
0.000000 0.000000 0.000000
0.000000 0.000000 0.000000
0.000000 0.000000 0.000000
0.000000 0.000000 0.000000
0.000000 0.000000 0.000000
0.000000 0.000000 0.000000
0.000000 0.000000 0.000000
0.000000 0.000000 0.000000
0.000000 0.000000 0.000000
0.000000 0.000000 0.000000
0.000000 0.000000 0.000000
0.000000 0.000000 0.000000
0.000000 0.000000 0.000000
0.000000 0.000000 0.000000
0.000000 0.000000 0.000000
0.000000 0.000000 0.000000
0.000000 0.000000 0.000000
0.000000 0.000000 0.000000
0.000000 0.000000 0.000000
0.000000 0.000000 0.000000
0.000000 0.000000 0.000000
0.000000 0.000000 0.000000
0.000000 0.000000 0.000000
0.000000 0.000000 0.000000
0.000000 0.000000 0.000000
0.000000 0.000000 0.000000
0.000000 0.000000 0.000000
0.000000 0.000000 0.000000
0.000000 0.000000 0.000000
0.000000 0.000000 0.000000
0.000000 0.000000 0.000000
0.000000 0.000000 0.000000
0.000000 0.000000 0.000000
0.000000 0.000000 0.000000
0.000000 0.000000 0.000000
0.000000 0.000000 0.000000
0.000000 0.000000 0.000000
0.000000 0.000000 0.000000
0.000000 0.000000 0.000000
0.000000 0.000000 0.000000
0.000000 0.000000 0.000000
0.000000 0.000000 0.000000
0.000000 0.000000 0.000000
0.000000 0.000000 0.000000
0.000000 0.000000 0.000000
0.000000 0.000000 0.000000
0.000000 0.000000 0.000000
0.000000 0.000000 0.000000
0.000000 0.000000 0.000000
0.000000 0.000000 0.000000
0.000000 0.000000 0.000000
0.000000 0.000000 0.000000
0.000000 0.000000 0.000000
0.000000 0.000000 0.000000
0.000000 0.000000 0.000000
0.000000 0.000000 0.000000
0.000000 0.000000 0.000000
0.000000 0.000000 0.000000
0.000000 0.000000 0.000000
0.000000 0.000000 0.000000
0.000000 0.000000 0.000000
0.000000 0.000000 0.000000
0.000000 0.000000 0.000000
0.000000 0.000000 0.000000
0.000000 0.000000 0.000000
0.000000 0.000000 0.000000
0.000000 0.000000 0.000000
0.000000 0.000000 0.000000
