total_Ti
1.0
4.756512 0.000000 0.000000
0.000000 4.675432 0.000000
0.000000 0.000000 29.211800
Ti
24
direct
0.333333 0.750000 0.246633 Ti
0.333333 0.750000 0.147980 Ti
0.333333 0.750000 0.049327 Ti
0.833334 0.750000 0.197307 Ti
0.833334 0.750000 0.098653 Ti
0.833334 0.750000 -0.000000 Ti
0.166666 0.250000 0.197307 Ti
0.166666 0.250000 0.098653 Ti
0.166666 0.250000 -0.000000 Ti
0.666667 0.250000 0.246633 Ti
0.666667 0.250000 0.147980 Ti
0.666667 0.250000 0.049327 Ti
0.666667 0.750000 0.760372 Ti
0.166667 0.250000 0.760372 Ti
0.166667 0.750000 0.705551 Ti
0.666667 0.250000 0.705551 Ti
0.666667 0.750000 0.650728 Ti
0.166667 0.250000 0.650728 Ti
0.166667 0.750000 0.595906 Ti
0.666667 0.250000 0.595906 Ti
0.666667 0.750000 0.541084 Ti
0.166667 0.250000 0.541084 Ti
0.166667 0.750000 0.486262 Ti
0.666667 0.250000 0.486262 Ti
