beta_Ti
1.0
6.309760 0.000000 0.000000
0.000000 9.464640 0.000000
0.000000 0.000000 29.000004
Ti
36
direct
0.875000 0.041667 0.500000 Ti
0.375000 0.041667 0.500000 Ti
0.875000 0.041667 0.603448 Ti
0.375000 0.041667 0.603448 Ti
0.875000 0.041667 0.706897 Ti
0.375000 0.041667 0.706897 Ti
0.875000 0.375000 0.500000 Ti
0.375000 0.375000 0.500000 Ti
0.875000 0.375000 0.603448 Ti
0.375000 0.375000 0.603448 Ti
0.875000 0.375000 0.706897 Ti
0.375000 0.375000 0.706897 Ti
0.875000 0.708333 0.500000 Ti
0.375000 0.708333 0.500000 Ti
0.875000 0.708333 0.603448 Ti
0.375000 0.708333 0.603448 Ti
0.875000 0.708333 0.706897 Ti
0.375000 0.708333 0.706897 Ti
0.125000 0.208333 0.551724 Ti
0.625000 0.208333 0.551724 Ti
0.125000 0.208333 0.655172 Ti
0.625000 0.208333 0.655172 Ti
0.125000 0.208333 0.758621 Ti
0.625000 0.208333 0.758621 Ti
0.125000 0.541667 0.551724 Ti
0.625000 0.541667 0.551724 Ti
0.125000 0.541667 0.655172 Ti
0.625000 0.541667 0.655172 Ti
0.125000 0.541667 0.758621 Ti
0.625000 0.541667 0.758621 Ti
0.125000 0.875000 0.551724 Ti
0.625000 0.875000 0.551724 Ti
0.125000 0.875000 0.655172 Ti
0.625000 0.875000 0.655172 Ti
0.125000 0.875000 0.758621 Ti
0.625000 0.875000 0.758621 Ti
