Ti82 Mo1
1.0
6.391540 0.000000 0.000000
0.000000 9.587310 0.000000
0.000000 0.000000 23.271695
Ti Mo
82 1
Selective dynamics
direct
0.633562 0.080699 0.579944 F F F Ti
0.122354 0.081860 0.710595 F F F Ti
0.625416 0.082739 0.709722 F F F Ti
0.124873 0.083274 0.838576 F F F Ti
0.624799 0.083300 0.838510 F F F Ti
0.120694 0.421223 0.579982 F F F Ti
0.626075 0.417582 0.580314 F F F Ti
0.124236 0.416997 0.709633 F F F Ti
0.624275 0.416737 0.709557 F F F Ti
0.124969 0.416636 0.838464 F F F Ti
0.624813 0.416655 0.838466 F F F Ti
0.124916 0.750379 0.580560 F F F Ti
0.625294 0.749600 0.580469 F F F Ti
0.124831 0.749654 0.709652 F F F Ti
0.625203 0.749571 0.709686 F F F Ti
0.124963 0.749859 0.838516 F F F Ti
0.624878 0.749832 0.838538 F F F Ti
0.870769 0.250926 0.645394 F F F Ti
0.374734 0.249878 0.774001 F F F Ti
0.874385 0.250148 0.774133 F F F Ti
0.374962 0.249999 0.902905 F F F Ti
0.874905 0.250014 0.902923 F F F Ti
0.374912 0.583498 0.645051 F F F Ti
0.874317 0.583858 0.645213 F F F Ti
0.374884 0.583243 0.774035 F F F Ti
0.874817 0.583239 0.774084 F F F Ti
0.374954 0.583272 0.902916 F F F Ti
0.874970 0.583264 0.902924 F F F Ti
0.376685 0.914205 0.645405 F F F Ti
0.875310 0.916070 0.645254 F F F Ti
0.375144 0.916325 0.774142 F F F Ti
0.874436 0.916185 0.774204 F F F Ti
0.374975 0.916606 0.902932 F F F Ti
0.874905 0.916604 0.902937 F F F Ti
0.125118 0.166695 0.386649 F F F Ti
0.625232 0.166678 0.386610 F F F Ti
0.125059 0.666679 0.386698 F F F Ti
0.624932 0.666652 0.386650 F F F Ti
0.124989 0.166661 0.000029 F F F Ti
0.624970 0.166660 0.000030 F F F Ti
0.124992 0.666642 0.000025 F F F Ti
0.624967 0.666640 0.000028 F F F Ti
0.124996 0.833329 0.096690 F F F Ti
0.624987 0.833329 0.096690 F F F Ti
0.125151 0.833531 0.483400 F F F Ti
0.625239 0.833176 0.483283 F F F Ti
0.124997 0.333331 0.096686 F F F Ti
0.624985 0.333332 0.096685 F F F Ti
0.124738 0.333887 0.483131 F F F Ti
0.625706 0.333529 0.483180 F F F Ti
0.375175 0.583671 0.483256 F F F Ti
0.874701 0.583781 0.483189 F F F Ti
0.375001 0.583325 0.096686 F F F Ti
0.875009 0.583327 0.096687 F F F Ti
0.374993 0.083335 0.096688 F F F Ti
0.875002 0.083335 0.096687 F F F Ti
0.376088 0.083173 0.483088 F F F Ti
0.875981 0.083430 0.483163 F F F Ti
0.375088 0.416712 0.386637 F F F Ti
0.874968 0.416756 0.386601 F F F Ti
0.375030 0.916618 0.386656 F F F Ti
0.875085 0.916639 0.386668 F F F Ti
0.374977 0.416659 0.000026 F F F Ti
0.874978 0.416662 0.000031 F F F Ti
0.374980 0.916651 0.000043 F F F Ti
0.874974 0.916650 0.000046 F F F Ti
0.375005 0.083329 0.290011 F F F Ti
0.875021 0.083322 0.290007 F F F Ti
0.124994 0.166663 0.193353 F F F Ti
0.624996 0.166660 0.193348 F F F Ti
0.125000 0.333342 0.290007 F F F Ti
0.625000 0.333343 0.289991 F F F Ti
0.374985 0.416670 0.193348 F F F Ti
0.874992 0.416670 0.193346 F F F Ti
0.374999 0.583353 0.290004 F F F Ti
0.875020 0.583363 0.289999 F F F Ti
0.124997 0.666662 0.193357 F F F Ti
0.624986 0.666661 0.193352 F F F Ti
0.124992 0.833332 0.290020 F F F Ti
0.625013 0.833331 0.290008 F F F Ti
0.374986 0.916659 0.193355 F F F Ti
0.874994 0.916658 0.193353 F F F Ti
0.284716 0.186055 0.614425 T T T Mo

0.000000 0.000000 0.000000
0.000000 0.000000 0.000000
0.000000 0.000000 0.000000
0.000000 0.000000 0.000000
0.000000 0.000000 0.000000
0.000000 0.000000 0.000000
0.000000 0.000000 0.000000
0.000000 0.000000 0.000000
0.000000 0.000000 0.000000
0.000000 0.000000 0.000000
0.000000 0.000000 0.000000
0.000000 0.000000 0.000000
0.000000 0.000000 0.000000
0.000000 0.000000 0.000000
0.000000 0.000000 0.000000
0.000000 0.000000 0.000000
0.000000 0.000000 0.000000
0.000000 0.000000 0.000000
0.000000 0.000000 0.000000
0.000000 0.000000 0.000000
0.000000 0.000000 0.000000
0.000000 0.000000 0.000000
0.000000 0.000000 0.000000
0.000000 0.000000 0.000000
0.000000 0.000000 0.000000
0.000000 0.000000 0.000000
0.000000 0.000000 0.000000
0.000000 0.000000 0.000000
0.000000 0.000000 0.000000
0.000000 0.000000 0.000000
0.000000 0.000000 0.000000
0.000000 0.000000 0.000000
0.000000 0.000000 0.000000
0.000000 0.000000 0.000000
0.000000 0.000000 0.000000
0.000000 0.000000 0.000000
0.000000 0.000000 0.000000
0.000000 0.000000 0.000000
0.000000 0.000000 0.000000
0.000000 0.000000 0.000000
0.000000 0.000000 0.000000
0.000000 0.000000 0.000000
0.000000 0.000000 0.000000
0.000000 0.000000 0.000000
0.000000 0.000000 0.000000
0.000000 0.000000 0.000000
0.000000 0.000000 0.000000
0.000000 0.000000 0.000000
0.000000 0.000000 0.000000
0.000000 0.000000 0.000000
0.000000 0.000000 0.000000
0.000000 0.000000 0.000000
0.000000 0.000000 0.000000
0.000000 0.000000 0.000000
0.000000 0.000000 0.000000
0.000000 0.000000 0.000000
0.000000 0.000000 0.000000
0.000000 0.000000 0.000000
0.000000 0.000000 0.000000
0.000000 0.000000 0.000000
0.000000 0.000000 0.000000
0.000000 0.000000 0.000000
0.000000 0.000000 0.000000
0.000000 0.000000 0.000000
0.000000 0.000000 0.000000
0.000000 0.000000 0.000000
0.000000 0.000000 0.000000
0.000000 0.000000 0.000000
0.000000 0.000000 0.000000
0.000000 0.000000 0.000000
0.000000 0.000000 0.000000
0.000000 0.000000 0.000000
0.000000 0.000000 0.000000
0.000000 0.000000 0.000000
0.000000 0.000000 0.000000
0.000000 0.000000 0.000000
0.000000 0.000000 0.000000
0.000000 0.000000 0.000000
0.000000 0.000000 0.000000
0.000000 0.000000 0.000000
0.000000 0.000000 0.000000
0.000000 0.000000 0.000000
0.000000 0.000000 0.000000
