Ti96 Nb1
1.0
9.513020 0.000000 0.000000
0.000000 9.350860 0.000000
0.000000 0.000000 18.547230
Ti Nb
96 1
Selective dynamics
direct
0.143493 0.370501 0.406257 T T T Ti
0.645400 0.340635 0.405743 T T T Ti
0.137933 0.855664 0.393727 T T T Ti
0.677137 0.885640 0.393689 T T T Ti
0.160840 0.373055 0.235002 T T T Ti
0.661774 0.373498 0.232865 T T T Ti
0.163290 0.874016 0.234823 T T T Ti
0.654770 0.867958 0.238592 T T T Ti
0.166661 0.375004 0.077672 F F F Ti
0.666660 0.374993 0.077673 F F F Ti
0.166681 0.875013 0.077688 F F F Ti
0.666670 0.875010 0.077693 F F F Ti
0.404282 0.376616 0.313570 T T T Ti
0.897552 0.373089 0.319727 T T T Ti
0.402948 0.899219 0.325122 T T T Ti
0.914460 0.884532 0.310521 T T T Ti
0.416661 0.374999 0.155323 F F F Ti
0.916644 0.374975 0.155312 F F F Ti
0.416680 0.875022 0.155362 F F F Ti
0.916717 0.875038 0.155326 F F F Ti
0.416666 0.375001 -0.000006 F F F Ti
0.916658 0.374997 -0.000010 F F F Ti
0.416671 0.874999 0.000008 F F F Ti
0.916670 0.875004 -0.000001 F F F Ti
0.102448 0.126911 0.319726 T T T Ti
0.595718 0.123384 0.313569 T T T Ti
0.085540 0.615468 0.310520 T T T Ti
0.597052 0.600782 0.325121 T T T Ti
0.083356 0.125028 0.155311 F F F Ti
0.583339 0.125004 0.155323 F F F Ti
0.083283 0.624964 0.155326 F F F Ti
0.583320 0.624980 0.155362 F F F Ti
0.083342 0.125004 -0.000010 F F F Ti
0.583334 0.125000 -0.000006 F F F Ti
0.083330 0.624997 -0.000001 F F F Ti
0.583330 0.625001 0.000008 F F F Ti
0.354599 0.159365 0.405743 T T T Ti
0.856506 0.129499 0.406257 T T T Ti
0.322862 0.614360 0.393689 T T T Ti
0.862066 0.644336 0.393727 T T T Ti
0.338225 0.126502 0.232865 T T T Ti
0.839159 0.126946 0.235002 T T T Ti
0.345229 0.632042 0.238592 T T T Ti
0.836709 0.625984 0.234823 T T T Ti
0.333339 0.125009 0.077673 F F F Ti
0.833338 0.124997 0.077671 F F F Ti
0.333330 0.624991 0.077693 F F F Ti
0.833318 0.624988 0.077689 F F F Ti
0.374995 0.375015 0.823760 F F F Ti
0.874994 0.374993 0.823772 F F F Ti
0.375000 0.874994 0.823752 F F F Ti
0.874993 0.874997 0.823761 F F F Ti
0.125006 0.125008 0.823772 F F F Ti
0.625006 0.124984 0.823760 F F F Ti
0.125007 0.625002 0.823761 F F F Ti
0.625001 0.625006 0.823752 F F F Ti
0.125001 0.375005 0.910098 F F F Ti
0.625000 0.375003 0.910096 F F F Ti
0.125002 0.875001 0.910100 F F F Ti
0.625002 0.874996 0.910094 F F F Ti
0.375001 0.124997 0.910096 F F F Ti
0.875000 0.124995 0.910097 F F F Ti
0.374999 0.625003 0.910094 F F F Ti
0.874998 0.624998 0.910099 F F F Ti
0.392808 0.387955 0.658055 T T T Ti
0.894098 0.371998 0.647252 T T T Ti
0.392785 0.892493 0.645643 T T T Ti
0.880990 0.885512 0.668820 T T T Ti
0.105902 0.128002 0.647252 T T T Ti
0.607192 0.112044 0.658055 T T T Ti
0.119010 0.614488 0.668820 T T T Ti
0.607215 0.607507 0.645643 T T T Ti
0.150817 0.379973 0.566892 T T T Ti
0.641050 0.338248 0.573365 T T T Ti
0.122169 0.858079 0.586688 T T T Ti
0.656428 0.862133 0.575678 T T T Ti
0.358950 0.161752 0.573365 T T T Ti
0.849183 0.120027 0.566892 T T T Ti
0.343572 0.637867 0.575678 T T T Ti
0.877831 0.641921 0.586688 T T T Ti
0.412591 0.408249 0.488384 T T T Ti
0.899278 0.375619 0.488668 T T T Ti
0.324697 0.927090 0.492844 T T T Ti
0.908314 0.877260 0.487274 T T T Ti
0.100722 0.124381 0.488668 T T T Ti
0.587409 0.091751 0.488384 T T T Ti
0.091686 0.622740 0.487274 T T T Ti
0.675303 0.572910 0.492844 T T T Ti
0.124972 0.875018 0.737470 F F F Ti
0.625066 0.874960 0.737425 F F F Ti
0.374934 0.625038 0.737426 F F F Ti
0.875026 0.624979 0.737470 F F F Ti
0.124992 0.375021 0.737471 F F F Ti
0.625009 0.374931 0.737471 F F F Ti
0.374989 0.125065 0.737471 F F F Ti
0.875006 0.124976 0.737472 F F F Ti
0.500000 0.750000 0.464283 T T T Nb

0.000000 0.000000 0.000000
0.000000 0.000000 0.000000
0.000000 0.000000 0.000000
0.000000 0.000000 0.000000
0.000000 0.000000 0.000000
0.000000 0.000000 0.000000
0.000000 0.000000 0.000000
0.000000 0.000000 0.000000
0.000000 0.000000 0.000000
0.000000 0.000000 0.000000
0.000000 0.000000 0.000000
0.000000 0.000000 0.000000
0.000000 0.000000 0.000000
0.000000 0.000000 0.000000
0.000000 0.000000 0.000000
0.000000 0.000000 0.000000
0.000000 0.000000 0.000000
0.000000 0.000000 0.000000
0.000000 0.000000 0.000000
0.000000 0.000000 0.000000
0.000000 0.000000 0.000000
0.000000 0.000000 0.000000
0.000000 0.000000 0.000000
0.000000 0.000000 0.000000
0.000000 0.000000 0.000000
0.000000 0.000000 0.000000
0.000000 0.000000 0.000000
0.000000 0.000000 0.000000
0.000000 0.000000 0.000000
0.000000 0.000000 0.000000
0.000000 0.000000 0.000000
0.000000 0.000000 0.000000
0.000000 0.000000 0.000000
0.000000 0.000000 0.000000
0.000000 0.000000 0.000000
0.000000 0.000000 0.000000
0.000000 0.000000 0.000000
0.000000 0.000000 0.000000
0.000000 0.000000 0.000000
0.000000 0.000000 0.000000
0.000000 0.000000 0.000000
0.000000 0.000000 0.000000
0.000000 0.000000 0.000000
0.000000 0.000000 0.000000
0.000000 0.000000 0.000000
0.000000 0.000000 0.000000
0.000000 0.000000 0.000000
0.000000 0.000000 0.000000
0.000000 0.000000 0.000000
0.000000 0.000000 0.000000
0.000000 0.000000 0.000000
0.000000 0.000000 0.000000
0.000000 0.000000 0.000000
0.000000 0.000000 0.000000
0.000000 0.000000 0.000000
0.000000 0.000000 0.000000
0.000000 0.000000 0.000000
0.000000 0.000000 0.000000
0.000000 0.000000 0.000000
0.000000 0.000000 0.000000
0.000000 0.000000 0.000000
0.000000 0.000000 0.000000
0.000000 0.000000 0.000000
0.000000 0.000000 0.000000
0.000000 0.000000 0.000000
0.000000 0.000000 0.000000
0.000000 0.000000 0.000000
0.000000 0.000000 0.000000
0.000000 0.000000 0.000000
0.000000 0.000000 0.000000
0.000000 0.000000 0.000000
0.000000 0.000000 0.000000
0.000000 0.000000 0.000000
0.000000 0.000000 0.000000
0.000000 0.000000 0.000000
0.000000 0.000000 0.000000
0.000000 0.000000 0.000000
0.000000 0.000000 0.000000
0.000000 0.000000 0.000000
0.000000 0.000000 0.000000
0.000000 0.000000 0.000000
0.000000 0.000000 0.000000
0.000000 0.000000 0.000000
0.000000 0.000000 0.000000
0.000000 0.000000 0.000000
0.000000 0.000000 0.000000
0.000000 0.000000 0.000000
0.000000 0.000000 0.000000
0.000000 0.000000 0.000000
0.000000 0.000000 0.000000
0.000000 0.000000 0.000000
0.000000 0.000000 0.000000
0.000000 0.000000 0.000000
0.000000 0.000000 0.000000
0.000000 0.000000 0.000000
0.000000 0.000000 0.000000
0.000000 0.000000 0.000000
