Ti112 Al1
1.0
11.491180 0.000000 0.000000
0.000000 9.072750 0.000000
0.000000 0.000000 18.146009
Ti Al
112 1
direct
0.020833 0.875000 0.514331 Ti
0.520833 0.875000 0.514331 Ti
0.020833 0.375000 0.514331 Ti
0.520833 0.375000 0.514331 Ti
0.270833 0.875000 0.514331 Ti
0.770833 0.875000 0.514331 Ti
0.270833 0.375000 0.514331 Ti
0.770833 0.375000 0.514331 Ti
0.145834 0.625000 0.561090 Ti
0.645834 0.625000 0.561090 Ti
0.145834 0.125000 0.561090 Ti
0.645834 0.125000 0.561090 Ti
0.395833 0.625000 0.561090 Ti
0.895833 0.625000 0.561090 Ti
0.395833 0.125000 0.561090 Ti
0.895833 0.125000 0.561090 Ti
0.145834 0.875000 0.374058 Ti
0.645834 0.875000 0.374058 Ti
0.145834 0.375000 0.374058 Ti
0.645834 0.375000 0.374058 Ti
0.395833 0.875000 0.374058 Ti
0.895833 0.875000 0.374058 Ti
0.395833 0.375000 0.374058 Ti
0.895833 0.375000 0.374058 Ti
0.020833 0.625000 0.420817 Ti
0.520833 0.625000 0.420817 Ti
0.020833 0.125000 0.420817 Ti
0.520833 0.125000 0.420817 Ti
0.270833 0.625000 0.420817 Ti
0.770833 0.625000 0.420817 Ti
0.270833 0.125000 0.420817 Ti
0.770833 0.125000 0.420817 Ti
0.020833 0.875000 0.233787 Ti
0.520833 0.875000 0.233787 Ti
0.020833 0.375000 0.233787 Ti
0.520833 0.375000 0.233787 Ti
0.270833 0.875000 0.233787 Ti
0.770833 0.875000 0.233787 Ti
0.270833 0.375000 0.233787 Ti
0.770833 0.375000 0.233787 Ti
0.145834 0.625000 0.280544 Ti
0.645834 0.625000 0.280544 Ti
0.145834 0.125000 0.280544 Ti
0.645834 0.125000 0.280544 Ti
0.395833 0.625000 0.280544 Ti
0.895833 0.625000 0.280544 Ti
0.395833 0.125000 0.280544 Ti
0.895833 0.125000 0.280544 Ti
0.145834 0.875000 0.093514 Ti
0.645834 0.875000 0.093514 Ti
0.145834 0.375000 0.093514 Ti
0.645834 0.375000 0.093514 Ti
0.395833 0.875000 0.093514 Ti
0.895833 0.875000 0.093514 Ti
0.395833 0.375000 0.093514 Ti
0.895833 0.375000 0.093514 Ti
0.020833 0.625000 0.140273 Ti
0.520833 0.625000 0.140273 Ti
0.020833 0.125000 0.140273 Ti
0.520833 0.125000 0.140273 Ti
0.270833 0.625000 0.140273 Ti
0.770833 0.625000 0.140273 Ti
0.270833 0.125000 0.140273 Ti
0.770833 0.125000 0.140273 Ti
0.229166 0.625000 0.707395 Ti
0.729166 0.625000 0.707395 Ti
0.229166 0.125000 0.707395 Ti
0.729166 0.125000 0.707395 Ti
0.479167 0.625000 0.707395 Ti
0.979167 0.625000 0.707395 Ti
0.479167 0.125000 0.707395 Ti
0.979167 0.125000 0.707395 Ti
0.062500 0.625000 0.853698 Ti
0.562500 0.625000 0.853698 Ti
0.062500 0.125000 0.853698 Ti
0.562500 0.125000 0.853698 Ti
0.312500 0.625000 0.853698 Ti
0.812500 0.625000 0.853698 Ti
0.312500 0.125000 0.853698 Ti
0.812500 0.125000 0.853698 Ti
0.062500 0.875000 0.634242 Ti
0.562500 0.875000 0.634242 Ti
0.062500 0.375000 0.634242 Ti
0.562500 0.375000 0.634242 Ti
0.312500 0.875000 0.634242 Ti
0.812500 0.875000 0.634242 Ti
0.312500 0.375000 0.634242 Ti
0.812500 0.375000 0.634242 Ti
0.145834 0.875000 0.780546 Ti
0.645834 0.875000 0.780546 Ti
0.145834 0.375000 0.780546 Ti
0.645834 0.375000 0.780546 Ti
0.395833 0.875000 0.780546 Ti
0.895833 0.875000 0.780546 Ti
0.395833 0.375000 0.780546 Ti
0.895833 0.375000 0.780546 Ti
0.229166 0.875000 0.926851 Ti
0.729166 0.875000 0.926851 Ti
0.229166 0.375000 0.926851 Ti
0.729166 0.375000 0.926851 Ti
0.479167 0.875000 0.926851 Ti
0.979167 0.875000 0.926851 Ti
0.479167 0.375000 0.926851 Ti
0.979167 0.375000 0.926851 Ti
0.395833 0.125000 0.000000 Ti
0.895833 0.125000 0.000000 Ti
0.145834 0.125000 0.000000 Ti
0.645834 0.125000 0.000000 Ti
0.395833 0.625000 0.000000 Ti
0.895833 0.625000 0.000000 Ti
0.145834 0.625000 0.000000 Ti
0.645834 0.625000 0.000000 Ti
0.395833 0.250000 0.467574 Al
