Ti66 Mo1
1.0
6.309760 0.000000 0.000000
0.000000 9.464640 0.000000
0.000000 0.000000 18.918326
Ti Mo
66 1
Selective dynamics
direct
0.120033 0.038822 0.500698 F F F Ti
0.628360 0.039659 0.500576 F F F Ti
0.125552 0.041438 0.659330 F F F Ti
0.623788 0.041628 0.659347 F F F Ti
0.125152 0.041792 0.817758 F F F Ti
0.624769 0.041836 0.817735 F F F Ti
0.097571 0.379155 0.505058 F F F Ti
0.656984 0.383873 0.506587 F F F Ti
0.124463 0.375265 0.659636 F F F Ti
0.624534 0.375560 0.660250 F F F Ti
0.124954 0.375058 0.817756 F F F Ti
0.624650 0.375046 0.817882 F F F Ti
0.124487 0.708547 0.500734 F F F Ti
0.623946 0.710107 0.500779 F F F Ti
0.126103 0.709454 0.659757 F F F Ti
0.623039 0.709753 0.659876 F F F Ti
0.125045 0.708625 0.817896 F F F Ti
0.624616 0.708680 0.817918 F F F Ti
0.873378 0.205528 0.581668 F F F Ti
0.374738 0.208426 0.738350 F F F Ti
0.874872 0.208167 0.738792 F F F Ti
0.374977 0.208357 0.896809 F F F Ti
0.874916 0.208359 0.896870 F F F Ti
0.374291 0.542071 0.580252 F F F Ti
0.874963 0.547448 0.582812 F F F Ti
0.374757 0.541965 0.738690 F F F Ti
0.874854 0.542332 0.739118 F F F Ti
0.374956 0.541651 0.896901 F F F Ti
0.874880 0.541676 0.896960 F F F Ti
0.374662 0.875555 0.579739 F F F Ti
0.874396 0.874433 0.580414 F F F Ti
0.374763 0.875487 0.738625 F F F Ti
0.874809 0.875322 0.738699 F F F Ti
0.375038 0.875132 0.896910 F F F Ti
0.874914 0.875108 0.896921 F F F Ti
0.124519 0.623386 0.357426 F F F Ti
0.625075 0.624869 0.356913 F F F Ti
0.125261 0.624587 0.119182 F F F Ti
0.624791 0.624571 0.119150 F F F Ti
0.116310 0.119619 0.356105 F F F Ti
0.636136 0.117717 0.354906 F F F Ti
0.125279 0.124608 0.118959 F F F Ti
0.624620 0.124608 0.118851 F F F Ti
0.125236 0.374843 0.039947 F F F Ti
0.624778 0.374872 0.039942 F F F Ti
0.125073 0.874796 0.039811 F F F Ti
0.624792 0.874759 0.039781 F F F Ti
0.124194 0.373522 0.277993 F F F Ti
0.626264 0.373956 0.276947 F F F Ti
0.124486 0.873100 0.277383 F F F Ti
0.624817 0.872573 0.277031 F F F Ti
0.374799 0.874252 0.158569 F F F Ti
0.874946 0.874132 0.158378 F F F Ti
0.374748 0.374394 0.158896 F F F Ti
0.875574 0.374674 0.158535 F F F Ti
0.868027 0.374241 0.396120 F F F Ti
0.374384 0.873583 0.396576 F F F Ti
0.874424 0.871661 0.396637 F F F Ti
0.374491 0.623694 0.238240 F F F Ti
0.875252 0.623937 0.237945 F F F Ti
0.374954 0.624758 0.000415 F F F Ti
0.875097 0.624823 0.000412 F F F Ti
0.374684 0.123674 0.237941 F F F Ti
0.874875 0.123881 0.236887 F F F Ti
0.374994 0.124997 0.000308 F F F Ti
0.875086 0.124943 0.000301 F F F Ti
0.388825 0.321203 0.427264 T T T Mo

0.000000 0.000000 0.000000
0.000000 0.000000 0.000000
0.000000 0.000000 0.000000
0.000000 0.000000 0.000000
0.000000 0.000000 0.000000
0.000000 0.000000 0.000000
0.000000 0.000000 0.000000
0.000000 0.000000 0.000000
0.000000 0.000000 0.000000
0.000000 0.000000 0.000000
0.000000 0.000000 0.000000
0.000000 0.000000 0.000000
0.000000 0.000000 0.000000
0.000000 0.000000 0.000000
0.000000 0.000000 0.000000
0.000000 0.000000 0.000000
0.000000 0.000000 0.000000
0.000000 0.000000 0.000000
0.000000 0.000000 0.000000
0.000000 0.000000 0.000000
0.000000 0.000000 0.000000
0.000000 0.000000 0.000000
0.000000 0.000000 0.000000
0.000000 0.000000 0.000000
0.000000 0.000000 0.000000
0.000000 0.000000 0.000000
0.000000 0.000000 0.000000
0.000000 0.000000 0.000000
0.000000 0.000000 0.000000
0.000000 0.000000 0.000000
0.000000 0.000000 0.000000
0.000000 0.000000 0.000000
0.000000 0.000000 0.000000
0.000000 0.000000 0.000000
0.000000 0.000000 0.000000
0.000000 0.000000 0.000000
0.000000 0.000000 0.000000
0.000000 0.000000 0.000000
0.000000 0.000000 0.000000
0.000000 0.000000 0.000000
0.000000 0.000000 0.000000
0.000000 0.000000 0.000000
0.000000 0.000000 0.000000
0.000000 0.000000 0.000000
0.000000 0.000000 0.000000
0.000000 0.000000 0.000000
0.000000 0.000000 0.000000
0.000000 0.000000 0.000000
0.000000 0.000000 0.000000
0.000000 0.000000 0.000000
0.000000 0.000000 0.000000
0.000000 0.000000 0.000000
0.000000 0.000000 0.000000
0.000000 0.000000 0.000000
0.000000 0.000000 0.000000
0.000000 0.000000 0.000000
0.000000 0.000000 0.000000
0.000000 0.000000 0.000000
0.000000 0.000000 0.000000
0.000000 0.000000 0.000000
0.000000 0.000000 0.000000
0.000000 0.000000 0.000000
0.000000 0.000000 0.000000
0.000000 0.000000 0.000000
0.000000 0.000000 0.000000
0.000000 0.000000 0.000000
0.000000 0.000000 0.000000
