Ti96 Mo1
1.0
9.513020 0.000000 0.000000
0.000000 9.350860 0.000000
0.000000 0.000000 18.547230
Ti Mo
96 1
Selective dynamics
direct
0.144796 0.372362 0.406420 T T T Ti
0.646595 0.338598 0.406457 T T T Ti
0.136848 0.855211 0.394148 T T T Ti
0.672496 0.881336 0.395787 T T T Ti
0.161222 0.373015 0.235170 T T T Ti
0.661252 0.373257 0.232999 T T T Ti
0.163156 0.873846 0.234835 T T T Ti
0.653502 0.867244 0.239735 T T T Ti
0.166651 0.375003 0.077664 F F F Ti
0.666661 0.374982 0.077670 F F F Ti
0.166678 0.875021 0.077686 F F F Ti
0.666677 0.875005 0.077684 F F F Ti
0.404368 0.377510 0.314617 T T T Ti
0.897143 0.372849 0.320134 T T T Ti
0.401305 0.901892 0.327398 T T T Ti
0.913767 0.884890 0.310644 T T T Ti
0.416666 0.374992 0.155303 F F F Ti
0.916624 0.374945 0.155309 F F F Ti
0.416677 0.875018 0.155362 F F F Ti
0.916733 0.875049 0.155318 F F F Ti
0.416667 0.375001 -0.000010 F F F Ti
0.916653 0.374994 -0.000010 F F F Ti
0.416670 0.874998 0.000005 F F F Ti
0.916673 0.875005 -0.000006 F F F Ti
0.102857 0.127151 0.320133 T T T Ti
0.595631 0.122490 0.314616 T T T Ti
0.086233 0.615111 0.310643 T T T Ti
0.598695 0.598109 0.327397 T T T Ti
0.083375 0.125058 0.155308 F F F Ti
0.583334 0.125011 0.155303 F F F Ti
0.083267 0.624954 0.155319 F F F Ti
0.583324 0.624984 0.155362 F F F Ti
0.083347 0.125007 -0.000010 F F F Ti
0.583333 0.124999 -0.000010 F F F Ti
0.083327 0.624996 -0.000005 F F F Ti
0.583331 0.625003 0.000005 F F F Ti
0.353404 0.161402 0.406457 T T T Ti
0.855203 0.127638 0.406420 T T T Ti
0.327503 0.618664 0.395787 T T T Ti
0.863151 0.644789 0.394148 T T T Ti
0.338747 0.126744 0.232999 T T T Ti
0.838777 0.126985 0.235170 T T T Ti
0.346497 0.632757 0.239735 T T T Ti
0.836843 0.626154 0.234835 T T T Ti
0.333338 0.125019 0.077670 F F F Ti
0.833348 0.124999 0.077664 F F F Ti
0.333322 0.624996 0.077684 F F F Ti
0.833321 0.624981 0.077686 F F F Ti
0.374990 0.375023 0.823769 F F F Ti
0.874993 0.374985 0.823786 F F F Ti
0.374991 0.874987 0.823750 F F F Ti
0.875006 0.875008 0.823754 F F F Ti
0.125008 0.125015 0.823786 F F F Ti
0.625012 0.124975 0.823769 F F F Ti
0.124994 0.624992 0.823755 F F F Ti
0.625011 0.625013 0.823750 F F F Ti
0.124998 0.375009 0.910102 F F F Ti
0.625001 0.375006 0.910100 F F F Ti
0.125000 0.874999 0.910096 F F F Ti
0.625006 0.874995 0.910087 F F F Ti
0.375001 0.124994 0.910100 F F F Ti
0.875003 0.124991 0.910101 F F F Ti
0.374995 0.625005 0.910088 F F F Ti
0.875000 0.625001 0.910096 F F F Ti
0.392682 0.388138 0.657541 T T T Ti
0.894523 0.371848 0.647296 T T T Ti
0.393318 0.892211 0.645221 T T T Ti
0.881456 0.885759 0.667748 T T T Ti
0.105477 0.128151 0.647296 T T T Ti
0.607318 0.111862 0.657541 T T T Ti
0.118544 0.614240 0.667748 T T T Ti
0.606682 0.607788 0.645221 T T T Ti
0.151062 0.378684 0.566557 T T T Ti
0.642088 0.339116 0.573255 T T T Ti
0.123761 0.858670 0.586495 T T T Ti
0.656285 0.860074 0.574001 T T T Ti
0.357912 0.160884 0.573254 T T T Ti
0.848938 0.121316 0.566557 T T T Ti
0.343715 0.639925 0.574001 T T T Ti
0.876239 0.641329 0.586495 T T T Ti
0.413371 0.409154 0.488599 T T T Ti
0.898988 0.376314 0.488375 T T T Ti
0.328623 0.923264 0.491713 T T T Ti
0.909688 0.877457 0.487957 T T T Ti
0.101012 0.123686 0.488375 T T T Ti
0.586629 0.090846 0.488599 T T T Ti
0.090312 0.622543 0.487957 T T T Ti
0.671377 0.576736 0.491713 T T T Ti
0.124962 0.875033 0.737478 F F F Ti
0.625099 0.874961 0.737422 F F F Ti
0.374900 0.625037 0.737422 F F F Ti
0.875036 0.624963 0.737478 F F F Ti
0.124974 0.375022 0.737495 F F F Ti
0.625008 0.374909 0.737497 F F F Ti
0.374989 0.125086 0.737496 F F F Ti
0.875024 0.124973 0.737495 F F F Ti
0.500000 0.750000 0.465375 T T T Mo

0.000000 0.000000 0.000000
0.000000 0.000000 0.000000
0.000000 0.000000 0.000000
0.000000 0.000000 0.000000
0.000000 0.000000 0.000000
0.000000 0.000000 0.000000
0.000000 0.000000 0.000000
0.000000 0.000000 0.000000
0.000000 0.000000 0.000000
0.000000 0.000000 0.000000
0.000000 0.000000 0.000000
0.000000 0.000000 0.000000
0.000000 0.000000 0.000000
0.000000 0.000000 0.000000
0.000000 0.000000 0.000000
0.000000 0.000000 0.000000
0.000000 0.000000 0.000000
0.000000 0.000000 0.000000
0.000000 0.000000 0.000000
0.000000 0.000000 0.000000
0.000000 0.000000 0.000000
0.000000 0.000000 0.000000
0.000000 0.000000 0.000000
0.000000 0.000000 0.000000
0.000000 0.000000 0.000000
0.000000 0.000000 0.000000
0.000000 0.000000 0.000000
0.000000 0.000000 0.000000
0.000000 0.000000 0.000000
0.000000 0.000000 0.000000
0.000000 0.000000 0.000000
0.000000 0.000000 0.000000
0.000000 0.000000 0.000000
0.000000 0.000000 0.000000
0.000000 0.000000 0.000000
0.000000 0.000000 0.000000
0.000000 0.000000 0.000000
0.000000 0.000000 0.000000
0.000000 0.000000 0.000000
0.000000 0.000000 0.000000
0.000000 0.000000 0.000000
0.000000 0.000000 0.000000
0.000000 0.000000 0.000000
0.000000 0.000000 0.000000
0.000000 0.000000 0.000000
0.000000 0.000000 0.000000
0.000000 0.000000 0.000000
0.000000 0.000000 0.000000
0.000000 0.000000 0.000000
0.000000 0.000000 0.000000
0.000000 0.000000 0.000000
0.000000 0.000000 0.000000
0.000000 0.000000 0.000000
0.000000 0.000000 0.000000
0.000000 0.000000 0.000000
0.000000 0.000000 0.000000
0.000000 0.000000 0.000000
0.000000 0.000000 0.000000
0.000000 0.000000 0.000000
0.000000 0.000000 0.000000
0.000000 0.000000 0.000000
0.000000 0.000000 0.000000
0.000000 0.000000 0.000000
0.000000 0.000000 0.000000
0.000000 0.000000 0.000000
0.000000 0.000000 0.000000
0.000000 0.000000 0.000000
0.000000 0.000000 0.000000
0.000000 0.000000 0.000000
0.000000 0.000000 0.000000
0.000000 0.000000 0.000000
0.000000 0.000000 0.000000
0.000000 0.000000 0.000000
0.000000 0.000000 0.000000
0.000000 0.000000 0.000000
0.000000 0.000000 0.000000
0.000000 0.000000 0.000000
0.000000 0.000000 0.000000
0.000000 0.000000 0.000000
0.000000 0.000000 0.000000
0.000000 0.000000 0.000000
0.000000 0.000000 0.000000
0.000000 0.000000 0.000000
0.000000 0.000000 0.000000
0.000000 0.000000 0.000000
0.000000 0.000000 0.000000
0.000000 0.000000 0.000000
0.000000 0.000000 0.000000
0.000000 0.000000 0.000000
0.000000 0.000000 0.000000
0.000000 0.000000 0.000000
0.000000 0.000000 0.000000
0.000000 0.000000 0.000000
0.000000 0.000000 0.000000
0.000000 0.000000 0.000000
0.000000 0.000000 0.000000
0.000000 0.000000 0.000000
