beta_Ti
1.0
6.309760 0.000000 0.000000
0.000000 9.464640 0.000000
0.000000 0.000000 19.000004
Ti
36
direct
0.125000 0.958333 0.500000 Ti
0.625000 0.958333 0.500000 Ti
0.125000 0.958333 0.657895 Ti
0.625000 0.958333 0.657895 Ti
0.125000 0.958333 0.815789 Ti
0.625000 0.958333 0.815789 Ti
0.125000 0.291667 0.500000 Ti
0.625000 0.291667 0.500000 Ti
0.125000 0.291667 0.657895 Ti
0.625000 0.291667 0.657895 Ti
0.125000 0.291667 0.815789 Ti
0.625000 0.291667 0.815789 Ti
0.125000 0.625000 0.500000 Ti
0.625000 0.625000 0.500000 Ti
0.125000 0.625000 0.657895 Ti
0.625000 0.625000 0.657895 Ti
0.125000 0.625000 0.815789 Ti
0.625000 0.625000 0.815789 Ti
0.375000 0.125000 0.578947 Ti
0.875000 0.125000 0.578947 Ti
0.375000 0.125000 0.736842 Ti
0.875000 0.125000 0.736842 Ti
0.375000 0.125000 0.894737 Ti
0.875000 0.125000 0.894737 Ti
0.375000 0.458333 0.578947 Ti
0.875000 0.458333 0.578947 Ti
0.375000 0.458333 0.736842 Ti
0.875000 0.458333 0.736842 Ti
0.375000 0.458333 0.894737 Ti
0.875000 0.458333 0.894737 Ti
0.375000 0.791667 0.578947 Ti
0.875000 0.791667 0.578947 Ti
0.375000 0.791667 0.736842 Ti
0.875000 0.791667 0.736842 Ti
0.375000 0.791667 0.894737 Ti
0.875000 0.791667 0.894737 Ti
