Ti66 Nb1
1.0
6.309760 0.000000 0.000000
0.000000 9.464640 0.000000
0.000000 0.000000 18.918326
Ti Nb
66 1
Selective dynamics
direct
0.106359 0.021342 0.493854 T T T Ti
0.581421 0.029944 0.485508 T T T Ti
0.108003 0.059529 0.647649 T T T Ti
0.629363 0.072110 0.642659 T T T Ti
0.125818 0.041532 0.817249 F F F Ti
0.624742 0.041605 0.817416 F F F Ti
0.608322 0.375292 0.472331 T T T Ti
0.107873 0.375010 0.648782 T T T Ti
0.633631 0.374997 0.647675 T T T Ti
0.125646 0.375013 0.817358 F F F Ti
0.624556 0.374981 0.817386 F F F Ti
0.106560 0.728593 0.493821 T T T Ti
0.581189 0.720073 0.485471 T T T Ti
0.108059 0.690403 0.647655 T T T Ti
0.629298 0.677798 0.642663 T T T Ti
0.125841 0.708443 0.817256 F F F Ti
0.624716 0.708372 0.817421 F F F Ti
0.340317 0.225515 0.552690 T T T Ti
0.880323 0.228042 0.546062 T T T Ti
0.375020 0.208192 0.737601 F F F Ti
0.874253 0.208242 0.738982 F F F Ti
0.375118 0.208312 0.896389 F F F Ti
0.875183 0.208278 0.896583 F F F Ti
0.340220 0.524422 0.552650 T T T Ti
0.880432 0.521972 0.546067 T T T Ti
0.375033 0.541786 0.737606 F F F Ti
0.874285 0.541695 0.738985 F F F Ti
0.375131 0.541654 0.896397 F F F Ti
0.875170 0.541707 0.896589 F F F Ti
0.375250 0.874899 0.580465 T T T Ti
0.841593 0.874780 0.575288 T T T Ti
0.375158 0.874985 0.737847 F F F Ti
0.874099 0.874891 0.738610 F F F Ti
0.375172 0.874974 0.896467 F F F Ti
0.875213 0.874957 0.896585 F F F Ti
0.162102 0.621672 0.369517 T T T Ti
0.676227 0.610363 0.367268 T T T Ti
0.124702 0.624881 0.118805 F F F Ti
0.625296 0.625198 0.118643 F F F Ti
0.161646 0.128296 0.369473 T T T Ti
0.676502 0.139708 0.367298 T T T Ti
0.124695 0.125157 0.118793 F F F Ti
0.625300 0.124827 0.118639 F F F Ti
0.124472 0.375011 0.039500 F F F Ti
0.625156 0.374972 0.039364 F F F Ti
0.124715 0.875001 0.039476 F F F Ti
0.625481 0.875024 0.039468 F F F Ti
0.146007 0.375161 0.281684 T T T Ti
0.618895 0.375061 0.279696 T T T Ti
0.125351 0.875246 0.276909 T T T Ti
0.607534 0.875163 0.282544 T T T Ti
0.375267 0.874997 0.157636 F F F Ti
0.874556 0.875070 0.158629 F F F Ti
0.375477 0.374957 0.157556 F F F Ti
0.873696 0.375041 0.158535 F F F Ti
-0.075932 0.375187 0.407906 T T T Ti
0.347524 0.875513 0.395813 T T T Ti
0.879617 0.874686 0.395971 T T T Ti
0.384900 0.627797 0.247247 T T T Ti
0.879152 0.622966 0.247612 T T T Ti
0.374968 0.625038 -0.000098 F F F Ti
0.874953 0.625046 0.000023 F F F Ti
0.384924 0.122343 0.247237 T T T Ti
0.879085 0.127183 0.247601 T T T Ti
0.375000 0.124954 -0.000106 F F F Ti
0.874966 0.124939 0.000015 F F F Ti
0.284711 0.374202 0.423551 T T T Nb

0.000000 0.000000 0.000000
0.000000 0.000000 0.000000
0.000000 0.000000 0.000000
0.000000 0.000000 0.000000
0.000000 0.000000 0.000000
0.000000 0.000000 0.000000
0.000000 0.000000 0.000000
0.000000 0.000000 0.000000
0.000000 0.000000 0.000000
0.000000 0.000000 0.000000
0.000000 0.000000 0.000000
0.000000 0.000000 0.000000
0.000000 0.000000 0.000000
0.000000 0.000000 0.000000
0.000000 0.000000 0.000000
0.000000 0.000000 0.000000
0.000000 0.000000 0.000000
0.000000 0.000000 0.000000
0.000000 0.000000 0.000000
0.000000 0.000000 0.000000
0.000000 0.000000 0.000000
0.000000 0.000000 0.000000
0.000000 0.000000 0.000000
0.000000 0.000000 0.000000
0.000000 0.000000 0.000000
0.000000 0.000000 0.000000
0.000000 0.000000 0.000000
0.000000 0.000000 0.000000
0.000000 0.000000 0.000000
0.000000 0.000000 0.000000
0.000000 0.000000 0.000000
0.000000 0.000000 0.000000
0.000000 0.000000 0.000000
0.000000 0.000000 0.000000
0.000000 0.000000 0.000000
0.000000 0.000000 0.000000
0.000000 0.000000 0.000000
0.000000 0.000000 0.000000
0.000000 0.000000 0.000000
0.000000 0.000000 0.000000
0.000000 0.000000 0.000000
0.000000 0.000000 0.000000
0.000000 0.000000 0.000000
0.000000 0.000000 0.000000
0.000000 0.000000 0.000000
0.000000 0.000000 0.000000
0.000000 0.000000 0.000000
0.000000 0.000000 0.000000
0.000000 0.000000 0.000000
0.000000 0.000000 0.000000
0.000000 0.000000 0.000000
0.000000 0.000000 0.000000
0.000000 0.000000 0.000000
0.000000 0.000000 0.000000
0.000000 0.000000 0.000000
0.000000 0.000000 0.000000
0.000000 0.000000 0.000000
0.000000 0.000000 0.000000
0.000000 0.000000 0.000000
0.000000 0.000000 0.000000
0.000000 0.000000 0.000000
0.000000 0.000000 0.000000
0.000000 0.000000 0.000000
0.000000 0.000000 0.000000
0.000000 0.000000 0.000000
0.000000 0.000000 0.000000
0.000000 0.000000 0.000000
