Ti66 Al1
1.0
6.309760 0.000000 0.000000
0.000000 9.464640 0.000000
0.000000 0.000000 18.918326
Ti Al
66 1
Selective dynamics
direct
0.159261 -0.026755 0.501154 T T T Ti
0.591593 -0.027437 0.501240 T T T Ti
0.149811 0.025939 0.648696 T T T Ti
0.602705 0.025715 0.648900 T T T Ti
0.126403 0.002796 0.825538 F F F Ti
0.625780 0.002803 0.825526 F F F Ti
0.172233 0.274730 0.509260 T T T Ti
0.576581 0.269291 0.512767 T T T Ti
0.135890 0.333863 0.660105 T T T Ti
0.616318 0.333806 0.660655 T T T Ti
0.126074 0.336385 0.825518 F F F Ti
0.626051 0.336336 0.825548 F F F Ti
0.107902 0.657965 0.496932 T T T Ti
0.642766 0.659246 0.497188 T T T Ti
0.101206 0.645864 0.656123 T T T Ti
0.650583 0.646011 0.656357 T T T Ti
0.125739 0.669543 0.825589 F F F Ti
0.626263 0.669578 0.825588 F F F Ti
0.877915 0.155576 0.547692 T T T Ti
0.376223 0.170089 0.746997 F F F Ti
0.876833 0.169244 0.746167 F F F Ti
0.375749 0.169525 0.904750 F F F Ti
0.875764 0.169416 0.904484 F F F Ti
0.375669 0.492687 0.570541 T T T Ti
0.873522 0.456129 0.562156 T T T Ti
0.376004 0.503513 0.746553 F F F Ti
0.876369 0.502718 0.746373 F F F Ti
0.375743 0.502863 0.904667 F F F Ti
0.875536 0.502741 0.904570 F F F Ti
0.375939 0.802311 0.589344 T T T Ti
0.875423 0.844407 0.584881 T T T Ti
0.376195 0.835039 0.746598 F F F Ti
0.876531 0.836321 0.746298 F F F Ti
0.375713 0.835954 0.904740 F F F Ti
0.875682 0.836111 0.904592 F F F Ti
0.099327 0.607808 0.366704 T T T Ti
0.648331 0.610113 0.366382 T T T Ti
0.123698 0.584731 0.126588 F F F Ti
0.623372 0.584680 0.126519 F F F Ti
0.140222 0.102376 0.379755 T T T Ti
0.607502 0.100535 0.379653 T T T Ti
0.123557 0.084385 0.126549 F F F Ti
0.623712 0.084436 0.126510 F F F Ti
0.124183 0.335190 0.047300 F F F Ti
0.624046 0.335178 0.047353 F F F Ti
0.124099 0.835266 0.047480 F F F Ti
0.623995 0.835283 0.047467 F F F Ti
0.126436 0.340078 0.292879 T T T Ti
0.619699 0.339653 0.292001 T T T Ti
0.105750 0.847488 0.284120 T T T Ti
0.641033 0.847847 0.284015 T T T Ti
0.373571 0.834316 0.166256 F F F Ti
0.873573 0.834343 0.166039 F F F Ti
0.373292 0.334033 0.166004 F F F Ti
0.874421 0.333819 0.165547 F F F Ti
0.865616 0.363890 0.419229 T T T Ti
0.373247 0.831594 0.396747 T T T Ti
0.874994 0.855793 0.411302 T T T Ti
0.373009 0.588658 0.254427 T T T Ti
0.872148 0.578459 0.249131 T T T Ti
0.374166 0.585535 0.008141 F F F Ti
0.874043 0.585598 0.008001 F F F Ti
0.373037 0.085147 0.254036 T T T Ti
0.872869 0.096185 0.257867 T T T Ti
0.374151 0.085419 0.008075 F F F Ti
0.874080 0.085426 0.007851 F F F Ti
0.395844 0.395269 0.427065 T T T Al

0.000000 0.000000 0.000000
0.000000 0.000000 0.000000
0.000000 0.000000 0.000000
0.000000 0.000000 0.000000
0.000000 0.000000 0.000000
0.000000 0.000000 0.000000
0.000000 0.000000 0.000000
0.000000 0.000000 0.000000
0.000000 0.000000 0.000000
0.000000 0.000000 0.000000
0.000000 0.000000 0.000000
0.000000 0.000000 0.000000
0.000000 0.000000 0.000000
0.000000 0.000000 0.000000
0.000000 0.000000 0.000000
0.000000 0.000000 0.000000
0.000000 0.000000 0.000000
0.000000 0.000000 0.000000
0.000000 0.000000 0.000000
0.000000 0.000000 0.000000
0.000000 0.000000 0.000000
0.000000 0.000000 0.000000
0.000000 0.000000 0.000000
0.000000 0.000000 0.000000
0.000000 0.000000 0.000000
0.000000 0.000000 0.000000
0.000000 0.000000 0.000000
0.000000 0.000000 0.000000
0.000000 0.000000 0.000000
0.000000 0.000000 0.000000
0.000000 0.000000 0.000000
0.000000 0.000000 0.000000
0.000000 0.000000 0.000000
0.000000 0.000000 0.000000
0.000000 0.000000 0.000000
0.000000 0.000000 0.000000
0.000000 0.000000 0.000000
0.000000 0.000000 0.000000
0.000000 0.000000 0.000000
0.000000 0.000000 0.000000
0.000000 0.000000 0.000000
0.000000 0.000000 0.000000
0.000000 0.000000 0.000000
0.000000 0.000000 0.000000
0.000000 0.000000 0.000000
0.000000 0.000000 0.000000
0.000000 0.000000 0.000000
0.000000 0.000000 0.000000
0.000000 0.000000 0.000000
0.000000 0.000000 0.000000
0.000000 0.000000 0.000000
0.000000 0.000000 0.000000
0.000000 0.000000 0.000000
0.000000 0.000000 0.000000
0.000000 0.000000 0.000000
0.000000 0.000000 0.000000
0.000000 0.000000 0.000000
0.000000 0.000000 0.000000
0.000000 0.000000 0.000000
0.000000 0.000000 0.000000
0.000000 0.000000 0.000000
0.000000 0.000000 0.000000
0.000000 0.000000 0.000000
0.000000 0.000000 0.000000
0.000000 0.000000 0.000000
0.000000 0.000000 0.000000
0.000000 0.000000 0.000000
