Ti36
1.0
8.805261 0.000000 0.000000
-4.402630 7.625580 0.000000
0.000000 0.000000 21.288801
Ti
36
direct
0.967272 0.027818 0.488141 Ti
0.967272 0.527818 0.488141 Ti
0.467272 0.027818 0.488141 Ti
0.467272 0.527818 0.488141 Ti
0.133938 0.361151 0.792162 Ti
0.133938 0.861151 0.792162 Ti
0.633938 0.361151 0.792162 Ti
0.633938 0.861151 0.792162 Ti
0.300605 0.194485 0.835594 Ti
0.300605 0.694485 0.835594 Ti
0.800605 0.194485 0.835594 Ti
0.800605 0.694485 0.835594 Ti
0.133938 0.361151 0.531572 Ti
0.133938 0.861151 0.531572 Ti
0.633938 0.361151 0.531572 Ti
0.633938 0.861151 0.531572 Ti
0.300605 0.194485 0.575004 Ti
0.300605 0.694485 0.575004 Ti
0.800605 0.194485 0.575004 Ti
0.800605 0.694485 0.575004 Ti
0.967272 0.027818 0.618435 Ti
0.967272 0.527818 0.618435 Ti
0.467272 0.027818 0.618435 Ti
0.467272 0.527818 0.618435 Ti
0.133938 0.361151 0.661867 Ti
0.133938 0.861151 0.661867 Ti
0.633938 0.361151 0.661867 Ti
0.633938 0.861151 0.661867 Ti
0.300605 0.194485 0.705299 Ti
0.300605 0.694485 0.705299 Ti
0.800605 0.194485 0.705299 Ti
0.800605 0.694485 0.705299 Ti
0.967272 0.027818 0.748730 Ti
0.967272 0.527818 0.748730 Ti
0.467272 0.027818 0.748730 Ti
0.467272 0.527818 0.748730 Ti
