beta_Ti
1.0
8.805261 0.000000 0.000000
-4.402631 7.625580 0.000000
0.000000 0.000000 19.883422
Ti
36
direct
0.055556 0.055556 0.602841 Ti
0.055556 0.555555 0.602841 Ti
0.555556 0.055556 0.602841 Ti
0.555556 0.555555 0.602841 Ti
0.222222 0.388889 0.928351 Ti
0.222222 0.888889 0.928351 Ti
0.722222 0.388889 0.928351 Ti
0.722222 0.888889 0.928351 Ti
0.388889 0.222222 0.974853 Ti
0.388889 0.722222 0.974853 Ti
0.888889 0.222222 0.974853 Ti
0.888889 0.722222 0.974853 Ti
0.222222 0.388889 0.649343 Ti
0.222222 0.888889 0.649343 Ti
0.722222 0.388889 0.649343 Ti
0.722222 0.888889 0.649343 Ti
0.388889 0.222222 0.695844 Ti
0.388889 0.722222 0.695844 Ti
0.888889 0.222222 0.695844 Ti
0.888889 0.722222 0.695844 Ti
0.055556 0.055556 0.742346 Ti
0.055556 0.555555 0.742346 Ti
0.555556 0.055556 0.742346 Ti
0.555556 0.555555 0.742346 Ti
0.222222 0.388889 0.788847 Ti
0.222222 0.888889 0.788847 Ti
0.722222 0.388889 0.788847 Ti
0.722222 0.888889 0.788847 Ti
0.388889 0.222222 0.835348 Ti
0.388889 0.722222 0.835348 Ti
0.888889 0.222222 0.835348 Ti
0.888889 0.722222 0.835348 Ti
0.055556 0.055556 0.881850 Ti
0.055556 0.555555 0.881850 Ti
0.555556 0.055556 0.881850 Ti
0.555556 0.555555 0.881850 Ti
