Ti66 Cr1
1.0
6.309760 0.000000 0.000000
0.000000 9.464640 0.000000
0.000000 0.000000 18.918326
Ti Cr
66 1
Selective dynamics
direct
0.161596 0.112886 0.423422 T T T Ti
0.620574 0.044932 0.496965 T T T Ti
0.121827 0.081879 0.656794 T T T Ti
0.618536 0.088024 0.648396 T T T Ti
0.122781 0.078895 0.821094 F F F Ti
0.622667 0.078830 0.821075 F F F Ti
0.625634 0.389046 0.490817 T T T Ti
0.119508 0.393621 0.651333 T T T Ti
0.620135 0.389653 0.644380 T T T Ti
0.122852 0.413053 0.821113 F F F Ti
0.622940 0.413178 0.821218 F F F Ti
0.119262 0.700289 0.486563 T T T Ti
0.616019 0.722650 0.491554 T T T Ti
0.120346 0.740947 0.651966 T T T Ti
0.617934 0.754255 0.650689 T T T Ti
0.122743 0.745389 0.820470 F F F Ti
0.622598 0.745561 0.820625 F F F Ti
0.340117 0.226144 0.549555 T T T Ti
0.897200 0.217611 0.552641 T T T Ti
0.372320 0.246918 0.742362 F F F Ti
0.870804 0.246536 0.742570 F F F Ti
0.374084 0.245789 0.899916 F F F Ti
0.873998 0.245697 0.900105 F F F Ti
0.369575 0.556119 0.567549 T T T Ti
0.864729 0.559452 0.568811 T T T Ti
0.371684 0.578316 0.741258 F F F Ti
0.871086 0.578623 0.741450 F F F Ti
0.374015 0.579244 0.899685 F F F Ti
0.873986 0.579338 0.899865 F F F Ti
0.344487 0.901783 0.566305 T T T Ti
0.896076 0.900788 0.566224 T T T Ti
0.371551 0.911121 0.741480 F F F Ti
0.871518 0.911010 0.741411 F F F Ti
0.374121 0.912041 0.899769 F F F Ti
0.874107 0.912029 0.899879 F F F Ti
0.133595 0.648509 0.361116 T T T Ti
0.623627 0.650302 0.365546 T T T Ti
0.130496 0.657434 0.121834 F F F Ti
0.630441 0.657734 0.121603 F F F Ti
0.640898 0.163552 0.374099 T T T Ti
0.131707 0.156798 0.121742 F F F Ti
0.631623 0.156997 0.121910 F F F Ti
0.129240 0.409901 0.042474 F F F Ti
0.629198 0.409887 0.042381 F F F Ti
0.128904 0.909879 0.042758 F F F Ti
0.628595 0.910127 0.042777 F F F Ti
0.133733 0.403802 0.278047 T T T Ti
0.630125 0.405944 0.282009 T T T Ti
0.132445 0.910909 0.287302 T T T Ti
0.633108 0.914222 0.286317 T T T Ti
0.380723 0.905584 0.161273 F F F Ti
0.881156 0.905368 0.161198 F F F Ti
0.382208 0.404641 0.160349 F F F Ti
0.880810 0.405197 0.160366 F F F Ti
0.353939 0.402906 0.398603 T T T Ti
0.877420 0.421264 0.391996 T T T Ti
0.373788 0.900445 0.404822 T T T Ti
0.889631 0.904198 0.405866 T T T Ti
0.388534 0.651259 0.246255 T T T Ti
0.873492 0.652426 0.246516 T T T Ti
0.378618 0.661084 0.003202 F F F Ti
0.878411 0.661218 0.003361 F F F Ti
0.388980 0.155601 0.253798 T T T Ti
0.880647 0.155461 0.253200 T T T Ti
0.378831 0.160570 0.003138 F F F Ti
0.878707 0.160476 0.003323 F F F Ti
0.057963 0.334556 0.456132 T T T Cr

0.000000 0.000000 0.000000
0.000000 0.000000 0.000000
0.000000 0.000000 0.000000
0.000000 0.000000 0.000000
0.000000 0.000000 0.000000
0.000000 0.000000 0.000000
0.000000 0.000000 0.000000
0.000000 0.000000 0.000000
0.000000 0.000000 0.000000
0.000000 0.000000 0.000000
0.000000 0.000000 0.000000
0.000000 0.000000 0.000000
0.000000 0.000000 0.000000
0.000000 0.000000 0.000000
0.000000 0.000000 0.000000
0.000000 0.000000 0.000000
0.000000 0.000000 0.000000
0.000000 0.000000 0.000000
0.000000 0.000000 0.000000
0.000000 0.000000 0.000000
0.000000 0.000000 0.000000
0.000000 0.000000 0.000000
0.000000 0.000000 0.000000
0.000000 0.000000 0.000000
0.000000 0.000000 0.000000
0.000000 0.000000 0.000000
0.000000 0.000000 0.000000
0.000000 0.000000 0.000000
0.000000 0.000000 0.000000
0.000000 0.000000 0.000000
0.000000 0.000000 0.000000
0.000000 0.000000 0.000000
0.000000 0.000000 0.000000
0.000000 0.000000 0.000000
0.000000 0.000000 0.000000
0.000000 0.000000 0.000000
0.000000 0.000000 0.000000
0.000000 0.000000 0.000000
0.000000 0.000000 0.000000
0.000000 0.000000 0.000000
0.000000 0.000000 0.000000
0.000000 0.000000 0.000000
0.000000 0.000000 0.000000
0.000000 0.000000 0.000000
0.000000 0.000000 0.000000
0.000000 0.000000 0.000000
0.000000 0.000000 0.000000
0.000000 0.000000 0.000000
0.000000 0.000000 0.000000
0.000000 0.000000 0.000000
0.000000 0.000000 0.000000
0.000000 0.000000 0.000000
0.000000 0.000000 0.000000
0.000000 0.000000 0.000000
0.000000 0.000000 0.000000
0.000000 0.000000 0.000000
0.000000 0.000000 0.000000
0.000000 0.000000 0.000000
0.000000 0.000000 0.000000
0.000000 0.000000 0.000000
0.000000 0.000000 0.000000
0.000000 0.000000 0.000000
0.000000 0.000000 0.000000
0.000000 0.000000 0.000000
0.000000 0.000000 0.000000
0.000000 0.000000 0.000000
0.000000 0.000000 0.000000
