Ti66 Nb1
1.0
6.309760 0.000000 0.000000
0.000000 9.464640 0.000000
0.000000 0.000000 18.918326
Ti Nb
66 1
Selective dynamics
direct
0.124932 0.041406 0.500029 F F F Ti
0.625118 0.041589 0.500009 F F F Ti
0.124988 0.041641 0.658598 F F F Ti
0.625062 0.041632 0.658605 F F F Ti
0.124999 0.041666 0.817160 F F F Ti
0.625006 0.041665 0.817161 F F F Ti
0.626328 0.375019 0.500160 F F F Ti
0.125020 0.374999 0.658585 F F F Ti
0.625089 0.375003 0.658618 F F F Ti
0.124998 0.375000 0.817157 F F F Ti
0.625008 0.375001 0.817162 F F F Ti
0.124938 0.708571 0.500029 F F F Ti
0.625100 0.708413 0.500009 F F F Ti
0.124988 0.708357 0.658594 F F F Ti
0.625054 0.708372 0.658602 F F F Ti
0.124998 0.708335 0.817158 F F F Ti
0.625004 0.708336 0.817161 F F F Ti
0.375320 0.208092 0.579458 F F F Ti
0.875057 0.208276 0.579315 F F F Ti
0.375007 0.208328 0.737884 F F F Ti
0.875008 0.208330 0.737873 F F F Ti
0.375001 0.208333 0.896444 F F F Ti
0.875000 0.208333 0.896443 F F F Ti
0.375313 0.541903 0.579454 F F F Ti
0.875062 0.541724 0.579314 F F F Ti
0.375006 0.541673 0.737884 F F F Ti
0.875008 0.541670 0.737873 F F F Ti
0.375000 0.541667 0.896444 F F F Ti
0.875000 0.541667 0.896443 F F F Ti
0.375038 0.875023 0.579305 F F F Ti
0.874973 0.875006 0.579309 F F F Ti
0.375003 0.875003 0.737877 F F F Ti
0.875001 0.875000 0.737876 F F F Ti
0.375001 0.875000 0.896444 F F F Ti
0.874999 0.875000 0.896444 F F F Ti
0.124834 0.625286 0.356683 F F F Ti
0.624997 0.625073 0.356780 F F F Ti
0.125001 0.625004 0.118925 F F F Ti
0.624994 0.625003 0.118925 F F F Ti
0.124832 0.124716 0.356680 F F F Ti
0.625007 0.124933 0.356779 F F F Ti
0.125001 0.124998 0.118925 F F F Ti
0.624995 0.124998 0.118925 F F F Ti
0.125000 0.375000 0.039640 F F F Ti
0.624998 0.375000 0.039640 F F F Ti
0.125000 0.875001 0.039641 F F F Ti
0.624998 0.875001 0.039641 F F F Ti
0.124926 0.375001 0.277440 F F F Ti
0.624892 0.375001 0.277468 F F F Ti
0.124995 0.875014 0.277486 F F F Ti
0.624985 0.875009 0.277499 F F F Ti
0.375005 0.875002 0.158569 F F F Ti
0.874991 0.875003 0.158566 F F F Ti
0.375000 0.375000 0.158567 F F F Ti
0.874978 0.375000 0.158558 F F F Ti
0.873397 0.374999 0.396138 F F F Ti
0.375028 0.875047 0.396436 F F F Ti
0.874954 0.875027 0.396433 F F F Ti
0.375011 0.625009 0.237851 F F F Ti
0.874953 0.625022 0.237835 F F F Ti
0.375001 0.625001 -0.000001 F F F Ti
0.874998 0.625001 -0.000002 F F F Ti
0.375012 0.124993 0.237851 F F F Ti
0.874953 0.124980 0.237835 F F F Ti
0.375000 0.124999 -0.000001 F F F Ti
0.874998 0.124999 -0.000002 F F F Ti
0.222487 0.374844 0.460953 T T T Nb

0.000000 0.000000 0.000000
0.000000 0.000000 0.000000
0.000000 0.000000 0.000000
0.000000 0.000000 0.000000
0.000000 0.000000 0.000000
0.000000 0.000000 0.000000
0.000000 0.000000 0.000000
0.000000 0.000000 0.000000
0.000000 0.000000 0.000000
0.000000 0.000000 0.000000
0.000000 0.000000 0.000000
0.000000 0.000000 0.000000
0.000000 0.000000 0.000000
0.000000 0.000000 0.000000
0.000000 0.000000 0.000000
0.000000 0.000000 0.000000
0.000000 0.000000 0.000000
0.000000 0.000000 0.000000
0.000000 0.000000 0.000000
0.000000 0.000000 0.000000
0.000000 0.000000 0.000000
0.000000 0.000000 0.000000
0.000000 0.000000 0.000000
0.000000 0.000000 0.000000
0.000000 0.000000 0.000000
0.000000 0.000000 0.000000
0.000000 0.000000 0.000000
0.000000 0.000000 0.000000
0.000000 0.000000 0.000000
0.000000 0.000000 0.000000
0.000000 0.000000 0.000000
0.000000 0.000000 0.000000
0.000000 0.000000 0.000000
0.000000 0.000000 0.000000
0.000000 0.000000 0.000000
0.000000 0.000000 0.000000
0.000000 0.000000 0.000000
0.000000 0.000000 0.000000
0.000000 0.000000 0.000000
0.000000 0.000000 0.000000
0.000000 0.000000 0.000000
0.000000 0.000000 0.000000
0.000000 0.000000 0.000000
0.000000 0.000000 0.000000
0.000000 0.000000 0.000000
0.000000 0.000000 0.000000
0.000000 0.000000 0.000000
0.000000 0.000000 0.000000
0.000000 0.000000 0.000000
0.000000 0.000000 0.000000
0.000000 0.000000 0.000000
0.000000 0.000000 0.000000
0.000000 0.000000 0.000000
0.000000 0.000000 0.000000
0.000000 0.000000 0.000000
0.000000 0.000000 0.000000
0.000000 0.000000 0.000000
0.000000 0.000000 0.000000
0.000000 0.000000 0.000000
0.000000 0.000000 0.000000
0.000000 0.000000 0.000000
0.000000 0.000000 0.000000
0.000000 0.000000 0.000000
0.000000 0.000000 0.000000
0.000000 0.000000 0.000000
0.000000 0.000000 0.000000
0.000000 0.000000 0.000000
