alpha_Ti
1.0
6.309760 0.000000 0.000000
0.000000 9.464640 0.000000
0.000000 0.000000 19.700004
Ti
32
direct
0.125000 0.625000 0.342639 Ti
0.625000 0.625000 0.342639 Ti
0.125000 0.625000 0.114213 Ti
0.625000 0.625000 0.114213 Ti
0.125000 0.125000 0.342639 Ti
0.625000 0.125000 0.342639 Ti
0.125000 0.125000 0.114213 Ti
0.625000 0.125000 0.114213 Ti
0.125000 0.375000 0.038071 Ti
0.625000 0.375000 0.038071 Ti
0.125000 0.875000 0.038071 Ti
0.625000 0.875000 0.038071 Ti
0.125000 0.375000 0.266498 Ti
0.625000 0.375000 0.266498 Ti
0.125000 0.875000 0.266498 Ti
0.625000 0.875000 0.266498 Ti
0.375000 0.875000 0.152284 Ti
0.875000 0.875000 0.152284 Ti
0.374999 0.375000 0.152284 Ti
0.874999 0.375000 0.152284 Ti
0.375000 0.375000 0.380711 Ti
0.875000 0.375000 0.380711 Ti
0.375000 0.875000 0.380711 Ti
0.875000 0.875000 0.380711 Ti
0.375000 0.625000 0.228426 Ti
0.875000 0.625000 0.228426 Ti
0.375000 0.625000 -0.000000 Ti
0.875000 0.625000 -0.000000 Ti
0.375000 0.125000 0.228426 Ti
0.875000 0.125000 0.228426 Ti
0.375000 0.125000 -0.000000 Ti
0.875000 0.125000 -0.000000 Ti
