Ti96 Nb1
1.0
9.513020 0.000000 0.000000
0.000000 9.350860 0.000000
0.000000 0.000000 18.547230
Ti Nb
96 1
Selective dynamics
direct
0.146153 0.376342 0.398915 T T T Ti
0.650207 0.372165 0.397673 T T T Ti
0.165161 0.886534 0.394429 T T T Ti
0.651722 0.906299 0.403793 T T T Ti
0.162936 0.377792 0.236707 T T T Ti
0.660853 0.379039 0.234572 T T T Ti
0.158075 0.875614 0.235401 T T T Ti
0.661063 0.875346 0.233339 T T T Ti
0.166662 0.374995 0.077672 F F F Ti
0.666664 0.374980 0.077670 F F F Ti
0.166675 0.875021 0.077688 F F F Ti
0.666676 0.875022 0.077695 F F F Ti
0.410696 0.373863 0.316809 T T T Ti
0.907878 0.372539 0.312425 T T T Ti
0.411807 0.872015 0.316898 T T T Ti
0.899941 0.866131 0.322832 T T T Ti
0.416665 0.374969 0.155312 F F F Ti
0.916650 0.374975 0.155315 F F F Ti
0.416711 0.875057 0.155339 F F F Ti
0.916696 0.875054 0.155343 F F F Ti
0.416679 0.375010 -0.000009 F F F Ti
0.916651 0.375008 -0.000006 F F F Ti
0.416690 0.875004 0.000003 F F F Ti
0.916652 0.875004 0.000006 F F F Ti
0.089304 0.126138 0.316808 T T T Ti
0.592122 0.127461 0.312424 T T T Ti
0.088193 0.627986 0.316897 T T T Ti
0.600059 0.633869 0.322831 T T T Ti
0.083336 0.125037 0.155312 F F F Ti
0.583349 0.125030 0.155315 F F F Ti
0.083290 0.624947 0.155340 F F F Ti
0.583304 0.624950 0.155343 F F F Ti
0.083322 0.124997 -0.000009 F F F Ti
0.583349 0.124997 -0.000007 F F F Ti
0.083310 0.625001 0.000003 F F F Ti
0.583348 0.625000 0.000005 F F F Ti
0.353846 0.123658 0.398915 T T T Ti
0.849792 0.127835 0.397673 T T T Ti
0.334838 0.613466 0.394429 T T T Ti
0.848277 0.593701 0.403793 T T T Ti
0.337063 0.122208 0.236707 T T T Ti
0.839146 0.120962 0.234572 T T T Ti
0.341924 0.624387 0.235401 T T T Ti
0.838936 0.624654 0.233339 T T T Ti
0.333337 0.125011 0.077672 F F F Ti
0.833335 0.125025 0.077670 F F F Ti
0.333323 0.624983 0.077688 F F F Ti
0.833324 0.624981 0.077695 F F F Ti
0.374973 0.375023 0.823850 F F F Ti
0.875016 0.375002 0.823818 F F F Ti
0.375010 0.875020 0.823878 F F F Ti
0.875037 0.874955 0.823798 F F F Ti
0.125029 0.124977 0.823849 F F F Ti
0.624987 0.124996 0.823818 F F F Ti
0.124992 0.624978 0.823877 F F F Ti
0.624967 0.625042 0.823798 F F F Ti
0.124988 0.374992 0.910137 F F F Ti
0.625001 0.375022 0.910114 F F F Ti
0.124996 0.875000 0.910154 F F F Ti
0.625009 0.874987 0.910124 F F F Ti
0.375015 0.125009 0.910137 F F F Ti
0.875000 0.124979 0.910113 F F F Ti
0.375007 0.624998 0.910155 F F F Ti
0.874993 0.625013 0.910123 F F F Ti
0.395077 0.373927 0.645982 T T T Ti
0.885198 0.352020 0.659069 T T T Ti
0.374023 0.867726 0.669206 T T T Ti
0.889445 0.868706 0.653407 T T T Ti
0.104922 0.126072 0.645982 T T T Ti
0.614801 0.147978 0.659069 T T T Ti
0.125977 0.632271 0.669206 T T T Ti
0.610554 0.631292 0.653407 T T T Ti
0.143318 0.386177 0.574924 T T T Ti
0.656756 0.392427 0.569574 T T T Ti
0.150391 0.873173 0.573612 T T T Ti
0.590793 0.916631 0.580833 T T T Ti
0.356682 0.113822 0.574925 T T T Ti
0.843243 0.107573 0.569574 T T T Ti
0.349609 0.626827 0.573613 T T T Ti
0.909207 0.583368 0.580833 T T T Ti
0.383183 0.365008 0.488701 T T T Ti
0.901939 0.348703 0.489045 T T T Ti
0.391194 0.859004 0.480227 T T T Ti
-0.062565 -0.098130 0.477598 T T T Ti
0.116817 0.134992 0.488701 T T T Ti
0.598061 0.151297 0.489045 T T T Ti
0.108806 0.640996 0.480227 T T T Ti
0.562565 0.598130 0.477598 T T T Ti
0.125014 0.875122 0.737637 F F F Ti
0.624933 0.875066 0.737584 F F F Ti
0.374980 0.624865 0.737639 F F F Ti
0.875063 0.624924 0.737584 F F F Ti
0.125114 0.374914 0.737587 F F F Ti
0.624829 0.375417 0.737589 F F F Ti
0.374882 0.125077 0.737587 F F F Ti
0.875167 0.124573 0.737593 F F F Ti
0.750000 0.750000 0.523228 T T T Nb

0.000000 0.000000 0.000000
0.000000 0.000000 0.000000
0.000000 0.000000 0.000000
0.000000 0.000000 0.000000
0.000000 0.000000 0.000000
0.000000 0.000000 0.000000
0.000000 0.000000 0.000000
0.000000 0.000000 0.000000
0.000000 0.000000 0.000000
0.000000 0.000000 0.000000
0.000000 0.000000 0.000000
0.000000 0.000000 0.000000
0.000000 0.000000 0.000000
0.000000 0.000000 0.000000
0.000000 0.000000 0.000000
0.000000 0.000000 0.000000
0.000000 0.000000 0.000000
0.000000 0.000000 0.000000
0.000000 0.000000 0.000000
0.000000 0.000000 0.000000
0.000000 0.000000 0.000000
0.000000 0.000000 0.000000
0.000000 0.000000 0.000000
0.000000 0.000000 0.000000
0.000000 0.000000 0.000000
0.000000 0.000000 0.000000
0.000000 0.000000 0.000000
0.000000 0.000000 0.000000
0.000000 0.000000 0.000000
0.000000 0.000000 0.000000
0.000000 0.000000 0.000000
0.000000 0.000000 0.000000
0.000000 0.000000 0.000000
0.000000 0.000000 0.000000
0.000000 0.000000 0.000000
0.000000 0.000000 0.000000
0.000000 0.000000 0.000000
0.000000 0.000000 0.000000
0.000000 0.000000 0.000000
0.000000 0.000000 0.000000
0.000000 0.000000 0.000000
0.000000 0.000000 0.000000
0.000000 0.000000 0.000000
0.000000 0.000000 0.000000
0.000000 0.000000 0.000000
0.000000 0.000000 0.000000
0.000000 0.000000 0.000000
0.000000 0.000000 0.000000
0.000000 0.000000 0.000000
0.000000 0.000000 0.000000
0.000000 0.000000 0.000000
0.000000 0.000000 0.000000
0.000000 0.000000 0.000000
0.000000 0.000000 0.000000
0.000000 0.000000 0.000000
0.000000 0.000000 0.000000
0.000000 0.000000 0.000000
0.000000 0.000000 0.000000
0.000000 0.000000 0.000000
0.000000 0.000000 0.000000
0.000000 0.000000 0.000000
0.000000 0.000000 0.000000
0.000000 0.000000 0.000000
0.000000 0.000000 0.000000
0.000000 0.000000 0.000000
0.000000 0.000000 0.000000
0.000000 0.000000 0.000000
0.000000 0.000000 0.000000
0.000000 0.000000 0.000000
0.000000 0.000000 0.000000
0.000000 0.000000 0.000000
0.000000 0.000000 0.000000
0.000000 0.000000 0.000000
0.000000 0.000000 0.000000
0.000000 0.000000 0.000000
0.000000 0.000000 0.000000
0.000000 0.000000 0.000000
0.000000 0.000000 0.000000
0.000000 0.000000 0.000000
0.000000 0.000000 0.000000
0.000000 0.000000 0.000000
0.000000 0.000000 0.000000
0.000000 0.000000 0.000000
0.000000 0.000000 0.000000
0.000000 0.000000 0.000000
0.000000 0.000000 0.000000
0.000000 0.000000 0.000000
0.000000 0.000000 0.000000
0.000000 0.000000 0.000000
0.000000 0.000000 0.000000
0.000000 0.000000 0.000000
0.000000 0.000000 0.000000
0.000000 0.000000 0.000000
0.000000 0.000000 0.000000
0.000000 0.000000 0.000000
0.000000 0.000000 0.000000
0.000000 0.000000 0.000000
