Ti66 Nb1
1.0
6.309760 0.000000 0.000000
0.000000 9.464640 0.000000
0.000000 0.000000 18.918326
Ti Nb
66 1
Selective dynamics
direct
0.134300 0.039564 0.483617 T T T Ti
0.631055 0.057491 0.488909 T T T Ti
0.126533 0.061037 0.652379 T T T Ti
0.626410 0.074480 0.644179 T T T Ti
0.125438 0.041283 0.818089 F F F Ti
0.625359 0.041417 0.818091 F F F Ti
0.624207 0.381541 0.482263 T T T Ti
0.125346 0.376688 0.656426 T T T Ti
0.624801 0.378091 0.641772 T T T Ti
0.125129 0.375123 0.818029 F F F Ti
0.625228 0.375249 0.818076 F F F Ti
0.126331 0.745548 0.490325 T T T Ti
0.621416 0.723726 0.501155 T T T Ti
0.125900 0.701969 0.644576 T T T Ti
0.624375 0.702333 0.650657 T T T Ti
0.125084 0.708827 0.817880 F F F Ti
0.624933 0.708614 0.817915 F F F Ti
0.341738 0.233148 0.554280 T T T Ti
0.911726 0.233897 0.554700 T T T Ti
0.376068 0.207340 0.739211 F F F Ti
0.875136 0.207317 0.739221 F F F Ti
0.375324 0.208954 0.896866 F F F Ti
0.875108 0.208935 0.896863 F F F Ti
0.346340 0.528277 0.553423 T T T Ti
0.902500 0.529722 0.553730 T T T Ti
0.375141 0.541743 0.738898 F F F Ti
0.875149 0.541878 0.738848 F F F Ti
0.374966 0.542527 0.896888 F F F Ti
0.875032 0.542573 0.896879 F F F Ti
0.383371 0.896614 0.576388 T T T Ti
0.869857 0.895882 0.576325 T T T Ti
0.376507 0.874673 0.738746 F F F Ti
0.874277 0.874570 0.738690 F F F Ti
0.375284 0.875807 0.897026 F F F Ti
0.874873 0.875807 0.896998 F F F Ti
0.128342 0.606646 0.373566 T T T Ti
0.618717 0.610416 0.375629 T T T Ti
0.125527 0.630528 0.118375 F F F Ti
0.624661 0.630431 0.118373 F F F Ti
0.641446 0.118003 0.360701 T T T Ti
0.126422 0.130172 0.118697 F F F Ti
0.625216 0.129891 0.118517 F F F Ti
0.125566 0.378334 0.039051 F F F Ti
0.625195 0.378360 0.039097 F F F Ti
0.125046 0.878610 0.039793 F F F Ti
0.624724 0.878377 0.039806 F F F Ti
0.127071 0.388213 0.276734 T T T Ti
0.625248 0.383636 0.282346 T T T Ti
0.125582 0.863859 0.280884 T T T Ti
0.625307 0.880595 0.274310 T T T Ti
0.374922 0.881800 0.158713 F F F Ti
0.875330 0.881155 0.158460 F F F Ti
0.375442 0.381218 0.157364 F F F Ti
0.876268 0.382208 0.157090 F F F Ti
0.351274 0.327484 0.396796 T T T Ti
0.895308 0.344893 0.397345 T T T Ti
0.403548 0.868103 0.396419 T T T Ti
0.846515 0.861951 0.397011 T T T Ti
0.379268 0.629398 0.247655 T T T Ti
0.870621 0.629547 0.247938 T T T Ti
0.374845 0.628005 -0.000033 F F F Ti
0.875016 0.628041 -0.000019 F F F Ti
0.382091 0.137309 0.246636 T T T Ti
0.869918 0.138044 0.244016 T T T Ti
0.375457 0.127186 0.000286 F F F Ti
0.875184 0.127204 0.000302 F F F Ti
0.079679 0.145095 0.382493 T T T Nb

0.000000 0.000000 0.000000
0.000000 0.000000 0.000000
0.000000 0.000000 0.000000
0.000000 0.000000 0.000000
0.000000 0.000000 0.000000
0.000000 0.000000 0.000000
0.000000 0.000000 0.000000
0.000000 0.000000 0.000000
0.000000 0.000000 0.000000
0.000000 0.000000 0.000000
0.000000 0.000000 0.000000
0.000000 0.000000 0.000000
0.000000 0.000000 0.000000
0.000000 0.000000 0.000000
0.000000 0.000000 0.000000
0.000000 0.000000 0.000000
0.000000 0.000000 0.000000
0.000000 0.000000 0.000000
0.000000 0.000000 0.000000
0.000000 0.000000 0.000000
0.000000 0.000000 0.000000
0.000000 0.000000 0.000000
0.000000 0.000000 0.000000
0.000000 0.000000 0.000000
0.000000 0.000000 0.000000
0.000000 0.000000 0.000000
0.000000 0.000000 0.000000
0.000000 0.000000 0.000000
0.000000 0.000000 0.000000
0.000000 0.000000 0.000000
0.000000 0.000000 0.000000
0.000000 0.000000 0.000000
0.000000 0.000000 0.000000
0.000000 0.000000 0.000000
0.000000 0.000000 0.000000
0.000000 0.000000 0.000000
0.000000 0.000000 0.000000
0.000000 0.000000 0.000000
0.000000 0.000000 0.000000
0.000000 0.000000 0.000000
0.000000 0.000000 0.000000
0.000000 0.000000 0.000000
0.000000 0.000000 0.000000
0.000000 0.000000 0.000000
0.000000 0.000000 0.000000
0.000000 0.000000 0.000000
0.000000 0.000000 0.000000
0.000000 0.000000 0.000000
0.000000 0.000000 0.000000
0.000000 0.000000 0.000000
0.000000 0.000000 0.000000
0.000000 0.000000 0.000000
0.000000 0.000000 0.000000
0.000000 0.000000 0.000000
0.000000 0.000000 0.000000
0.000000 0.000000 0.000000
0.000000 0.000000 0.000000
0.000000 0.000000 0.000000
0.000000 0.000000 0.000000
0.000000 0.000000 0.000000
0.000000 0.000000 0.000000
0.000000 0.000000 0.000000
0.000000 0.000000 0.000000
0.000000 0.000000 0.000000
0.000000 0.000000 0.000000
0.000000 0.000000 0.000000
0.000000 0.000000 0.000000
