Zr1 Ti66
1.0
6.309760 0.000000 0.000000
0.000000 9.464640 0.000000
0.000000 0.000000 18.918326
Ti Zr
66 1
Selective dynamics
direct
0.125092 0.042228 0.500074 F F F Ti
0.625388 0.042115 0.499944 F F F Ti
0.125056 0.041817 0.658601 F F F Ti
0.625045 0.041800 0.658599 F F F Ti
0.125030 0.041706 0.817076 F F F Ti
0.624976 0.041699 0.817083 F F F Ti
0.125175 0.376412 0.500454 F F F Ti
0.625215 0.375479 0.501053 F F F Ti
0.124977 0.375253 0.658678 F F F Ti
0.625008 0.375210 0.658748 F F F Ti
0.124995 0.375084 0.817098 F F F Ti
0.624952 0.375084 0.817113 F F F Ti
0.125086 0.709883 0.499807 F F F Ti
0.624355 0.709527 0.500026 F F F Ti
0.124997 0.708749 0.658547 F F F Ti
0.624876 0.708727 0.658609 F F F Ti
0.125000 0.708420 0.817079 F F F Ti
0.624944 0.708411 0.817094 F F F Ti
0.374980 0.208541 0.579392 F F F Ti
0.875166 0.208564 0.579463 F F F Ti
0.375007 0.208405 0.737865 F F F Ti
0.875005 0.208403 0.737879 F F F Ti
0.375006 0.208405 0.896299 F F F Ti
0.875019 0.208409 0.896282 F F F Ti
0.375000 0.542381 0.579486 F F F Ti
0.874992 0.542495 0.579510 F F F Ti
0.374982 0.541840 0.737886 F F F Ti
0.874982 0.541857 0.737892 F F F Ti
0.374983 0.541702 0.896364 F F F Ti
0.875008 0.541710 0.896351 F F F Ti
0.375040 0.875473 0.579298 F F F Ti
0.874959 0.875365 0.579319 F F F Ti
0.374991 0.875115 0.737854 F F F Ti
0.874982 0.875104 0.737858 F F F Ti
0.375004 0.874967 0.896323 F F F Ti
0.875025 0.874961 0.896309 F F F Ti
0.125389 0.625763 0.356738 F F F Ti
0.625114 0.626684 0.356561 F F F Ti
0.125180 0.624753 0.118820 F F F Ti
0.625003 0.624844 0.118791 F F F Ti
0.629538 0.125655 0.356604 F F F Ti
0.125248 0.124783 0.118498 F F F Ti
0.624980 0.124889 0.117804 F F F Ti
0.125093 0.374997 0.039508 F F F Ti
0.624950 0.375167 0.039405 F F F Ti
0.125058 0.874770 0.039374 F F F Ti
0.625016 0.874659 0.039269 F F F Ti
0.626672 0.375368 0.277358 F F F Ti
0.125213 0.874272 0.276899 F F F Ti
0.625503 0.874519 0.277310 F F F Ti
0.375409 0.874304 0.158146 F F F Ti
0.874801 0.874099 0.158034 F F F Ti
0.375201 0.374889 0.158495 F F F Ti
0.875019 0.375206 0.158217 F F F Ti
0.381594 0.379928 0.397657 F F F Ti
0.867890 0.381641 0.398028 F F F Ti
0.375145 0.875966 0.396200 F F F Ti
0.875170 0.875099 0.396328 F F F Ti
0.375093 0.624697 0.237779 F F F Ti
0.875272 0.624862 0.237727 F F F Ti
0.374973 0.624912 -0.000098 F F F Ti
0.875060 0.624922 -0.000110 F F F Ti
0.381680 0.123356 0.236014 F F F Ti
0.867691 0.123062 0.235158 F F F Ti
0.374915 0.124948 -0.000277 F F F Ti
0.875195 0.124950 -0.000295 F F F Ti
0.116634 0.186328 0.343607 T T T Zr

0.000000 0.000000 0.000000
0.000000 0.000000 0.000000
0.000000 0.000000 0.000000
0.000000 0.000000 0.000000
0.000000 0.000000 0.000000
0.000000 0.000000 0.000000
0.000000 0.000000 0.000000
0.000000 0.000000 0.000000
0.000000 0.000000 0.000000
0.000000 0.000000 0.000000
0.000000 0.000000 0.000000
0.000000 0.000000 0.000000
0.000000 0.000000 0.000000
0.000000 0.000000 0.000000
0.000000 0.000000 0.000000
0.000000 0.000000 0.000000
0.000000 0.000000 0.000000
0.000000 0.000000 0.000000
0.000000 0.000000 0.000000
0.000000 0.000000 0.000000
0.000000 0.000000 0.000000
0.000000 0.000000 0.000000
0.000000 0.000000 0.000000
0.000000 0.000000 0.000000
0.000000 0.000000 0.000000
0.000000 0.000000 0.000000
0.000000 0.000000 0.000000
0.000000 0.000000 0.000000
0.000000 0.000000 0.000000
0.000000 0.000000 0.000000
0.000000 0.000000 0.000000
0.000000 0.000000 0.000000
0.000000 0.000000 0.000000
0.000000 0.000000 0.000000
0.000000 0.000000 0.000000
0.000000 0.000000 0.000000
0.000000 0.000000 0.000000
0.000000 0.000000 0.000000
0.000000 0.000000 0.000000
0.000000 0.000000 0.000000
0.000000 0.000000 0.000000
0.000000 0.000000 0.000000
0.000000 0.000000 0.000000
0.000000 0.000000 0.000000
0.000000 0.000000 0.000000
0.000000 0.000000 0.000000
0.000000 0.000000 0.000000
0.000000 0.000000 0.000000
0.000000 0.000000 0.000000
0.000000 0.000000 0.000000
0.000000 0.000000 0.000000
0.000000 0.000000 0.000000
0.000000 0.000000 0.000000
0.000000 0.000000 0.000000
0.000000 0.000000 0.000000
0.000000 0.000000 0.000000
0.000000 0.000000 0.000000
0.000000 0.000000 0.000000
0.000000 0.000000 0.000000
0.000000 0.000000 0.000000
0.000000 0.000000 0.000000
0.000000 0.000000 0.000000
0.000000 0.000000 0.000000
0.000000 0.000000 0.000000
0.000000 0.000000 0.000000
0.000000 0.000000 0.000000
0.000000 0.000000 0.000000
