VASP @ Device Studio
# Basic setup:
 ISPIN = 1
 ICHARG = 2

#Basis Set 
 LSORBIT = .FALSE.
 LDAU = .FALSE.

# Accuracy controls:
 PREC = Normal
 LREAL= Auto
 ENCUT= 450

# Electronic loop controls:
 ALGO = Fast
 EDIFF = 5e-06
 NELM = 200
 ISMEAR = -1
 SIGMA = 0.02

# Relaxation control:
 ISIF = 2
 IBRION = 2
 NSW = 100
 EDIFFG=-0.01
 
# Properties:
 LCHARG = .TRUE.
 LWAVE = .FALSE. 
 LELF = .FALSE.
 LVTOT = .FALSE.
 LVHAR = .FALSE.
 LORBIT = 0
 KPAR = 3
 NCORE = 6
 GGA = PS
