beta_Ti
1.0
8.805261 0.000000 0.000000
-4.402631 7.625580 0.000000
0.000000 0.000000 24.883422
Ti
36
direct
0.222214 0.944436 0.582177 Ti
0.222214 0.444436 0.582177 Ti
0.722214 0.944436 0.582177 Ti
0.722214 0.444436 0.582177 Ti
0.388880 0.277769 0.842280 Ti
0.388880 0.777769 0.842280 Ti
0.888880 0.277769 0.842280 Ti
0.888880 0.777769 0.842280 Ti
0.555547 0.111102 0.879437 Ti
0.555547 0.611102 0.879437 Ti
0.055556 0.111102 0.879437 Ti
0.055556 0.611102 0.879437 Ti
0.388880 0.277769 0.619334 Ti
0.388880 0.777769 0.619334 Ti
0.888880 0.277769 0.619334 Ti
0.888880 0.777769 0.619334 Ti
0.555547 0.111102 0.656492 Ti
0.555547 0.611102 0.656492 Ti
0.055556 0.111102 0.656492 Ti
0.055556 0.611102 0.656492 Ti
0.222214 0.944436 0.693649 Ti
0.222214 0.444436 0.693649 Ti
0.722214 0.944436 0.693649 Ti
0.722214 0.444436 0.693649 Ti
0.388880 0.277769 0.730807 Ti
0.388880 0.777769 0.730807 Ti
0.888880 0.277769 0.730807 Ti
0.888880 0.777769 0.730807 Ti
0.555547 0.111102 0.767964 Ti
0.555547 0.611102 0.767964 Ti
0.055556 0.111102 0.767964 Ti
0.055556 0.611102 0.767964 Ti
0.222214 0.944436 0.805122 Ti
0.222214 0.444436 0.805122 Ti
0.722214 0.944436 0.805122 Ti
0.722214 0.444436 0.805122 Ti
