beta_Ti
1.0
5.745590 0.000000 0.000000
0.000000 9.072750 0.000000
0.000000 0.000000 31.625032
Ti
32
direct
0.291667 0.625000 0.500650 Ti
0.291667 0.125000 0.500650 Ti
0.791667 0.625000 0.500650 Ti
0.791667 0.125000 0.500650 Ti
0.458333 0.625000 0.584597 Ti
0.458333 0.125000 0.584597 Ti
0.958333 0.625000 0.584597 Ti
0.958333 0.125000 0.584597 Ti
0.125000 0.625000 0.668544 Ti
0.125000 0.125000 0.668544 Ti
0.625000 0.625000 0.668544 Ti
0.625000 0.125000 0.668544 Ti
0.291667 0.625000 0.752492 Ti
0.291667 0.125000 0.752492 Ti
0.791667 0.625000 0.752492 Ti
0.791667 0.125000 0.752492 Ti
0.125000 0.875000 0.542623 Ti
0.125000 0.375000 0.542623 Ti
0.625000 0.875000 0.542623 Ti
0.625000 0.375000 0.542623 Ti
0.291667 0.875000 0.626571 Ti
0.291667 0.375000 0.626571 Ti
0.791667 0.875000 0.626571 Ti
0.791667 0.375000 0.626571 Ti
0.458333 0.875000 0.710518 Ti
0.458333 0.375000 0.710518 Ti
0.958333 0.875000 0.710518 Ti
0.958333 0.375000 0.710518 Ti
0.125000 0.875000 0.794465 Ti
0.125000 0.375000 0.794465 Ti
0.625000 0.875000 0.794465 Ti
0.625000 0.375000 0.794465 Ti
