beta_Ti
1.0
9.445957 0.000000 0.000000
0.000000 9.093951 0.000000
0.000000 0.000000 21.211864
Ti
48
direct
0.375000 0.375000 0.783070 Ti
0.875000 0.375000 0.783070 Ti
0.375000 0.875000 0.783070 Ti
0.875000 0.875000 0.783070 Ti
0.125000 0.125000 0.783070 Ti
0.625000 0.125000 0.783070 Ti
0.125000 0.625000 0.783070 Ti
0.625000 0.625000 0.783070 Ti
0.125000 0.375000 0.858569 Ti
0.625000 0.375000 0.858569 Ti
0.125000 0.875000 0.858569 Ti
0.625000 0.875000 0.858569 Ti
0.375000 0.125000 0.858569 Ti
0.875000 0.125000 0.858569 Ti
0.375000 0.625000 0.858569 Ti
0.875000 0.625000 0.858569 Ti
0.375000 0.375000 0.632075 Ti
0.875000 0.375000 0.632075 Ti
0.375000 0.875000 0.632075 Ti
0.875000 0.875000 0.632075 Ti
0.125000 0.125000 0.632075 Ti
0.625000 0.125000 0.632075 Ti
0.125000 0.625000 0.632075 Ti
0.625000 0.625000 0.632075 Ti
0.125000 0.375000 0.556578 Ti
0.625000 0.375000 0.556578 Ti
0.125000 0.875000 0.556578 Ti
0.625000 0.875000 0.556578 Ti
0.375000 0.125000 0.556578 Ti
0.875000 0.125000 0.556578 Ti
0.375000 0.625000 0.556578 Ti
0.875000 0.625000 0.556578 Ti
0.375000 0.375000 0.481079 Ti
0.875000 0.375000 0.481079 Ti
0.375000 0.875000 0.481079 Ti
0.875000 0.875000 0.481079 Ti
0.125000 0.125000 0.481079 Ti
0.625000 0.125000 0.481079 Ti
0.125000 0.625000 0.481079 Ti
0.625000 0.625000 0.481079 Ti
0.125000 0.875000 0.707573 Ti
0.625000 0.875000 0.707573 Ti
0.375000 0.625000 0.707573 Ti
0.875000 0.625000 0.707573 Ti
0.125000 0.375000 0.707573 Ti
0.625000 0.375000 0.707573 Ti
0.375000 0.125000 0.707573 Ti
0.875000 0.125000 0.707573 Ti
