Ti66 Al1
1.0
6.309760 0.000000 0.000000
0.000000 9.464640 0.000000
0.000000 0.000000 18.918326
Ti Al
66 1
Selective dynamics
direct
0.627175 0.041767 0.499259 F F F Ti
0.629312 0.041682 0.658323 F F F Ti
0.125093 0.041668 0.816628 F F F Ti
0.625222 0.041689 0.817001 F F F Ti
0.125488 0.375976 0.499561 F F F Ti
0.625185 0.378245 0.498632 F F F Ti
0.125560 0.376320 0.658405 F F F Ti
0.625697 0.377131 0.659256 F F F Ti
0.125313 0.374861 0.817158 F F F Ti
0.625078 0.375062 0.817398 F F F Ti
0.125317 0.707330 0.499475 F F F Ti
0.624903 0.705503 0.498418 F F F Ti
0.125378 0.706731 0.658503 F F F Ti
0.625437 0.706382 0.659351 F F F Ti
0.125264 0.708390 0.817244 F F F Ti
0.625066 0.708271 0.817482 F F F Ti
0.387242 0.214653 0.578027 F F F Ti
0.861450 0.216773 0.577644 F F F Ti
0.376010 0.208617 0.737587 F F F Ti
0.874410 0.209305 0.737967 F F F Ti
0.374903 0.208120 0.896302 F F F Ti
0.875269 0.208178 0.896370 F F F Ti
0.375594 0.541981 0.579160 F F F Ti
0.875081 0.542004 0.579129 F F F Ti
0.374945 0.541774 0.738207 F F F Ti
0.875676 0.541712 0.738294 F F F Ti
0.374939 0.541648 0.896546 F F F Ti
0.875251 0.541644 0.896562 F F F Ti
0.387539 0.868589 0.578009 F F F Ti
0.860919 0.866351 0.577666 F F F Ti
0.376049 0.874687 0.737637 F F F Ti
0.874269 0.873985 0.738017 F F F Ti
0.374900 0.875200 0.896311 F F F Ti
0.875249 0.875162 0.896384 F F F Ti
0.124966 0.625044 0.356407 F F F Ti
0.625037 0.625005 0.356067 F F F Ti
0.124952 0.625110 0.118890 F F F Ti
0.624868 0.625087 0.118865 F F F Ti
0.125007 0.124914 0.356916 F F F Ti
0.625159 0.125047 0.356516 F F F Ti
0.124992 0.124947 0.118980 F F F Ti
0.624851 0.124961 0.118935 F F F Ti
0.124997 0.374892 0.039532 F F F Ti
0.624920 0.374905 0.039558 F F F Ti
0.124985 0.875112 0.039494 F F F Ti
0.624884 0.875098 0.039530 F F F Ti
0.124956 0.374904 0.277244 F F F Ti
0.624988 0.374917 0.277154 F F F Ti
0.125010 0.875101 0.277427 F F F Ti
0.624962 0.875073 0.277320 F F F Ti
0.374928 0.875062 0.158484 F F F Ti
0.875018 0.875065 0.158475 F F F Ti
0.374940 0.374951 0.158427 F F F Ti
0.875058 0.374949 0.158406 F F F Ti
0.374772 0.375005 0.395884 F F F Ti
0.875487 0.375130 0.395843 F F F Ti
0.374969 0.875096 0.396322 F F F Ti
0.875272 0.874877 0.396179 F F F Ti
0.374868 0.625054 0.237614 F F F Ti
0.875086 0.625039 0.237600 F F F Ti
0.374934 0.625079 0.000021 F F F Ti
0.875020 0.625073 0.000034 F F F Ti
0.374879 0.124957 0.237819 F F F Ti
0.875130 0.124956 0.237791 F F F Ti
0.374914 0.124974 -0.000098 F F F Ti
0.875050 0.124966 -0.000063 F F F Ti
0.114956 0.040749 0.619246 T T T Al

0.000000 0.000000 0.000000
0.000000 0.000000 0.000000
0.000000 0.000000 0.000000
0.000000 0.000000 0.000000
0.000000 0.000000 0.000000
0.000000 0.000000 0.000000
0.000000 0.000000 0.000000
0.000000 0.000000 0.000000
0.000000 0.000000 0.000000
0.000000 0.000000 0.000000
0.000000 0.000000 0.000000
0.000000 0.000000 0.000000
0.000000 0.000000 0.000000
0.000000 0.000000 0.000000
0.000000 0.000000 0.000000
0.000000 0.000000 0.000000
0.000000 0.000000 0.000000
0.000000 0.000000 0.000000
0.000000 0.000000 0.000000
0.000000 0.000000 0.000000
0.000000 0.000000 0.000000
0.000000 0.000000 0.000000
0.000000 0.000000 0.000000
0.000000 0.000000 0.000000
0.000000 0.000000 0.000000
0.000000 0.000000 0.000000
0.000000 0.000000 0.000000
0.000000 0.000000 0.000000
0.000000 0.000000 0.000000
0.000000 0.000000 0.000000
0.000000 0.000000 0.000000
0.000000 0.000000 0.000000
0.000000 0.000000 0.000000
0.000000 0.000000 0.000000
0.000000 0.000000 0.000000
0.000000 0.000000 0.000000
0.000000 0.000000 0.000000
0.000000 0.000000 0.000000
0.000000 0.000000 0.000000
0.000000 0.000000 0.000000
0.000000 0.000000 0.000000
0.000000 0.000000 0.000000
0.000000 0.000000 0.000000
0.000000 0.000000 0.000000
0.000000 0.000000 0.000000
0.000000 0.000000 0.000000
0.000000 0.000000 0.000000
0.000000 0.000000 0.000000
0.000000 0.000000 0.000000
0.000000 0.000000 0.000000
0.000000 0.000000 0.000000
0.000000 0.000000 0.000000
0.000000 0.000000 0.000000
0.000000 0.000000 0.000000
0.000000 0.000000 0.000000
0.000000 0.000000 0.000000
0.000000 0.000000 0.000000
0.000000 0.000000 0.000000
0.000000 0.000000 0.000000
0.000000 0.000000 0.000000
0.000000 0.000000 0.000000
0.000000 0.000000 0.000000
0.000000 0.000000 0.000000
0.000000 0.000000 0.000000
0.000000 0.000000 0.000000
0.000000 0.000000 0.000000
0.000000 0.000000 0.000000
