beta_Ti
1.0
6.391540 0.000000 0.000000
0.000000 9.587310 0.000000
0.000000 0.000000 22.750000
Ti
36
direct
0.125000 0.083333 0.582418 Ti
0.625000 0.083333 0.582418 Ti
0.125000 0.083333 0.714286 Ti
0.625000 0.083333 0.714286 Ti
0.125000 0.083333 0.846154 Ti
0.625000 0.083333 0.846154 Ti
0.125000 0.416667 0.582418 Ti
0.625000 0.416667 0.582418 Ti
0.125000 0.416667 0.714286 Ti
0.625000 0.416667 0.714286 Ti
0.125000 0.416667 0.846154 Ti
0.625000 0.416667 0.846154 Ti
0.125000 0.750000 0.582418 Ti
0.625000 0.750000 0.582418 Ti
0.125000 0.750000 0.714286 Ti
0.625000 0.750000 0.714286 Ti
0.125000 0.750000 0.846154 Ti
0.625000 0.750000 0.846154 Ti
0.375000 0.250000 0.648352 Ti
0.875000 0.250000 0.648352 Ti
0.375000 0.250000 0.780220 Ti
0.875000 0.250000 0.780220 Ti
0.375000 0.250000 0.912088 Ti
0.875000 0.250000 0.912088 Ti
0.375000 0.583333 0.648352 Ti
0.875000 0.583333 0.648352 Ti
0.375000 0.583333 0.780220 Ti
0.875000 0.583333 0.780220 Ti
0.375000 0.583333 0.912088 Ti
0.875000 0.583333 0.912088 Ti
0.375000 0.916667 0.648352 Ti
0.875000 0.916667 0.648352 Ti
0.375000 0.916667 0.780220 Ti
0.875000 0.916667 0.780220 Ti
0.375000 0.916667 0.912088 Ti
0.875000 0.916667 0.912088 Ti
