Ti82 Al1
1.0
6.391540 0.000000 0.000000
0.000000 9.587310 0.000000
0.000000 0.000000 23.271695
Ti Al
82 1
Selective dynamics
direct
0.123555 0.083489 0.580819 F F F Ti
0.623012 0.083534 0.580876 F F F Ti
0.124885 0.083361 0.709574 F F F Ti
0.624772 0.083363 0.709576 F F F Ti
0.124994 0.083342 0.838430 F F F Ti
0.624971 0.083343 0.838431 F F F Ti
0.124727 0.417794 0.581439 F F F Ti
0.625045 0.416987 0.580737 F F F Ti
0.124956 0.416758 0.709670 F F F Ti
0.624854 0.416724 0.709601 F F F Ti
0.124995 0.416674 0.838448 F F F Ti
0.624967 0.416670 0.838442 F F F Ti
0.124799 0.750119 0.580835 F F F Ti
0.624782 0.750077 0.580752 F F F Ti
0.124959 0.750106 0.709615 F F F Ti
0.624844 0.750117 0.709609 F F F Ti
0.124991 0.750027 0.838445 F F F Ti
0.624964 0.750030 0.838445 F F F Ti
0.374738 0.250132 0.645112 F F F Ti
0.874441 0.250088 0.645254 F F F Ti
0.374969 0.250001 0.773996 F F F Ti
0.874921 0.250001 0.774022 F F F Ti
0.374994 0.249987 0.902852 F F F Ti
0.875008 0.249988 0.902857 F F F Ti
0.375261 0.583628 0.645236 F F F Ti
0.874574 0.583645 0.645308 F F F Ti
0.375001 0.583386 0.774031 F F F Ti
0.874925 0.583383 0.774043 F F F Ti
0.374989 0.583324 0.902859 F F F Ti
0.874994 0.583325 0.902861 F F F Ti
0.374667 0.916749 0.645069 F F F Ti
0.874567 0.916684 0.645185 F F F Ti
0.374941 0.916702 0.773988 F F F Ti
0.874936 0.916692 0.774010 F F F Ti
0.374982 0.916679 0.902846 F F F Ti
0.875003 0.916677 0.902850 F F F Ti
0.635745 0.167492 0.385569 F F F Ti
0.124377 0.665854 0.386589 F F F Ti
0.626840 0.665311 0.386533 F F F Ti
0.125020 0.166666 -0.000023 F F F Ti
0.625005 0.166662 -0.000029 F F F Ti
0.125018 0.666656 -0.000039 F F F Ti
0.625010 0.666650 -0.000042 F F F Ti
0.125041 0.833311 0.096590 F F F Ti
0.625071 0.833306 0.096574 F F F Ti
0.123233 0.831323 0.483564 F F F Ti
0.624675 0.832470 0.483517 F F F Ti
0.125070 0.333297 0.096638 F F F Ti
0.625044 0.333332 0.096613 F F F Ti
0.117082 0.341557 0.485009 F F F Ti
0.626471 0.334913 0.483463 F F F Ti
0.375699 0.584209 0.483555 F F F Ti
0.873440 0.584723 0.483616 F F F Ti
0.375016 0.583279 0.096592 F F F Ti
0.875117 0.583272 0.096582 F F F Ti
0.375029 0.083340 0.096620 F F F Ti
0.875126 0.083346 0.096609 F F F Ti
0.863128 0.082340 0.484805 F F F Ti
0.376923 0.418783 0.386512 F F F Ti
0.875056 0.417544 0.386596 F F F Ti
0.382493 0.908383 0.384802 F F F Ti
0.873340 0.914976 0.386627 F F F Ti
0.374988 0.416649 -0.000027 F F F Ti
0.875017 0.416645 -0.000028 F F F Ti
0.374999 0.916666 -0.000031 F F F Ti
0.875015 0.916667 -0.000032 F F F Ti
0.376707 0.082911 0.289665 F F F Ti
0.876433 0.082880 0.289831 F F F Ti
0.125243 0.166638 0.193330 F F F Ti
0.625369 0.166635 0.193203 F F F Ti
0.125588 0.333066 0.290131 F F F Ti
0.625796 0.333582 0.289704 F F F Ti
0.375007 0.416566 0.193269 F F F Ti
0.875339 0.416541 0.193256 F F F Ti
0.375196 0.583210 0.289761 F F F Ti
0.875709 0.583083 0.289770 F F F Ti
0.125088 0.666500 0.193183 F F F Ti
0.625220 0.666398 0.193116 F F F Ti
0.124782 0.832882 0.289762 F F F Ti
0.626871 0.832512 0.289405 F F F Ti
0.375108 0.916521 0.193178 F F F Ti
0.875213 0.916629 0.193181 F F F Ti
0.246444 0.124671 0.433997 T T T Al

0.000000 0.000000 0.000000
0.000000 0.000000 0.000000
0.000000 0.000000 0.000000
0.000000 0.000000 0.000000
0.000000 0.000000 0.000000
0.000000 0.000000 0.000000
0.000000 0.000000 0.000000
0.000000 0.000000 0.000000
0.000000 0.000000 0.000000
0.000000 0.000000 0.000000
0.000000 0.000000 0.000000
0.000000 0.000000 0.000000
0.000000 0.000000 0.000000
0.000000 0.000000 0.000000
0.000000 0.000000 0.000000
0.000000 0.000000 0.000000
0.000000 0.000000 0.000000
0.000000 0.000000 0.000000
0.000000 0.000000 0.000000
0.000000 0.000000 0.000000
0.000000 0.000000 0.000000
0.000000 0.000000 0.000000
0.000000 0.000000 0.000000
0.000000 0.000000 0.000000
0.000000 0.000000 0.000000
0.000000 0.000000 0.000000
0.000000 0.000000 0.000000
0.000000 0.000000 0.000000
0.000000 0.000000 0.000000
0.000000 0.000000 0.000000
0.000000 0.000000 0.000000
0.000000 0.000000 0.000000
0.000000 0.000000 0.000000
0.000000 0.000000 0.000000
0.000000 0.000000 0.000000
0.000000 0.000000 0.000000
0.000000 0.000000 0.000000
0.000000 0.000000 0.000000
0.000000 0.000000 0.000000
0.000000 0.000000 0.000000
0.000000 0.000000 0.000000
0.000000 0.000000 0.000000
0.000000 0.000000 0.000000
0.000000 0.000000 0.000000
0.000000 0.000000 0.000000
0.000000 0.000000 0.000000
0.000000 0.000000 0.000000
0.000000 0.000000 0.000000
0.000000 0.000000 0.000000
0.000000 0.000000 0.000000
0.000000 0.000000 0.000000
0.000000 0.000000 0.000000
0.000000 0.000000 0.000000
0.000000 0.000000 0.000000
0.000000 0.000000 0.000000
0.000000 0.000000 0.000000
0.000000 0.000000 0.000000
0.000000 0.000000 0.000000
0.000000 0.000000 0.000000
0.000000 0.000000 0.000000
0.000000 0.000000 0.000000
0.000000 0.000000 0.000000
0.000000 0.000000 0.000000
0.000000 0.000000 0.000000
0.000000 0.000000 0.000000
0.000000 0.000000 0.000000
0.000000 0.000000 0.000000
0.000000 0.000000 0.000000
0.000000 0.000000 0.000000
0.000000 0.000000 0.000000
0.000000 0.000000 0.000000
0.000000 0.000000 0.000000
0.000000 0.000000 0.000000
0.000000 0.000000 0.000000
0.000000 0.000000 0.000000
0.000000 0.000000 0.000000
0.000000 0.000000 0.000000
0.000000 0.000000 0.000000
0.000000 0.000000 0.000000
0.000000 0.000000 0.000000
0.000000 0.000000 0.000000
0.000000 0.000000 0.000000
0.000000 0.000000 0.000000
