Ti97
1.0
9.513020 0.000000 0.000000
0.000000 9.350860 0.000000
0.000000 0.000000 18.547230
Ti
97
Selective dynamics
direct
0.141645 0.363931 0.403905 T T T Ti
0.654084 0.360028 0.400836 T T T Ti
0.166907 0.862010 0.400375 T T T Ti
0.677147 0.907889 0.405183 T T T Ti
0.159316 0.378047 0.237188 T T T Ti
0.664380 0.367889 0.230164 T T T Ti
0.159451 0.874437 0.234074 T T T Ti
0.657686 0.863667 0.243013 T T T Ti
0.166658 0.374981 0.077607 F F F Ti
0.666664 0.375025 0.077682 F F F Ti
0.166690 0.874999 0.077664 F F F Ti
0.666669 0.875029 0.077657 F F F Ti
0.405918 0.371700 0.313884 T T T Ti
0.903246 0.377544 0.318162 T T T Ti
0.398350 0.899813 0.312328 T T T Ti
0.913383 0.877457 0.319927 T T T Ti
0.416694 0.374881 0.155243 F F F Ti
0.916579 0.375025 0.155196 F F F Ti
0.416627 0.875012 0.155321 F F F Ti
0.916797 0.875028 0.155177 F F F Ti
0.416696 0.375044 0.000083 F F F Ti
0.916598 0.375043 0.000025 F F F Ti
0.416686 0.874958 0.000144 F F F Ti
0.916634 0.874981 0.000048 F F F Ti
0.096754 0.122457 0.318161 T T T Ti
0.594082 0.128301 0.313883 T T T Ti
0.086617 0.622545 0.319926 T T T Ti
0.601650 0.600188 0.312327 T T T Ti
0.083422 0.124995 0.155197 F F F Ti
0.583306 0.125140 0.155241 F F F Ti
0.083202 0.624993 0.155176 F F F Ti
0.583373 0.625004 0.155321 F F F Ti
0.083404 0.124962 0.000027 F F F Ti
0.583305 0.124958 0.000084 F F F Ti
0.083366 0.625027 0.000047 F F F Ti
0.583315 0.625039 0.000143 F F F Ti
0.345915 0.139972 0.400836 T T T Ti
0.858354 0.136070 0.403905 T T T Ti
0.322851 0.592111 0.405183 T T T Ti
0.833092 0.637990 0.400375 T T T Ti
0.335620 0.132116 0.230164 T T T Ti
0.840683 0.121958 0.237188 T T T Ti
0.342313 0.636337 0.243013 T T T Ti
0.840548 0.625567 0.234074 T T T Ti
0.333336 0.124987 0.077682 F F F Ti
0.833341 0.125035 0.077607 F F F Ti
0.333331 0.624986 0.077657 F F F Ti
0.833309 0.625015 0.077663 F F F Ti
0.374936 0.375071 0.824002 F F F Ti
0.874970 0.375017 0.823932 F F F Ti
0.375012 0.874923 0.823971 F F F Ti
0.875091 0.875026 0.823874 F F F Ti
0.125036 0.124976 0.823934 F F F Ti
0.625066 0.124923 0.824003 F F F Ti
0.124916 0.624974 0.823875 F F F Ti
0.624994 0.625055 0.823968 F F F Ti
0.124951 0.375035 0.910179 F F F Ti
0.625014 0.375025 0.910217 F F F Ti
0.125016 0.874964 0.910178 F F F Ti
0.625011 0.874984 0.910207 F F F Ti
0.374992 0.124968 0.910219 F F F Ti
0.875054 0.124961 0.910179 F F F Ti
0.374994 0.625009 0.910206 F F F Ti
0.874987 0.625032 0.910176 F F F Ti
0.389391 0.389916 0.658075 T T T Ti
0.897003 0.382280 0.650078 T T T Ti
0.385556 0.882293 0.658394 T T T Ti
0.892240 0.882632 0.658032 T T T Ti
0.102997 0.117716 0.650078 T T T Ti
0.610606 0.110078 0.658075 T T T Ti
0.107759 0.617363 0.658032 T T T Ti
0.614441 0.617701 0.658394 T T T Ti
0.146686 0.372665 0.568890 T T T Ti
0.648343 0.356900 0.583989 T T T Ti
0.143951 0.857814 0.574880 T T T Ti
0.656806 0.874943 0.565787 T T T Ti
0.351656 0.143097 0.583989 T T T Ti
0.853314 0.127333 0.568889 T T T Ti
0.343193 0.625055 0.565787 T T T Ti
0.856049 0.642185 0.574880 T T T Ti
0.402950 0.367063 0.492065 T T T Ti
0.891656 0.380020 0.490043 T T T Ti
0.374419 0.928293 0.497350 T T T Ti
0.916103 0.879946 0.483561 T T T Ti
0.108343 0.119980 0.490043 T T T Ti
0.597050 0.132937 0.492065 T T T Ti
0.083897 0.620054 0.483561 T T T Ti
0.625581 0.571707 0.497350 T T T Ti
0.125237 0.874855 0.737682 F F F Ti
0.625271 0.874952 0.737736 F F F Ti
0.374718 0.625025 0.737737 F F F Ti
0.874757 0.625129 0.737682 F F F Ti
0.124525 0.375079 0.737694 F F F Ti
0.625120 0.375126 0.737833 F F F Ti
0.374868 0.124846 0.737837 F F F Ti
0.875470 0.124903 0.737691 F F F Ti
0.500000 0.750000 0.448958 T T T Ti

0.000000 0.000000 0.000000
0.000000 0.000000 0.000000
0.000000 0.000000 0.000000
0.000000 0.000000 0.000000
0.000000 0.000000 0.000000
0.000000 0.000000 0.000000
0.000000 0.000000 0.000000
0.000000 0.000000 0.000000
0.000000 0.000000 0.000000
0.000000 0.000000 0.000000
0.000000 0.000000 0.000000
0.000000 0.000000 0.000000
0.000000 0.000000 0.000000
0.000000 0.000000 0.000000
0.000000 0.000000 0.000000
0.000000 0.000000 0.000000
0.000000 0.000000 0.000000
0.000000 0.000000 0.000000
0.000000 0.000000 0.000000
0.000000 0.000000 0.000000
0.000000 0.000000 0.000000
0.000000 0.000000 0.000000
0.000000 0.000000 0.000000
0.000000 0.000000 0.000000
0.000000 0.000000 0.000000
0.000000 0.000000 0.000000
0.000000 0.000000 0.000000
0.000000 0.000000 0.000000
0.000000 0.000000 0.000000
0.000000 0.000000 0.000000
0.000000 0.000000 0.000000
0.000000 0.000000 0.000000
0.000000 0.000000 0.000000
0.000000 0.000000 0.000000
0.000000 0.000000 0.000000
0.000000 0.000000 0.000000
0.000000 0.000000 0.000000
0.000000 0.000000 0.000000
0.000000 0.000000 0.000000
0.000000 0.000000 0.000000
0.000000 0.000000 0.000000
0.000000 0.000000 0.000000
0.000000 0.000000 0.000000
0.000000 0.000000 0.000000
0.000000 0.000000 0.000000
0.000000 0.000000 0.000000
0.000000 0.000000 0.000000
0.000000 0.000000 0.000000
0.000000 0.000000 0.000000
0.000000 0.000000 0.000000
0.000000 0.000000 0.000000
0.000000 0.000000 0.000000
0.000000 0.000000 0.000000
0.000000 0.000000 0.000000
0.000000 0.000000 0.000000
0.000000 0.000000 0.000000
0.000000 0.000000 0.000000
0.000000 0.000000 0.000000
0.000000 0.000000 0.000000
0.000000 0.000000 0.000000
0.000000 0.000000 0.000000
0.000000 0.000000 0.000000
0.000000 0.000000 0.000000
0.000000 0.000000 0.000000
0.000000 0.000000 0.000000
0.000000 0.000000 0.000000
0.000000 0.000000 0.000000
0.000000 0.000000 0.000000
0.000000 0.000000 0.000000
0.000000 0.000000 0.000000
0.000000 0.000000 0.000000
0.000000 0.000000 0.000000
0.000000 0.000000 0.000000
0.000000 0.000000 0.000000
0.000000 0.000000 0.000000
0.000000 0.000000 0.000000
0.000000 0.000000 0.000000
0.000000 0.000000 0.000000
0.000000 0.000000 0.000000
0.000000 0.000000 0.000000
0.000000 0.000000 0.000000
0.000000 0.000000 0.000000
0.000000 0.000000 0.000000
0.000000 0.000000 0.000000
0.000000 0.000000 0.000000
0.000000 0.000000 0.000000
0.000000 0.000000 0.000000
0.000000 0.000000 0.000000
0.000000 0.000000 0.000000
0.000000 0.000000 0.000000
0.000000 0.000000 0.000000
0.000000 0.000000 0.000000
0.000000 0.000000 0.000000
0.000000 0.000000 0.000000
0.000000 0.000000 0.000000
0.000000 0.000000 0.000000
0.000000 0.000000 0.000000
