Ti66 Nb1
1.0
6.309760 0.000000 0.000000
0.000000 9.464640 0.000000
0.000000 0.000000 18.918326
Ti Nb
66 1
Selective dynamics
direct
0.124897 0.041375 0.500041 F F F Ti
0.625150 0.041555 0.500020 F F F Ti
0.124989 0.041636 0.658604 F F F Ti
0.625064 0.041627 0.658610 F F F Ti
0.125000 0.041665 0.817161 F F F Ti
0.625006 0.041665 0.817163 F F F Ti
0.627055 0.375030 0.500310 F F F Ti
0.125017 0.374999 0.658585 F F F Ti
0.625096 0.375003 0.658633 F F F Ti
0.124997 0.375000 0.817158 F F F Ti
0.625008 0.375001 0.817164 F F F Ti
0.124905 0.708595 0.500040 F F F Ti
0.625127 0.708446 0.500019 F F F Ti
0.124988 0.708360 0.658598 F F F Ti
0.625054 0.708377 0.658608 F F F Ti
0.124998 0.708335 0.817159 F F F Ti
0.625004 0.708337 0.817162 F F F Ti
0.375292 0.208090 0.579477 F F F Ti
0.875102 0.208252 0.579328 F F F Ti
0.375005 0.208327 0.737887 F F F Ti
0.875010 0.208328 0.737877 F F F Ti
0.375000 0.208333 0.896444 F F F Ti
0.875000 0.208333 0.896443 F F F Ti
0.375285 0.541906 0.579472 F F F Ti
0.875108 0.541748 0.579328 F F F Ti
0.375004 0.541674 0.737887 F F F Ti
0.875010 0.541672 0.737877 F F F Ti
0.375000 0.541668 0.896444 F F F Ti
0.875000 0.541667 0.896443 F F F Ti
0.375037 0.875028 0.579309 F F F Ti
0.874971 0.875005 0.579315 F F F Ti
0.375003 0.875003 0.737879 F F F Ti
0.875001 0.874999 0.737879 F F F Ti
0.375001 0.875000 0.896445 F F F Ti
0.874999 0.875000 0.896444 F F F Ti
0.124677 0.625456 0.356636 F F F Ti
0.625024 0.625106 0.356773 F F F Ti
0.124999 0.625006 0.118922 F F F Ti
0.624992 0.625004 0.118923 F F F Ti
0.124670 0.124546 0.356632 F F F Ti
0.625042 0.124902 0.356771 F F F Ti
0.125000 0.124996 0.118921 F F F Ti
0.624993 0.124998 0.118922 F F F Ti
0.125000 0.375000 0.039639 F F F Ti
0.624997 0.375000 0.039639 F F F Ti
0.124999 0.875002 0.039640 F F F Ti
0.624997 0.875001 0.039640 F F F Ti
0.124834 0.375001 0.277392 F F F Ti
0.624878 0.375002 0.277467 F F F Ti
0.124991 0.875021 0.277475 F F F Ti
0.624976 0.875014 0.277495 F F F Ti
0.375007 0.875003 0.158566 F F F Ti
0.874986 0.875004 0.158562 F F F Ti
0.375003 0.375001 0.158564 F F F Ti
0.874961 0.375000 0.158551 F F F Ti
0.873079 0.374999 0.396146 F F F Ti
0.375033 0.875070 0.396438 F F F Ti
0.874929 0.875035 0.396435 F F F Ti
0.375013 0.625015 0.237845 F F F Ti
0.874924 0.625030 0.237823 F F F Ti
0.375001 0.625002 -0.000001 F F F Ti
0.874997 0.625002 -0.000003 F F F Ti
0.375014 0.124989 0.237845 F F F Ti
0.874924 0.124973 0.237824 F F F Ti
0.375000 0.124998 -0.000002 F F F Ti
0.874997 0.124998 -0.000003 F F F Ti
0.254762 0.374787 0.448633 T T T Nb

0.000000 0.000000 0.000000
0.000000 0.000000 0.000000
0.000000 0.000000 0.000000
0.000000 0.000000 0.000000
0.000000 0.000000 0.000000
0.000000 0.000000 0.000000
0.000000 0.000000 0.000000
0.000000 0.000000 0.000000
0.000000 0.000000 0.000000
0.000000 0.000000 0.000000
0.000000 0.000000 0.000000
0.000000 0.000000 0.000000
0.000000 0.000000 0.000000
0.000000 0.000000 0.000000
0.000000 0.000000 0.000000
0.000000 0.000000 0.000000
0.000000 0.000000 0.000000
0.000000 0.000000 0.000000
0.000000 0.000000 0.000000
0.000000 0.000000 0.000000
0.000000 0.000000 0.000000
0.000000 0.000000 0.000000
0.000000 0.000000 0.000000
0.000000 0.000000 0.000000
0.000000 0.000000 0.000000
0.000000 0.000000 0.000000
0.000000 0.000000 0.000000
0.000000 0.000000 0.000000
0.000000 0.000000 0.000000
0.000000 0.000000 0.000000
0.000000 0.000000 0.000000
0.000000 0.000000 0.000000
0.000000 0.000000 0.000000
0.000000 0.000000 0.000000
0.000000 0.000000 0.000000
0.000000 0.000000 0.000000
0.000000 0.000000 0.000000
0.000000 0.000000 0.000000
0.000000 0.000000 0.000000
0.000000 0.000000 0.000000
0.000000 0.000000 0.000000
0.000000 0.000000 0.000000
0.000000 0.000000 0.000000
0.000000 0.000000 0.000000
0.000000 0.000000 0.000000
0.000000 0.000000 0.000000
0.000000 0.000000 0.000000
0.000000 0.000000 0.000000
0.000000 0.000000 0.000000
0.000000 0.000000 0.000000
0.000000 0.000000 0.000000
0.000000 0.000000 0.000000
0.000000 0.000000 0.000000
0.000000 0.000000 0.000000
0.000000 0.000000 0.000000
0.000000 0.000000 0.000000
0.000000 0.000000 0.000000
0.000000 0.000000 0.000000
0.000000 0.000000 0.000000
0.000000 0.000000 0.000000
0.000000 0.000000 0.000000
0.000000 0.000000 0.000000
0.000000 0.000000 0.000000
0.000000 0.000000 0.000000
0.000000 0.000000 0.000000
0.000000 0.000000 0.000000
0.000000 0.000000 0.000000
