Zr1 Ti66
1.0
6.309760 0.000000 0.000000
0.000000 9.464640 0.000000
0.000000 0.000000 18.918326
Ti Zr
66 1
Selective dynamics
direct
0.125549 0.032220 0.501610 F F F Ti
0.627290 0.039649 0.499931 F F F Ti
0.125573 0.039236 0.659057 F F F Ti
0.625140 0.038958 0.659201 F F F Ti
0.125152 0.040853 0.817232 F F F Ti
0.625062 0.040840 0.817280 F F F Ti
0.631115 0.373515 0.500159 F F F Ti
0.125291 0.373034 0.658530 F F F Ti
0.625720 0.373908 0.658873 F F F Ti
0.125216 0.374353 0.817097 F F F Ti
0.625206 0.374432 0.817184 F F F Ti
0.124977 0.702231 0.499423 F F F Ti
0.623714 0.706628 0.499724 F F F Ti
0.125355 0.705861 0.658374 F F F Ti
0.624532 0.706331 0.658665 F F F Ti
0.125107 0.707497 0.817097 F F F Ti
0.624993 0.707532 0.817150 F F F Ti
0.379896 0.204678 0.580381 F F F Ti
0.870619 0.203675 0.581314 F F F Ti
0.375406 0.207242 0.738042 F F F Ti
0.875124 0.207152 0.738198 F F F Ti
0.375102 0.207956 0.896308 F F F Ti
0.875120 0.207946 0.896329 F F F Ti
0.375887 0.538904 0.579011 F F F Ti
0.874375 0.540098 0.579479 F F F Ti
0.375023 0.540429 0.737837 F F F Ti
0.875351 0.540573 0.737922 F F F Ti
0.375050 0.541227 0.896281 F F F Ti
0.875123 0.541244 0.896287 F F F Ti
0.376156 0.871756 0.579569 F F F Ti
0.874318 0.871285 0.579685 F F F Ti
0.375042 0.873455 0.738052 F F F Ti
0.875207 0.873378 0.738055 F F F Ti
0.375056 0.874585 0.896367 F F F Ti
0.875047 0.874581 0.896366 F F F Ti
0.125557 0.626069 0.355632 F F F Ti
0.624600 0.629902 0.355270 F F F Ti
0.125231 0.625588 0.118320 F F F Ti
0.625041 0.625611 0.118232 F F F Ti
0.627627 0.124298 0.356245 F F F Ti
0.125411 0.125173 0.118622 F F F Ti
0.625082 0.125151 0.118558 F F F Ti
0.125262 0.375027 0.039093 F F F Ti
0.625064 0.375018 0.039126 F F F Ti
0.125021 0.875246 0.039364 F F F Ti
0.624945 0.875276 0.039349 F F F Ti
0.125634 0.376059 0.276676 F F F Ti
0.624441 0.375867 0.274204 F F F Ti
0.124963 0.876193 0.277292 F F F Ti
0.625124 0.876681 0.276958 F F F Ti
0.375000 0.875717 0.158216 F F F Ti
0.875224 0.875698 0.158158 F F F Ti
0.374357 0.375351 0.157638 F F F Ti
0.876207 0.375395 0.157514 F F F Ti
0.395475 0.380648 0.392268 F F F Ti
0.849360 0.383213 0.390197 F F F Ti
0.374599 0.875597 0.396342 F F F Ti
0.875876 0.874699 0.396340 F F F Ti
0.375079 0.626330 0.236878 F F F Ti
0.875333 0.626406 0.236801 F F F Ti
0.375034 0.625149 -0.000336 F F F Ti
0.875047 0.625159 -0.000334 F F F Ti
0.374768 0.125593 0.237687 F F F Ti
0.875941 0.125561 0.237411 F F F Ti
0.375029 0.124843 -0.000204 F F F Ti
0.875097 0.124847 -0.000182 F F F Ti
0.110672 0.314659 0.468643 T T T Zr

0.000000 0.000000 0.000000
0.000000 0.000000 0.000000
0.000000 0.000000 0.000000
0.000000 0.000000 0.000000
0.000000 0.000000 0.000000
0.000000 0.000000 0.000000
0.000000 0.000000 0.000000
0.000000 0.000000 0.000000
0.000000 0.000000 0.000000
0.000000 0.000000 0.000000
0.000000 0.000000 0.000000
0.000000 0.000000 0.000000
0.000000 0.000000 0.000000
0.000000 0.000000 0.000000
0.000000 0.000000 0.000000
0.000000 0.000000 0.000000
0.000000 0.000000 0.000000
0.000000 0.000000 0.000000
0.000000 0.000000 0.000000
0.000000 0.000000 0.000000
0.000000 0.000000 0.000000
0.000000 0.000000 0.000000
0.000000 0.000000 0.000000
0.000000 0.000000 0.000000
0.000000 0.000000 0.000000
0.000000 0.000000 0.000000
0.000000 0.000000 0.000000
0.000000 0.000000 0.000000
0.000000 0.000000 0.000000
0.000000 0.000000 0.000000
0.000000 0.000000 0.000000
0.000000 0.000000 0.000000
0.000000 0.000000 0.000000
0.000000 0.000000 0.000000
0.000000 0.000000 0.000000
0.000000 0.000000 0.000000
0.000000 0.000000 0.000000
0.000000 0.000000 0.000000
0.000000 0.000000 0.000000
0.000000 0.000000 0.000000
0.000000 0.000000 0.000000
0.000000 0.000000 0.000000
0.000000 0.000000 0.000000
0.000000 0.000000 0.000000
0.000000 0.000000 0.000000
0.000000 0.000000 0.000000
0.000000 0.000000 0.000000
0.000000 0.000000 0.000000
0.000000 0.000000 0.000000
0.000000 0.000000 0.000000
0.000000 0.000000 0.000000
0.000000 0.000000 0.000000
0.000000 0.000000 0.000000
0.000000 0.000000 0.000000
0.000000 0.000000 0.000000
0.000000 0.000000 0.000000
0.000000 0.000000 0.000000
0.000000 0.000000 0.000000
0.000000 0.000000 0.000000
0.000000 0.000000 0.000000
0.000000 0.000000 0.000000
0.000000 0.000000 0.000000
0.000000 0.000000 0.000000
0.000000 0.000000 0.000000
0.000000 0.000000 0.000000
0.000000 0.000000 0.000000
0.000000 0.000000 0.000000
