total_structure
1.0
   3.5061499999999999    0.0000000000000000    0.0000000000000002
   0.0000000000000019   12.0001999999999995    0.0000000000000007
   0.0000000000000000    0.0000000000000000   32.0716049620000021
Cr Fe N
16 36 16
Selective dynamics
direct
   0.0000000000000000    0.0000000000000000    0.1960089253234548 F F F Cr
  -0.0000000000000000    0.2500000000000000    0.1960089253234548 F F F Cr
   0.5000000000000000    0.1250000000000000    0.1306698221048012 F F F Cr
   0.5000000000000000    0.3750000000000000    0.1306698221048012 F F F Cr
   0.0000000000000000    0.0000000000000000    0.0653391032186536 F F F Cr
  -0.0000000000000000    0.2500000000000000    0.0653391032186536 F F F Cr
   0.5000000000000000    0.1250000000000000   -0.0000000000000000 F F F Cr
   0.5000000000000000    0.3750000000000000   -0.0000000000000000 F F F Cr
  -0.0000000000000000    0.5000000000000000    0.1960089253234548 F F F Cr
  -0.0000000000000000    0.7500000000000000    0.1960089253234548 F F F Cr
   0.5000000000000000    0.6250000000000000    0.1306698221048012 F F F Cr
   0.4999999999999999    0.8749999999999999    0.1306698221048012 F F F Cr
  -0.0000000000000000    0.5000000000000000    0.0653391032186536 F F F Cr
  -0.0000000000000000    0.7500000000000000    0.0653391032186536 F F F Cr
   0.5000000000000000    0.6250000000000000   -0.0000000000000000 F F F Cr
   0.4999999999999999    0.8749999999999999   -0.0000000000000000 F F F Cr
   0.9933200000000000    0.7184400000000000    0.6881950584372504 F F F Fe
   0.4933200000000000    0.5543100000000000    0.6773708851721044 F F F Fe
   0.4933200000000000    0.7391600000000000    0.6442360031086990 F F F Fe
   0.9933200000000000    0.5750200000000000    0.6334118298435532 F F F Fe
   0.9933200000000001    0.3901700000000000    0.6665383275744526 F F F Fe
   0.4933200000000000    0.2260400000000000    0.6557141543093068 F F F Fe
   0.4933200000000000    0.4108899999999999    0.6225792722459013 F F F Fe
   0.9933200000000001    0.2467500000000000    0.6117550989807555 F F F Fe
   0.9933200000000000    0.0619000000000000    0.6448815967116550 F F F Fe
   0.4933200000000000    0.8977699999999998    0.6340574234465092 F F F Fe
   0.4933200000000000    0.0826200000000000    0.6009225413831037 F F F Fe
   0.9933200000000000    0.9184800000000000    0.5900983681179578 F F F Fe
   0.9933200000000000    0.7598700000000000    0.6002853321126536 F F F Fe
   0.4933200000000000    0.5957300000000000    0.5894527745150019 F F F Fe
   0.4933200000000000    0.7805800000000001    0.5563262767841023 F F F Fe
   0.9933200000000001    0.6164500000000001    0.5454937191864505 F F F Fe
   0.9933200000000001    0.4315999999999999    0.5786286012498559 F F F Fe
   0.4933200000000000    0.2674600000000000    0.5677960436522042 F F F Fe
   0.4933200000000000    0.4523100000000000    0.5346695459213046 F F F Fe
   0.9933200000000001    0.2881800000000000    0.5238369883236528 F F F Fe
   0.9933199999999999    0.1033300000000000    0.5569718703870583 F F F Fe
   0.4933200000000000    0.9391999999999999    0.5461393127894065 F F F Fe
   0.4933200000000000    0.1240400000000000    0.5130128150585069 F F F Fe
   0.9933200000000000    0.9599100000000000    0.5021802574608552 F F F Fe
   0.9933200000000000    0.8013000000000000    0.5123672214555508 F F F Fe
   0.4933200000000000    0.6371599999999998    0.5015430481904051 F F F Fe
   0.4933200000000000    0.8220099999999999    0.4684081661269995 F F F Fe
   0.9933200000000001    0.6578799999999999    0.4575839928618537 F F F Fe
   0.9933200000000001    0.4730300000000000    0.4907104905927532 F F F Fe
   0.4933200000000000    0.3088900000000000    0.4798863173276073 F F F Fe
   0.4933200000000000    0.4937400000000000    0.4467514352642019 F F F Fe
   0.9933200000000000    0.3296100000000000    0.4359272619990561 F F F Fe
   0.9933200000000001    0.1447600000000000    0.4690537597299556 F F F Fe
   0.4933200000000000    0.9806200000000000    0.4582295864648097 F F F Fe
   0.4933200000000000    0.1654700000000000    0.4250947044014042 F F F Fe
   0.9933200000000000    0.0013400000000000    0.4142705311362584 F F F Fe
   0.5000000000000000    0.1250000000000000    0.1960089253234548 F F F N
   0.5000000000000000    0.3750000000000000    0.1960089253234548 F F F N
   0.0000000000000000    0.0000000000000000    0.1306698221048012 F F F N
  -0.0000000000000000    0.2500000000000000    0.1306698221048012 F F F N
   0.5000000000000000    0.1250000000000000    0.0653391032186536 F F F N
   0.5000000000000000    0.3750000000000000    0.0653391032186536 F F F N
   0.0000000000000000    0.0000000000000000    0.0000000000000000 F F F N
  -0.0000000000000000    0.2500000000000000   -0.0000000000000000 F F F N
   0.5000000000000000    0.6250000000000000    0.1960089253234548 F F F N
   0.4999999999999999    0.8749999999999999    0.1960089253234548 F F F N
  -0.0000000000000000    0.5000000000000000    0.1306698221048012 F F F N
  -0.0000000000000000    0.7500000000000000    0.1306698221048012 F F F N
   0.5000000000000000    0.6250000000000000    0.0653391032186536 F F F N
   0.4999999999999999    0.8749999999999999    0.0653391032186536 F F F N
  -0.0000000000000000    0.5000000000000000   -0.0000000000000000 F F F N
  -0.0000000000000000    0.7500000000000000   -0.0000000000000000 F F F N
