Ti96 Nb1
1.0
9.513020 0.000000 0.000000
0.000000 9.350860 0.000000
0.000000 0.000000 18.547230
Ti Nb
96 1
Selective dynamics
direct
0.147383 0.374636 0.405183 T T T Ti
0.643606 0.333856 0.406310 T T T Ti
0.123724 0.853557 0.400326 T T T Ti
0.681973 0.878071 0.394352 T T T Ti
0.159282 0.370420 0.236089 T T T Ti
0.659395 0.370186 0.234271 T T T Ti
0.161328 0.871896 0.233243 T T T Ti
0.659446 0.874687 0.234164 T T T Ti
0.166641 0.375041 0.077548 F F F Ti
0.666705 0.375004 0.077504 F F F Ti
0.166725 0.875003 0.077500 F F F Ti
0.666657 0.875024 0.077517 F F F Ti
0.408146 0.385663 0.316474 T T T Ti
0.898655 0.372165 0.320949 T T T Ti
0.379977 0.907301 0.328794 T T T Ti
0.913678 0.883816 0.310275 T T T Ti
0.416698 0.375131 0.155091 F F F Ti
0.916648 0.374903 0.155106 F F F Ti
0.416651 0.875057 0.155205 F F F Ti
0.916731 0.875196 0.155022 F F F Ti
0.416664 0.375027 -0.000086 F F F Ti
0.916647 0.374992 -0.000098 F F F Ti
0.416683 0.874982 -0.000067 F F F Ti
0.916669 0.875008 -0.000135 F F F Ti
0.101345 0.127836 0.320948 T T T Ti
0.591854 0.114338 0.316473 T T T Ti
0.086322 0.616186 0.310274 T T T Ti
0.620023 0.592700 0.328793 T T T Ti
0.083352 0.125112 0.155105 F F F Ti
0.583302 0.124888 0.155093 F F F Ti
0.083269 0.624827 0.155024 F F F Ti
0.583350 0.624959 0.155205 F F F Ti
0.083356 0.125009 -0.000099 F F F Ti
0.583336 0.124978 -0.000085 F F F Ti
0.083331 0.625004 -0.000135 F F F Ti
0.583318 0.625027 -0.000069 F F F Ti
0.356393 0.166144 0.406310 T T T Ti
0.852616 0.125364 0.405183 T T T Ti
0.318026 0.621930 0.394352 T T T Ti
0.876275 0.646443 0.400326 T T T Ti
0.340604 0.129818 0.234271 T T T Ti
0.840717 0.129584 0.236089 T T T Ti
0.340553 0.625318 0.234164 T T T Ti
0.838671 0.628109 0.233243 T T T Ti
0.333294 0.125009 0.077504 F F F Ti
0.833358 0.124970 0.077549 F F F Ti
0.333342 0.624992 0.077516 F F F Ti
0.833275 0.625014 0.077499 F F F Ti
0.375007 0.375064 0.823842 F F F Ti
0.874986 0.375013 0.823907 F F F Ti
0.375022 0.874921 0.823776 F F F Ti
0.875026 0.875019 0.823699 F F F Ti
0.125022 0.124974 0.823906 F F F Ti
0.624993 0.124922 0.823842 F F F Ti
0.124978 0.624974 0.823700 F F F Ti
0.624988 0.625076 0.823775 F F F Ti
0.125059 0.375104 0.910085 F F F Ti
0.624970 0.375101 0.910068 F F F Ti
0.125059 0.874926 0.910020 F F F Ti
0.624969 0.874954 0.909988 F F F Ti
0.375037 0.124891 0.910068 F F F Ti
0.874947 0.124887 0.910086 F F F Ti
0.375034 0.625045 0.909987 F F F Ti
0.874945 0.625071 0.910018 F F F Ti
0.394194 0.384434 0.658145 T T T Ti
0.893687 0.375107 0.648864 T T T Ti
0.394722 0.892109 0.646573 T T T Ti
0.883161 0.886368 0.666444 T T T Ti
0.106310 0.124888 0.648864 T T T Ti
0.605804 0.115561 0.658144 T T T Ti
0.116838 0.613626 0.666445 T T T Ti
0.605276 0.607885 0.646574 T T T Ti
0.150235 0.371979 0.570173 T T T Ti
0.641701 0.343097 0.571930 T T T Ti
0.127568 0.859521 0.585308 T T T Ti
0.654047 0.864119 0.577336 T T T Ti
0.358298 0.156902 0.571930 T T T Ti
0.849765 0.128019 0.570173 T T T Ti
0.345952 0.635879 0.577337 T T T Ti
0.872432 0.640477 0.585308 T T T Ti
0.409631 0.408551 0.489249 T T T Ti
0.899875 0.374237 0.486501 T T T Ti
0.329823 0.923668 0.488227 T T T Ti
0.904376 0.884683 0.493631 T T T Ti
0.100125 0.125762 0.486501 T T T Ti
0.590369 0.091448 0.489249 T T T Ti
0.095623 0.615317 0.493631 T T T Ti
0.670177 0.576332 0.488227 T T T Ti
0.124941 0.874902 0.737560 F F F Ti
0.625187 0.875136 0.737482 F F F Ti
0.374809 0.624851 0.737486 F F F Ti
0.875051 0.625080 0.737558 F F F Ti
0.125063 0.375101 0.737696 F F F Ti
0.624891 0.374970 0.737739 F F F Ti
0.375095 0.124995 0.737737 F F F Ti
0.874926 0.124870 0.737699 F F F Ti
0.500000 0.750000 0.440303 T T T Nb

0.000000 0.000000 0.000000
0.000000 0.000000 0.000000
0.000000 0.000000 0.000000
0.000000 0.000000 0.000000
0.000000 0.000000 0.000000
0.000000 0.000000 0.000000
0.000000 0.000000 0.000000
0.000000 0.000000 0.000000
0.000000 0.000000 0.000000
0.000000 0.000000 0.000000
0.000000 0.000000 0.000000
0.000000 0.000000 0.000000
0.000000 0.000000 0.000000
0.000000 0.000000 0.000000
0.000000 0.000000 0.000000
0.000000 0.000000 0.000000
0.000000 0.000000 0.000000
0.000000 0.000000 0.000000
0.000000 0.000000 0.000000
0.000000 0.000000 0.000000
0.000000 0.000000 0.000000
0.000000 0.000000 0.000000
0.000000 0.000000 0.000000
0.000000 0.000000 0.000000
0.000000 0.000000 0.000000
0.000000 0.000000 0.000000
0.000000 0.000000 0.000000
0.000000 0.000000 0.000000
0.000000 0.000000 0.000000
0.000000 0.000000 0.000000
0.000000 0.000000 0.000000
0.000000 0.000000 0.000000
0.000000 0.000000 0.000000
0.000000 0.000000 0.000000
0.000000 0.000000 0.000000
0.000000 0.000000 0.000000
0.000000 0.000000 0.000000
0.000000 0.000000 0.000000
0.000000 0.000000 0.000000
0.000000 0.000000 0.000000
0.000000 0.000000 0.000000
0.000000 0.000000 0.000000
0.000000 0.000000 0.000000
0.000000 0.000000 0.000000
0.000000 0.000000 0.000000
0.000000 0.000000 0.000000
0.000000 0.000000 0.000000
0.000000 0.000000 0.000000
0.000000 0.000000 0.000000
0.000000 0.000000 0.000000
0.000000 0.000000 0.000000
0.000000 0.000000 0.000000
0.000000 0.000000 0.000000
0.000000 0.000000 0.000000
0.000000 0.000000 0.000000
0.000000 0.000000 0.000000
0.000000 0.000000 0.000000
0.000000 0.000000 0.000000
0.000000 0.000000 0.000000
0.000000 0.000000 0.000000
0.000000 0.000000 0.000000
0.000000 0.000000 0.000000
0.000000 0.000000 0.000000
0.000000 0.000000 0.000000
0.000000 0.000000 0.000000
0.000000 0.000000 0.000000
0.000000 0.000000 0.000000
0.000000 0.000000 0.000000
0.000000 0.000000 0.000000
0.000000 0.000000 0.000000
0.000000 0.000000 0.000000
0.000000 0.000000 0.000000
0.000000 0.000000 0.000000
0.000000 0.000000 0.000000
0.000000 0.000000 0.000000
0.000000 0.000000 0.000000
0.000000 0.000000 0.000000
0.000000 0.000000 0.000000
0.000000 0.000000 0.000000
0.000000 0.000000 0.000000
0.000000 0.000000 0.000000
0.000000 0.000000 0.000000
0.000000 0.000000 0.000000
0.000000 0.000000 0.000000
0.000000 0.000000 0.000000
0.000000 0.000000 0.000000
0.000000 0.000000 0.000000
0.000000 0.000000 0.000000
0.000000 0.000000 0.000000
0.000000 0.000000 0.000000
0.000000 0.000000 0.000000
0.000000 0.000000 0.000000
0.000000 0.000000 0.000000
0.000000 0.000000 0.000000
0.000000 0.000000 0.000000
0.000000 0.000000 0.000000
0.000000 0.000000 0.000000
