VASP @ Device Studio
1.0
9.513020 0.000000 0.000000
0.000000 9.350860 0.000000
0.000000 0.000000 20.344250
Ti Sn
94 1
Selective dynamics
direct
0.166666 0.875000 0.354134 F F F Ti
0.666666 0.375000 0.354134 F F F Ti
0.666666 0.875000 0.354134 F F F Ti
0.166666 0.375000 0.212481 F F F Ti
0.166666 0.875000 0.212481 F F F Ti
0.666666 0.375000 0.212481 F F F Ti
0.666666 0.875000 0.212481 F F F Ti
0.166666 0.375000 0.070827 F F F Ti
0.166666 0.875000 0.070827 F F F Ti
0.666666 0.375000 0.070827 F F F Ti
0.666666 0.875000 0.070827 F F F Ti
0.416667 0.375000 0.283308 F F F Ti
0.416667 0.875000 0.283308 F F F Ti
0.916667 0.375000 0.283308 F F F Ti
0.916667 0.875000 0.283308 F F F Ti
0.416667 0.375000 0.141654 F F F Ti
0.416667 0.875000 0.141654 F F F Ti
0.916667 0.375000 0.141654 F F F Ti
0.916667 0.875000 0.141654 F F F Ti
0.416667 0.375000 0.000000 F F F Ti
0.416667 0.875000 0.000000 F F F Ti
0.916667 0.375000 0.000000 F F F Ti
0.916667 0.875000 0.000000 F F F Ti
0.083333 0.125000 0.283307 F F F Ti
0.083333 0.625000 0.283307 F F F Ti
0.583333 0.125000 0.283307 F F F Ti
0.583333 0.625000 0.283307 F F F Ti
0.083333 0.125000 0.141654 F F F Ti
0.083333 0.625000 0.141654 F F F Ti
0.583333 0.125000 0.141654 F F F Ti
0.583333 0.625000 0.141654 F F F Ti
0.083333 0.125000 0.000000 F F F Ti
0.083333 0.625000 0.000000 F F F Ti
0.583333 0.125000 0.000000 F F F Ti
0.583333 0.625000 0.000000 F F F Ti
0.333333 0.125000 0.354134 F F F Ti
0.333333 0.625000 0.354134 F F F Ti
0.833333 0.125000 0.354134 F F F Ti
0.833333 0.625000 0.354134 F F F Ti
0.333333 0.125000 0.212481 F F F Ti
0.333333 0.625000 0.212481 F F F Ti
0.833333 0.125000 0.212481 F F F Ti
0.833333 0.625000 0.212481 F F F Ti
0.333333 0.125000 0.070827 F F F Ti
0.333333 0.625000 0.070827 F F F Ti
0.833333 0.125000 0.070827 F F F Ti
0.833333 0.625000 0.070827 F F F Ti
0.375000 0.375000 0.873862 F F F Ti
0.375000 0.875000 0.873862 F F F Ti
0.875000 0.375000 0.873862 F F F Ti
0.875000 0.875000 0.873862 F F F Ti
0.125000 0.125000 0.873862 F F F Ti
0.125000 0.625000 0.873862 F F F Ti
0.625000 0.125000 0.873862 F F F Ti
0.625000 0.625000 0.873862 F F F Ti
0.125000 0.375000 0.795145 F F F Ti
0.125000 0.875000 0.795145 F F F Ti
0.625000 0.375000 0.795145 F F F Ti
0.625000 0.875000 0.795145 F F F Ti
0.375000 0.125000 0.795145 F F F Ti
0.375000 0.625000 0.795145 F F F Ti
0.875000 0.125000 0.795145 F F F Ti
0.875000 0.625000 0.795145 F F F Ti
0.375000 0.375000 0.716427 F F F Ti
0.375000 0.875000 0.716427 F F F Ti
0.875000 0.375000 0.716427 F F F Ti
0.875000 0.875000 0.716427 F F F Ti
0.125000 0.125000 0.716427 F F F Ti
0.125000 0.625000 0.716427 F F F Ti
0.625000 0.125000 0.716427 F F F Ti
0.625000 0.625000 0.716427 F F F Ti
0.125000 0.375000 0.637710 F F F Ti
0.125000 0.875000 0.637710 F F F Ti
0.625000 0.375000 0.637710 F F F Ti
0.625000 0.875000 0.637710 F F F Ti
0.375000 0.125000 0.637710 F F F Ti
0.375000 0.625000 0.637710 F F F Ti
0.875000 0.125000 0.637710 F F F Ti
0.875000 0.625000 0.637710 F F F Ti
0.375000 0.375000 0.558992 F F F Ti
0.375000 0.875000 0.558992 F F F Ti
0.875000 0.375000 0.558992 F F F Ti
0.875000 0.875000 0.558992 F F F Ti
0.125000 0.125000 0.558992 F F F Ti
0.125000 0.625000 0.558992 F F F Ti
0.625000 0.125000 0.558992 F F F Ti
0.625000 0.625000 0.558992 F F F Ti
0.125000 0.375000 0.480275 F F F Ti
0.125000 0.875000 0.480275 F F F Ti
0.625000 0.375000 0.480275 F F F Ti
0.625000 0.875000 0.480275 F F F Ti
0.375000 0.625000 0.480275 F F F Ti
0.875000 0.125000 0.480275 F F F Ti
0.875000 0.625000 0.480275 F F F Ti
0.375000 0.125000 0.480275 T T T Sn
