Ti66 Al1
1.0
6.309760 0.000000 0.000000
0.000000 9.464640 0.000000
0.000000 0.000000 18.918326
Ti Al
66 1
Selective dynamics
direct
0.636645 0.037841 0.498748 F F F Ti
0.120776 0.039455 0.660046 F F F Ti
0.625725 0.040469 0.659020 F F F Ti
0.124672 0.041510 0.817408 F F F Ti
0.624549 0.041558 0.817351 F F F Ti
0.118921 0.381012 0.498835 F F F Ti
0.626831 0.376823 0.499355 F F F Ti
0.123277 0.375344 0.658769 F F F Ti
0.623787 0.374989 0.658676 F F F Ti
0.124855 0.374832 0.817237 F F F Ti
0.624550 0.374853 0.817257 F F F Ti
0.124775 0.708902 0.499995 F F F Ti
0.625221 0.707789 0.499809 F F F Ti
0.124687 0.707761 0.658880 F F F Ti
0.624909 0.707667 0.658935 F F F Ti
0.124896 0.708037 0.817385 F F F Ti
0.624637 0.707992 0.817432 F F F Ti
0.869168 0.209284 0.579710 F F F Ti
0.374288 0.207957 0.737821 F F F Ti
0.873930 0.208380 0.738158 F F F Ti
0.374865 0.208271 0.896475 F F F Ti
0.874780 0.208309 0.896541 F F F Ti
0.374564 0.541831 0.579297 F F F Ti
0.873622 0.542420 0.579617 F F F Ti
0.374667 0.541353 0.738000 F F F Ti
0.874506 0.541433 0.738147 F F F Ti
0.374885 0.541461 0.896536 F F F Ti
0.874863 0.541465 0.896565 F F F Ti
0.376721 0.872153 0.579720 F F F Ti
0.875325 0.873932 0.579667 F F F Ti
0.374903 0.874499 0.738173 F F F Ti
0.874037 0.874156 0.738382 F F F Ti
0.374911 0.874897 0.896568 F F F Ti
0.874785 0.874876 0.896614 F F F Ti
0.125056 0.625091 0.356656 F F F Ti
0.624698 0.625112 0.356577 F F F Ti
0.125018 0.624997 0.118892 F F F Ti
0.624955 0.624997 0.118886 F F F Ti
0.125098 0.125155 0.356668 F F F Ti
0.625815 0.124879 0.356338 F F F Ti
0.125036 0.124975 0.118882 F F F Ti
0.624977 0.124969 0.118873 F F F Ti
0.125005 0.374942 0.039590 F F F Ti
0.624904 0.374948 0.039596 F F F Ti
0.124998 0.874994 0.039629 F F F Ti
0.624903 0.874987 0.039636 F F F Ti
0.124918 0.375046 0.277265 F F F Ti
0.624864 0.375067 0.277148 F F F Ti
0.125211 0.875061 0.277411 F F F Ti
0.625153 0.874906 0.277342 F F F Ti
0.375011 0.874985 0.158514 F F F Ti
0.875047 0.874969 0.158501 F F F Ti
0.374968 0.374993 0.158450 F F F Ti
0.875029 0.375005 0.158431 F F F Ti
0.374935 0.375777 0.395961 F F F Ti
0.873659 0.375298 0.395663 F F F Ti
0.375383 0.874904 0.396334 F F F Ti
0.876287 0.874383 0.396077 F F F Ti
0.374958 0.625014 0.237754 F F F Ti
0.875057 0.625010 0.237735 F F F Ti
0.374969 0.624937 0.000030 F F F Ti
0.874968 0.624941 0.000050 F F F Ti
0.375006 0.124984 0.237756 F F F Ti
0.875179 0.124958 0.237685 F F F Ti
0.374981 0.124963 0.000011 F F F Ti
0.874950 0.124950 0.000043 F F F Ti
0.313701 0.166287 0.554416 T T T Al

0.000000 0.000000 0.000000
0.000000 0.000000 0.000000
0.000000 0.000000 0.000000
0.000000 0.000000 0.000000
0.000000 0.000000 0.000000
0.000000 0.000000 0.000000
0.000000 0.000000 0.000000
0.000000 0.000000 0.000000
0.000000 0.000000 0.000000
0.000000 0.000000 0.000000
0.000000 0.000000 0.000000
0.000000 0.000000 0.000000
0.000000 0.000000 0.000000
0.000000 0.000000 0.000000
0.000000 0.000000 0.000000
0.000000 0.000000 0.000000
0.000000 0.000000 0.000000
0.000000 0.000000 0.000000
0.000000 0.000000 0.000000
0.000000 0.000000 0.000000
0.000000 0.000000 0.000000
0.000000 0.000000 0.000000
0.000000 0.000000 0.000000
0.000000 0.000000 0.000000
0.000000 0.000000 0.000000
0.000000 0.000000 0.000000
0.000000 0.000000 0.000000
0.000000 0.000000 0.000000
0.000000 0.000000 0.000000
0.000000 0.000000 0.000000
0.000000 0.000000 0.000000
0.000000 0.000000 0.000000
0.000000 0.000000 0.000000
0.000000 0.000000 0.000000
0.000000 0.000000 0.000000
0.000000 0.000000 0.000000
0.000000 0.000000 0.000000
0.000000 0.000000 0.000000
0.000000 0.000000 0.000000
0.000000 0.000000 0.000000
0.000000 0.000000 0.000000
0.000000 0.000000 0.000000
0.000000 0.000000 0.000000
0.000000 0.000000 0.000000
0.000000 0.000000 0.000000
0.000000 0.000000 0.000000
0.000000 0.000000 0.000000
0.000000 0.000000 0.000000
0.000000 0.000000 0.000000
0.000000 0.000000 0.000000
0.000000 0.000000 0.000000
0.000000 0.000000 0.000000
0.000000 0.000000 0.000000
0.000000 0.000000 0.000000
0.000000 0.000000 0.000000
0.000000 0.000000 0.000000
0.000000 0.000000 0.000000
0.000000 0.000000 0.000000
0.000000 0.000000 0.000000
0.000000 0.000000 0.000000
0.000000 0.000000 0.000000
0.000000 0.000000 0.000000
0.000000 0.000000 0.000000
0.000000 0.000000 0.000000
0.000000 0.000000 0.000000
0.000000 0.000000 0.000000
0.000000 0.000000 0.000000
