beta_Ti
1.0
5.745590 0.000000 0.000000
0.000000 9.072750 0.000000
0.000000 0.000000 23.625032
Ti
32
direct
0.291667 0.625000 0.500870 Ti
0.291667 0.125000 0.500870 Ti
0.791667 0.625000 0.500870 Ti
0.791667 0.125000 0.500870 Ti
0.458333 0.625000 0.613244 Ti
0.458333 0.125000 0.613244 Ti
0.958333 0.625000 0.613244 Ti
0.958333 0.125000 0.613244 Ti
0.125000 0.625000 0.725617 Ti
0.125000 0.125000 0.725617 Ti
0.625000 0.625000 0.725617 Ti
0.625000 0.125000 0.725617 Ti
0.291667 0.625000 0.837992 Ti
0.291667 0.125000 0.837992 Ti
0.791667 0.625000 0.837992 Ti
0.791667 0.125000 0.837992 Ti
0.125000 0.875000 0.557056 Ti
0.125000 0.375000 0.557056 Ti
0.625000 0.875000 0.557056 Ti
0.625000 0.375000 0.557056 Ti
0.291667 0.875000 0.669431 Ti
0.291667 0.375000 0.669431 Ti
0.791667 0.875000 0.669431 Ti
0.791667 0.375000 0.669431 Ti
0.458333 0.875000 0.781805 Ti
0.458333 0.375000 0.781805 Ti
0.958333 0.875000 0.781805 Ti
0.958333 0.375000 0.781805 Ti
0.125000 0.875000 0.894178 Ti
0.125000 0.375000 0.894178 Ti
0.625000 0.875000 0.894178 Ti
0.625000 0.375000 0.894178 Ti
