alpha_Ti
1.0
5.745590 0.000000 0.000000
0.000000 9.072750 0.000000
0.000000 0.000000 23.625032
Ti
32
direct
0.041667 0.875000 0.395050 Ti
0.041667 0.375000 0.395050 Ti
0.541667 0.875000 0.395050 Ti
0.541667 0.375000 0.395050 Ti
0.291667 0.875000 0.287308 Ti
0.291667 0.375000 0.287308 Ti
0.791667 0.875000 0.287308 Ti
0.791667 0.375000 0.287308 Ti
0.041667 0.625000 0.323223 Ti
0.041667 0.125000 0.323223 Ti
0.541667 0.625000 0.323223 Ti
0.541667 0.125000 0.323223 Ti
0.041667 0.875000 0.179568 Ti
0.041667 0.375000 0.179568 Ti
0.541667 0.875000 0.179568 Ti
0.541667 0.375000 0.179568 Ti
0.291667 0.625000 0.215482 Ti
0.291667 0.125000 0.215482 Ti
0.791667 0.625000 0.215482 Ti
0.791667 0.125000 0.215482 Ti
0.291667 0.875000 0.071827 Ti
0.291667 0.375000 0.071827 Ti
0.791667 0.875000 0.071827 Ti
0.791667 0.375000 0.071827 Ti
0.041667 0.625000 0.107741 Ti
0.041667 0.125000 0.107741 Ti
0.541667 0.625000 0.107741 Ti
0.541667 0.125000 0.107741 Ti
0.791667 0.125000 0.000000 Ti
0.291667 0.125000 0.000000 Ti
0.791667 0.625000 -0.000000 Ti
0.291667 0.625000 -0.000000 Ti
