total_Ti
1.0
8.805261 0.000000 0.000000
-4.402631 7.625580 0.000000
0.000000 0.000000 20.883422
Ti
90
direct
0.222214 0.944436 0.597917 Ti
0.222214 0.444436 0.597917 Ti
0.722214 0.944436 0.597917 Ti
0.722214 0.444436 0.597917 Ti
0.388880 0.277769 0.907840 Ti
0.388880 0.777769 0.907840 Ti
0.888880 0.277769 0.907840 Ti
0.888880 0.777769 0.907840 Ti
0.555547 0.111102 0.952114 Ti
0.555547 0.611102 0.952114 Ti
0.055556 0.111102 0.952114 Ti
0.055556 0.611102 0.952114 Ti
0.388880 0.277769 0.642192 Ti
0.388880 0.777769 0.642192 Ti
0.888880 0.277769 0.642192 Ti
0.888880 0.777769 0.642192 Ti
0.555547 0.111102 0.686466 Ti
0.555547 0.611102 0.686466 Ti
0.055556 0.111102 0.686466 Ti
0.055556 0.611102 0.686466 Ti
0.222214 0.944436 0.730741 Ti
0.222214 0.444436 0.730741 Ti
0.722214 0.944436 0.730741 Ti
0.722214 0.444436 0.730741 Ti
0.388880 0.277769 0.775015 Ti
0.388880 0.777769 0.775015 Ti
0.888880 0.277769 0.775015 Ti
0.888880 0.777769 0.775015 Ti
0.555547 0.111102 0.819290 Ti
0.555547 0.611102 0.819290 Ti
0.055556 0.111102 0.819290 Ti
0.055556 0.611102 0.819290 Ti
0.222214 0.944436 0.863565 Ti
0.222214 0.444436 0.863565 Ti
0.722214 0.944436 0.863565 Ti
0.722214 0.444436 0.863565 Ti
0.166666 0.833342 -0.000000 Ti
0.166666 0.833342 0.440026 Ti
0.166666 0.500009 -0.000000 Ti
0.277778 0.722231 0.110006 Ti
0.166666 0.500009 0.440026 Ti
0.500000 0.833342 -0.000000 Ti
0.166666 0.166675 -0.000000 Ti
0.277778 0.722231 0.550032 Ti
0.277778 0.388897 0.110006 Ti
0.500000 0.833342 0.440026 Ti
0.166666 0.166675 0.440026 Ti
0.500000 0.500009 -0.000000 Ti
0.277778 0.388897 0.550032 Ti
0.611111 0.722231 0.110006 Ti
0.277778 0.055564 0.110006 Ti
0.500000 0.500009 0.440026 Ti
0.833333 0.833342 -0.000000 Ti
0.500000 0.166675 -0.000000 Ti
0.611111 0.722231 0.550032 Ti
0.277778 0.055564 0.550032 Ti
0.611111 0.388897 0.110006 Ti
0.833333 0.833342 0.440026 Ti
0.500000 0.166675 0.440026 Ti
0.833333 0.500009 -0.000000 Ti
0.611111 0.388897 0.550032 Ti
0.944444 0.722231 0.110006 Ti
0.611111 0.055564 0.110006 Ti
0.833333 0.500009 0.440026 Ti
0.833333 0.166675 -0.000000 Ti
0.944444 0.722231 0.550032 Ti
0.611111 0.055564 0.550032 Ti
0.944444 0.388897 0.110006 Ti
0.833333 0.166675 0.440026 Ti
0.944444 0.388897 0.550032 Ti
0.944445 0.055564 0.110006 Ti
0.944445 0.055564 0.550032 Ti
0.166666 0.833342 0.220013 Ti
0.166666 0.500009 0.220013 Ti
0.277778 0.722231 0.330019 Ti
0.500000 0.833342 0.220013 Ti
0.166666 0.166675 0.220013 Ti
0.277778 0.388897 0.330019 Ti
0.500000 0.500009 0.220013 Ti
0.611111 0.722231 0.330019 Ti
0.277778 0.055564 0.330019 Ti
0.833333 0.833342 0.220013 Ti
0.500000 0.166675 0.220013 Ti
0.611111 0.388897 0.330019 Ti
0.833333 0.500009 0.220013 Ti
0.944444 0.722231 0.330019 Ti
0.611111 0.055564 0.330019 Ti
0.833333 0.166675 0.220013 Ti
0.944444 0.388897 0.330019 Ti
0.944445 0.055564 0.330019 Ti
