beta_Ti
1.0
4.756512 0.000000 0.000000
0.000000 4.675432 0.000000
0.000000 0.000000 20.811800
Ti
12
direct
0.666667 0.750000 0.865463 Ti
0.166667 0.250000 0.865463 Ti
0.166667 0.750000 0.788514 Ti
0.666667 0.250000 0.788514 Ti
0.666667 0.750000 0.711565 Ti
0.166667 0.250000 0.711565 Ti
0.166667 0.750000 0.634616 Ti
0.666667 0.250000 0.634616 Ti
0.666667 0.750000 0.557667 Ti
0.166667 0.250000 0.557667 Ti
0.166667 0.750000 0.480718 Ti
0.666667 0.250000 0.480718 Ti
