Ti67
1.0
6.309760 0.000000 0.000000
0.000000 9.464640 0.000000
0.000000 0.000000 18.918326
Ti
67
Selective dynamics
direct
0.124908 0.041454 0.500038 F F F Ti
0.625132 0.041558 0.500028 F F F Ti
0.125000 0.041641 0.658601 F F F Ti
0.625045 0.041635 0.658607 F F F Ti
0.125001 0.041665 0.817161 F F F Ti
0.625004 0.041664 0.817162 F F F Ti
0.627062 0.375033 0.500400 F F F Ti
0.125013 0.374999 0.658583 F F F Ti
0.625073 0.375003 0.658635 F F F Ti
0.124998 0.375000 0.817158 F F F Ti
0.625006 0.375001 0.817164 F F F Ti
0.124917 0.708517 0.500036 F F F Ti
0.625109 0.708443 0.500026 F F F Ti
0.124996 0.708355 0.658596 F F F Ti
0.625036 0.708368 0.658604 F F F Ti
0.124998 0.708335 0.817159 F F F Ti
0.625002 0.708337 0.817162 F F F Ti
0.375172 0.208182 0.579419 F F F Ti
0.875133 0.208244 0.579334 F F F Ti
0.375002 0.208328 0.737884 F F F Ti
0.875012 0.208327 0.737878 F F F Ti
0.375000 0.208333 0.896444 F F F Ti
0.875000 0.208333 0.896443 F F F Ti
0.375167 0.541815 0.579415 F F F Ti
0.875139 0.541757 0.579334 F F F Ti
0.375001 0.541673 0.737884 F F F Ti
0.875012 0.541673 0.737878 F F F Ti
0.375000 0.541667 0.896444 F F F Ti
0.875000 0.541667 0.896443 F F F Ti
0.375025 0.875023 0.579307 F F F Ti
0.874982 0.875001 0.579315 F F F Ti
0.375002 0.875001 0.737878 F F F Ti
0.875002 0.874998 0.737879 F F F Ti
0.375001 0.875000 0.896444 F F F Ti
0.874999 0.875000 0.896444 F F F Ti
0.124546 0.625515 0.356644 F F F Ti
0.625056 0.625125 0.356771 F F F Ti
0.124997 0.625007 0.118921 F F F Ti
0.624989 0.625004 0.118922 F F F Ti
0.124534 0.124484 0.356641 F F F Ti
0.625082 0.124880 0.356768 F F F Ti
0.124997 0.124996 0.118920 F F F Ti
0.624991 0.124998 0.118921 F F F Ti
0.125000 0.375000 0.039638 F F F Ti
0.624996 0.375000 0.039638 F F F Ti
0.124999 0.875002 0.039639 F F F Ti
0.624996 0.875002 0.039639 F F F Ti
0.124717 0.375001 0.277359 F F F Ti
0.624887 0.375002 0.277479 F F F Ti
0.124985 0.875022 0.277470 F F F Ti
0.624967 0.875015 0.277493 F F F Ti
0.375007 0.875004 0.158564 F F F Ti
0.874982 0.875004 0.158559 F F F Ti
0.375004 0.375001 0.158563 F F F Ti
0.874942 0.375000 0.158546 F F F Ti
0.873437 0.375000 0.396260 F F F Ti
0.375027 0.875074 0.396441 F F F Ti
0.874915 0.875031 0.396441 F F F Ti
0.375005 0.625019 0.237845 F F F Ti
0.874904 0.625032 0.237820 F F F Ti
0.375000 0.625002 -0.000002 F F F Ti
0.874995 0.625002 -0.000003 F F F Ti
0.375005 0.124986 0.237844 F F F Ti
0.874903 0.124971 0.237820 F F F Ti
0.375000 0.124998 -0.000002 F F F Ti
0.874995 0.124998 -0.000003 F F F Ti
0.288898 0.374792 0.432732 T T T Ti

0.000000 0.000000 0.000000
0.000000 0.000000 0.000000
0.000000 0.000000 0.000000
0.000000 0.000000 0.000000
0.000000 0.000000 0.000000
0.000000 0.000000 0.000000
0.000000 0.000000 0.000000
0.000000 0.000000 0.000000
0.000000 0.000000 0.000000
0.000000 0.000000 0.000000
0.000000 0.000000 0.000000
0.000000 0.000000 0.000000
0.000000 0.000000 0.000000
0.000000 0.000000 0.000000
0.000000 0.000000 0.000000
0.000000 0.000000 0.000000
0.000000 0.000000 0.000000
0.000000 0.000000 0.000000
0.000000 0.000000 0.000000
0.000000 0.000000 0.000000
0.000000 0.000000 0.000000
0.000000 0.000000 0.000000
0.000000 0.000000 0.000000
0.000000 0.000000 0.000000
0.000000 0.000000 0.000000
0.000000 0.000000 0.000000
0.000000 0.000000 0.000000
0.000000 0.000000 0.000000
0.000000 0.000000 0.000000
0.000000 0.000000 0.000000
0.000000 0.000000 0.000000
0.000000 0.000000 0.000000
0.000000 0.000000 0.000000
0.000000 0.000000 0.000000
0.000000 0.000000 0.000000
0.000000 0.000000 0.000000
0.000000 0.000000 0.000000
0.000000 0.000000 0.000000
0.000000 0.000000 0.000000
0.000000 0.000000 0.000000
0.000000 0.000000 0.000000
0.000000 0.000000 0.000000
0.000000 0.000000 0.000000
0.000000 0.000000 0.000000
0.000000 0.000000 0.000000
0.000000 0.000000 0.000000
0.000000 0.000000 0.000000
0.000000 0.000000 0.000000
0.000000 0.000000 0.000000
0.000000 0.000000 0.000000
0.000000 0.000000 0.000000
0.000000 0.000000 0.000000
0.000000 0.000000 0.000000
0.000000 0.000000 0.000000
0.000000 0.000000 0.000000
0.000000 0.000000 0.000000
0.000000 0.000000 0.000000
0.000000 0.000000 0.000000
0.000000 0.000000 0.000000
0.000000 0.000000 0.000000
0.000000 0.000000 0.000000
0.000000 0.000000 0.000000
0.000000 0.000000 0.000000
0.000000 0.000000 0.000000
0.000000 0.000000 0.000000
0.000000 0.000000 0.000000
0.000000 0.000000 0.000000
