Ti66 Al1
1.0
6.309760 0.000000 0.000000
0.000000 9.464640 0.000000
0.000000 0.000000 18.918326
Ti Al
66 1
Selective dynamics
direct
0.124046 0.040579 0.500609 F F F Ti
0.625794 0.040684 0.500260 F F F Ti
0.124773 0.041263 0.658793 F F F Ti
0.624750 0.041250 0.658772 F F F Ti
0.124954 0.041542 0.817217 F F F Ti
0.624938 0.041545 0.817217 F F F Ti
0.117658 0.376069 0.502174 F F F Ti
0.625534 0.374846 0.500973 F F F Ti
0.124471 0.374902 0.659012 F F F Ti
0.624565 0.374860 0.658960 F F F Ti
0.124919 0.374970 0.817251 F F F Ti
0.624883 0.374964 0.817257 F F F Ti
0.125332 0.707055 0.499851 F F F Ti
0.623741 0.707437 0.499843 F F F Ti
0.124944 0.708194 0.658689 F F F Ti
0.624429 0.708306 0.658721 F F F Ti
0.124954 0.708326 0.817203 F F F Ti
0.624870 0.708343 0.817210 F F F Ti
0.374509 0.207923 0.579745 F F F Ti
0.873700 0.207572 0.579886 F F F Ti
0.374885 0.208148 0.738027 F F F Ti
0.874747 0.208134 0.738073 F F F Ti
0.374974 0.208274 0.896394 F F F Ti
0.874932 0.208282 0.896394 F F F Ti
0.374619 0.541448 0.579599 F F F Ti
0.873472 0.542294 0.579888 F F F Ti
0.374896 0.541644 0.738021 F F F Ti
0.874737 0.541713 0.738071 F F F Ti
0.374967 0.541674 0.896404 F F F Ti
0.874910 0.541677 0.896401 F F F Ti
0.374886 0.874488 0.579372 F F F Ti
0.874739 0.874202 0.579418 F F F Ti
0.374882 0.874859 0.737966 F F F Ti
0.874856 0.874807 0.737970 F F F Ti
0.375001 0.874969 0.896421 F F F Ti
0.874939 0.874965 0.896417 F F F Ti
0.123504 0.625373 0.356560 F F F Ti
0.623759 0.624745 0.356564 F F F Ti
0.124932 0.625229 0.118644 F F F Ti
0.624758 0.625152 0.118663 F F F Ti
0.637000 0.120803 0.355737 F F F Ti
0.125217 0.124916 0.118627 F F F Ti
0.625150 0.124811 0.118583 F F F Ti
0.125077 0.375013 0.039343 F F F Ti
0.624741 0.375001 0.039294 F F F Ti
0.125001 0.875040 0.039483 F F F Ti
0.624957 0.874984 0.039475 F F F Ti
0.117813 0.377264 0.274923 F F F Ti
0.627239 0.374830 0.276381 F F F Ti
0.125284 0.875270 0.277437 F F F Ti
0.625326 0.874092 0.277201 F F F Ti
0.375013 0.874835 0.158386 F F F Ti
0.875182 0.874940 0.158313 F F F Ti
0.375058 0.375033 0.158126 F F F Ti
0.873790 0.375152 0.157594 F F F Ti
0.868198 0.376413 0.396571 F F F Ti
0.375317 0.874727 0.396409 F F F Ti
0.875931 0.873837 0.396561 F F F Ti
0.374612 0.625013 0.237630 F F F Ti
0.873985 0.625783 0.237439 F F F Ti
0.374927 0.625109 -0.000127 F F F Ti
0.874892 0.625119 -0.000146 F F F Ti
0.376111 0.124509 0.237293 F F F Ti
0.876014 0.124630 0.237132 F F F Ti
0.375003 0.124881 -0.000137 F F F Ti
0.874979 0.124879 -0.000152 F F F Ti
0.317526 0.302377 0.383956 T T T Al

0.000000 0.000000 0.000000
0.000000 0.000000 0.000000
0.000000 0.000000 0.000000
0.000000 0.000000 0.000000
0.000000 0.000000 0.000000
0.000000 0.000000 0.000000
0.000000 0.000000 0.000000
0.000000 0.000000 0.000000
0.000000 0.000000 0.000000
0.000000 0.000000 0.000000
0.000000 0.000000 0.000000
0.000000 0.000000 0.000000
0.000000 0.000000 0.000000
0.000000 0.000000 0.000000
0.000000 0.000000 0.000000
0.000000 0.000000 0.000000
0.000000 0.000000 0.000000
0.000000 0.000000 0.000000
0.000000 0.000000 0.000000
0.000000 0.000000 0.000000
0.000000 0.000000 0.000000
0.000000 0.000000 0.000000
0.000000 0.000000 0.000000
0.000000 0.000000 0.000000
0.000000 0.000000 0.000000
0.000000 0.000000 0.000000
0.000000 0.000000 0.000000
0.000000 0.000000 0.000000
0.000000 0.000000 0.000000
0.000000 0.000000 0.000000
0.000000 0.000000 0.000000
0.000000 0.000000 0.000000
0.000000 0.000000 0.000000
0.000000 0.000000 0.000000
0.000000 0.000000 0.000000
0.000000 0.000000 0.000000
0.000000 0.000000 0.000000
0.000000 0.000000 0.000000
0.000000 0.000000 0.000000
0.000000 0.000000 0.000000
0.000000 0.000000 0.000000
0.000000 0.000000 0.000000
0.000000 0.000000 0.000000
0.000000 0.000000 0.000000
0.000000 0.000000 0.000000
0.000000 0.000000 0.000000
0.000000 0.000000 0.000000
0.000000 0.000000 0.000000
0.000000 0.000000 0.000000
0.000000 0.000000 0.000000
0.000000 0.000000 0.000000
0.000000 0.000000 0.000000
0.000000 0.000000 0.000000
0.000000 0.000000 0.000000
0.000000 0.000000 0.000000
0.000000 0.000000 0.000000
0.000000 0.000000 0.000000
0.000000 0.000000 0.000000
0.000000 0.000000 0.000000
0.000000 0.000000 0.000000
0.000000 0.000000 0.000000
0.000000 0.000000 0.000000
0.000000 0.000000 0.000000
0.000000 0.000000 0.000000
0.000000 0.000000 0.000000
0.000000 0.000000 0.000000
0.000000 0.000000 0.000000
