Ti82 Mo1
1.0
6.391540 0.000000 0.000000
0.000000 9.587310 0.000000
0.000000 0.000000 23.271695
Ti Mo
82 1
Selective dynamics
direct
0.632120 0.083243 0.581826 F F F Ti
0.125258 0.083344 0.709494 F F F Ti
0.625342 0.083340 0.709664 F F F Ti
0.125029 0.083337 0.838413 F F F Ti
0.625042 0.083337 0.838435 F F F Ti
0.125026 0.417208 0.580733 F F F Ti
0.625511 0.417063 0.580714 F F F Ti
0.125215 0.416733 0.709574 F F F Ti
0.625156 0.416731 0.709582 F F F Ti
0.125033 0.416669 0.838432 F F F Ti
0.625027 0.416669 0.838435 F F F Ti
0.124948 0.749539 0.580741 F F F Ti
0.625492 0.749641 0.580720 F F F Ti
0.125176 0.749951 0.709581 F F F Ti
0.625152 0.749948 0.709590 F F F Ti
0.125023 0.750001 0.838433 F F F Ti
0.625023 0.749998 0.838436 F F F Ti
0.375553 0.250179 0.645154 F F F Ti
0.876153 0.250388 0.645187 F F F Ti
0.375046 0.250012 0.773985 F F F Ti
0.875166 0.250018 0.773995 F F F Ti
0.375006 0.249995 0.902859 F F F Ti
0.875029 0.249995 0.902863 F F F Ti
0.375177 0.583408 0.645129 F F F Ti
0.875077 0.583304 0.645188 F F F Ti
0.375052 0.583333 0.774001 F F F Ti
0.875069 0.583315 0.774012 F F F Ti
0.375005 0.583331 0.902867 F F F Ti
0.875014 0.583328 0.902870 F F F Ti
0.375530 0.916531 0.645153 F F F Ti
0.876148 0.916285 0.645197 F F F Ti
0.375037 0.916666 0.773982 F F F Ti
0.875159 0.916652 0.773995 F F F Ti
0.374999 0.916669 0.902854 F F F Ti
0.875025 0.916667 0.902859 F F F Ti
0.123253 0.167243 0.386268 F F F Ti
0.624273 0.166699 0.386812 F F F Ti
0.124862 0.666317 0.386476 F F F Ti
0.625110 0.666556 0.386594 F F F Ti
0.125009 0.166657 -0.000028 F F F Ti
0.624979 0.166658 -0.000027 F F F Ti
0.125007 0.666688 -0.000021 F F F Ti
0.624985 0.666687 -0.000021 F F F Ti
0.125000 0.833343 0.096656 F F F Ti
0.624995 0.833344 0.096656 F F F Ti
0.121255 0.829796 0.483190 F F F Ti
0.626929 0.831885 0.483389 F F F Ti
0.124999 0.333328 0.096654 F F F Ti
0.624990 0.333326 0.096653 F F F Ti
0.120532 0.337391 0.483085 F F F Ti
0.626628 0.334775 0.483396 F F F Ti
0.375330 0.583697 0.483393 F F F Ti
0.874122 0.583450 0.483379 F F F Ti
0.375002 0.583336 0.096651 F F F Ti
0.874997 0.583335 0.096649 F F F Ti
0.374997 0.083335 0.096662 F F F Ti
0.874990 0.083338 0.096660 F F F Ti
0.873435 0.083366 0.483328 F F F Ti
0.374970 0.416850 0.386641 F F F Ti
0.874318 0.416881 0.386466 F F F Ti
0.374724 0.916076 0.386538 F F F Ti
0.874693 0.916687 0.386643 F F F Ti
0.374991 0.416654 -0.000025 F F F Ti
0.875017 0.416655 -0.000021 F F F Ti
0.374991 0.916680 -0.000023 F F F Ti
0.875022 0.916678 -0.000019 F F F Ti
0.374915 0.083326 0.290026 F F F Ti
0.874686 0.083317 0.289985 F F F Ti
0.124978 0.166653 0.193327 F F F Ti
0.624941 0.166656 0.193329 F F F Ti
0.124942 0.333462 0.289907 F F F Ti
0.624767 0.333290 0.289978 F F F Ti
0.374998 0.416669 0.193309 F F F Ti
0.874927 0.416656 0.193306 F F F Ti
0.375055 0.583359 0.289954 F F F Ti
0.874886 0.583365 0.289913 F F F Ti
0.124986 0.666664 0.193306 F F F Ti
0.624961 0.666673 0.193305 F F F Ti
0.124853 0.833310 0.289960 F F F Ti
0.624985 0.833319 0.289971 F F F Ti
0.374974 0.916671 0.193333 F F F Ti
0.874960 0.916672 0.193325 F F F Ti
0.334786 0.090479 0.500031 T T T Mo

0.000000 0.000000 0.000000
0.000000 0.000000 0.000000
0.000000 0.000000 0.000000
0.000000 0.000000 0.000000
0.000000 0.000000 0.000000
0.000000 0.000000 0.000000
0.000000 0.000000 0.000000
0.000000 0.000000 0.000000
0.000000 0.000000 0.000000
0.000000 0.000000 0.000000
0.000000 0.000000 0.000000
0.000000 0.000000 0.000000
0.000000 0.000000 0.000000
0.000000 0.000000 0.000000
0.000000 0.000000 0.000000
0.000000 0.000000 0.000000
0.000000 0.000000 0.000000
0.000000 0.000000 0.000000
0.000000 0.000000 0.000000
0.000000 0.000000 0.000000
0.000000 0.000000 0.000000
0.000000 0.000000 0.000000
0.000000 0.000000 0.000000
0.000000 0.000000 0.000000
0.000000 0.000000 0.000000
0.000000 0.000000 0.000000
0.000000 0.000000 0.000000
0.000000 0.000000 0.000000
0.000000 0.000000 0.000000
0.000000 0.000000 0.000000
0.000000 0.000000 0.000000
0.000000 0.000000 0.000000
0.000000 0.000000 0.000000
0.000000 0.000000 0.000000
0.000000 0.000000 0.000000
0.000000 0.000000 0.000000
0.000000 0.000000 0.000000
0.000000 0.000000 0.000000
0.000000 0.000000 0.000000
0.000000 0.000000 0.000000
0.000000 0.000000 0.000000
0.000000 0.000000 0.000000
0.000000 0.000000 0.000000
0.000000 0.000000 0.000000
0.000000 0.000000 0.000000
0.000000 0.000000 0.000000
0.000000 0.000000 0.000000
0.000000 0.000000 0.000000
0.000000 0.000000 0.000000
0.000000 0.000000 0.000000
0.000000 0.000000 0.000000
0.000000 0.000000 0.000000
0.000000 0.000000 0.000000
0.000000 0.000000 0.000000
0.000000 0.000000 0.000000
0.000000 0.000000 0.000000
0.000000 0.000000 0.000000
0.000000 0.000000 0.000000
0.000000 0.000000 0.000000
0.000000 0.000000 0.000000
0.000000 0.000000 0.000000
0.000000 0.000000 0.000000
0.000000 0.000000 0.000000
0.000000 0.000000 0.000000
0.000000 0.000000 0.000000
0.000000 0.000000 0.000000
0.000000 0.000000 0.000000
0.000000 0.000000 0.000000
0.000000 0.000000 0.000000
0.000000 0.000000 0.000000
0.000000 0.000000 0.000000
0.000000 0.000000 0.000000
0.000000 0.000000 0.000000
0.000000 0.000000 0.000000
0.000000 0.000000 0.000000
0.000000 0.000000 0.000000
0.000000 0.000000 0.000000
0.000000 0.000000 0.000000
0.000000 0.000000 0.000000
0.000000 0.000000 0.000000
0.000000 0.000000 0.000000
0.000000 0.000000 0.000000
0.000000 0.000000 0.000000
