substance_top
1.0
   3.5061499999999999    0.0000000000000000    0.0000000000000002
   0.0000000000000019   12.0001999999999995    0.0000000000000007
   0.0000000000000000    0.0000000000000000   32.8716049619999993
Fe
36
Selective dynamics
direct
   0.9933200000000000    0.7184400000000000    0.6957834908712176 F F F Fe
   0.4933200000000000    0.5543100000000000    0.6852227467456629 F F F Fe
   0.4933200000000000    0.7391600000000000    0.6528942720871093 F F F Fe
   0.9933200000000000    0.5750200000000000    0.6423335279615545 F F F Fe
   0.9933200000000001    0.3901700000000000    0.6746538223380588 F F F Fe
   0.4933200000000000    0.2260400000000000    0.6640930782125040 F F F Fe
   0.4933200000000000    0.4108899999999999    0.6317646035539504 F F F Fe
   0.9933200000000001    0.2467500000000000    0.6212038594283956 F F F Fe
   0.9933200000000000    0.0619000000000000    0.6535241538048999 F F F Fe
   0.4933200000000000    0.8977699999999998    0.6429634096793452 F F F Fe
   0.4933200000000000    0.0826200000000000    0.6106349350207916 F F F Fe
   0.9933200000000000    0.9184800000000000    0.6000741908952367 F F F Fe
   0.9933200000000000    0.7598700000000000    0.6100132335850501 F F F Fe
   0.4933200000000000    0.5957300000000000    0.5994443091774462 F F F Fe
   0.4933200000000000    0.7805800000000001    0.5671240148009419 F F F Fe
   0.9933200000000001    0.6164500000000001    0.5565550903933377 F F F Fe
   0.9933200000000001    0.4315999999999999    0.5888835650518913 F F F Fe
   0.4933200000000000    0.2674600000000000    0.5783146406442873 F F F Fe
   0.4933200000000000    0.4523100000000000    0.5459943462677830 F F F Fe
   0.9933200000000001    0.2881800000000000    0.5354254218601789 F F F Fe
   0.9933199999999999    0.1033300000000000    0.5677538965187325 F F F Fe
   0.4933200000000000    0.9391999999999999    0.5571849721111284 F F F Fe
   0.4933200000000000    0.1240400000000000    0.5248646777346241 F F F Fe
   0.9933200000000000    0.9599100000000000    0.5142957533270200 F F F Fe
   0.9933200000000000    0.8013000000000000    0.5242347960168334 F F F Fe
   0.4933200000000000    0.6371599999999998    0.5136740518912787 F F F Fe
   0.4933200000000000    0.8220099999999999    0.4813455772327251 F F F Fe
   0.9933200000000001    0.6578799999999999    0.4707848331071703 F F F Fe
   0.9933200000000001    0.4730300000000000    0.5031051274836745 F F F Fe
   0.4933200000000000    0.3088900000000000    0.4925443833581198 F F F Fe
   0.4933200000000000    0.4937400000000000    0.4602159086995662 F F F Fe
   0.9933200000000000    0.3296100000000000    0.4496551645740115 F F F Fe
   0.9933200000000001    0.1447600000000000    0.4819754589505157 F F F Fe
   0.4933200000000000    0.9806200000000000    0.4714147148249609 F F F Fe
   0.4933200000000000    0.1654700000000000    0.4390862401664073 F F F Fe
   0.9933200000000000    0.0013400000000000    0.4285254960408526 F F F Fe
