total_Ti
1.0
8.805261 0.000000 0.000000
-4.402630 7.625580 0.000000
0.000000 0.000000 30.288801
Ti
72
direct
0.055556 0.944452 0.491665 Ti
0.055556 0.444452 0.491665 Ti
0.555556 0.944452 0.491665 Ti
0.555556 0.444452 0.491665 Ti
0.222223 0.277785 0.705349 Ti
0.222223 0.777785 0.705349 Ti
0.722223 0.277785 0.705349 Ti
0.722223 0.777785 0.705349 Ti
0.388889 0.111119 0.735875 Ti
0.388889 0.611119 0.735875 Ti
0.888889 0.111119 0.735875 Ti
0.888889 0.611119 0.735875 Ti
0.222223 0.277785 0.522191 Ti
0.222223 0.777785 0.522191 Ti
0.722223 0.277785 0.522191 Ti
0.722223 0.777785 0.522191 Ti
0.388889 0.111119 0.552717 Ti
0.388889 0.611119 0.552717 Ti
0.888889 0.111119 0.552717 Ti
0.888889 0.611119 0.552717 Ti
0.055556 0.944452 0.583244 Ti
0.055556 0.444452 0.583244 Ti
0.555556 0.944452 0.583244 Ti
0.555556 0.444452 0.583244 Ti
0.222223 0.277785 0.613770 Ti
0.222223 0.777785 0.613770 Ti
0.722223 0.277785 0.613770 Ti
0.722223 0.777785 0.613770 Ti
0.388889 0.111119 0.644296 Ti
0.388889 0.611119 0.644296 Ti
0.888889 0.111119 0.644296 Ti
0.888889 0.611119 0.644296 Ti
0.055556 0.944452 0.674823 Ti
0.055556 0.444452 0.674823 Ti
0.555556 0.944452 0.674823 Ti
0.555556 0.444452 0.674823 Ti
0.111111 0.888889 -0.000000 Ti
0.111111 0.888889 0.151694 Ti
0.111111 0.555556 -0.000000 Ti
0.222222 0.777778 0.075847 Ti
0.111111 0.555556 0.151694 Ti
0.444444 0.888889 -0.000000 Ti
0.111111 0.222222 -0.000000 Ti
0.222222 0.777778 0.227541 Ti
0.222222 0.444444 0.075847 Ti
0.444444 0.888889 0.151694 Ti
0.111111 0.222222 0.151694 Ti
0.444444 0.555556 -0.000000 Ti
0.222222 0.444444 0.227541 Ti
0.555556 0.777778 0.075847 Ti
0.222222 0.111111 0.075847 Ti
0.444444 0.555556 0.151694 Ti
0.777778 0.888889 -0.000000 Ti
0.444444 0.222222 -0.000000 Ti
0.555556 0.777778 0.227541 Ti
0.222222 0.111111 0.227541 Ti
0.555556 0.444444 0.075847 Ti
0.777778 0.888889 0.151694 Ti
0.444444 0.222222 0.151694 Ti
0.777778 0.555556 -0.000000 Ti
0.555556 0.444444 0.227541 Ti
0.888889 0.777778 0.075847 Ti
0.555556 0.111111 0.075847 Ti
0.777778 0.555556 0.151694 Ti
0.777778 0.222222 -0.000000 Ti
0.888889 0.777778 0.227541 Ti
0.555556 0.111111 0.227541 Ti
0.888889 0.444444 0.075847 Ti
0.777778 0.222222 0.151694 Ti
0.888889 0.444444 0.227541 Ti
0.888889 0.111111 0.075847 Ti
0.888889 0.111111 0.227541 Ti
