Ti66 Mo1
1.0
6.309760 0.000000 0.000000
0.000000 9.464640 0.000000
0.000000 0.000000 18.918326
Ti Mo
66 1
Selective dynamics
direct
0.146807 0.025414 0.497164 T T T Ti
0.600903 0.023876 0.497273 T T T Ti
0.131543 0.052141 0.644819 T T T Ti
0.617495 0.051852 0.645116 T T T Ti
0.125239 0.042013 0.817455 F F F Ti
0.624794 0.041996 0.817495 F F F Ti
0.143692 0.387768 0.482443 T T T Ti
0.610756 0.395655 0.483276 T T T Ti
0.136699 0.350226 0.639823 T T T Ti
0.612781 0.350788 0.640331 T T T Ti
0.125081 0.374879 0.817631 F F F Ti
0.624820 0.374840 0.817699 F F F Ti
0.138107 0.694096 0.486399 T T T Ti
0.610785 0.695058 0.486445 T T T Ti
0.103834 0.698493 0.654963 T T T Ti
0.645753 0.698659 0.655056 T T T Ti
0.125047 0.708639 0.817763 F F F Ti
0.624974 0.708704 0.817792 F F F Ti
0.869294 0.206344 0.538807 T T T Ti
0.374941 0.208823 0.738651 F F F Ti
0.874882 0.208481 0.738018 F F F Ti
0.375036 0.208369 0.896710 F F F Ti
0.875048 0.208335 0.896572 F F F Ti
0.374650 0.543705 0.574763 T T T Ti
0.875287 0.523024 0.559673 T T T Ti
0.375073 0.541514 0.738883 F F F Ti
0.874771 0.540931 0.739019 F F F Ti
0.375039 0.541611 0.896761 F F F Ti
0.874815 0.541567 0.896767 F F F Ti
0.374587 0.849435 0.577794 T T T Ti
0.874179 0.862953 0.565351 T T T Ti
0.374936 0.875349 0.738597 F F F Ti
0.875050 0.876285 0.738455 F F F Ti
0.375046 0.875261 0.896758 F F F Ti
0.875028 0.875315 0.896696 F F F Ti
0.133478 0.625162 0.362360 T T T Ti
0.615835 0.626006 0.362154 T T T Ti
0.125292 0.624933 0.118743 F F F Ti
0.624571 0.624921 0.118720 F F F Ti
0.117636 0.140341 0.368890 T T T Ti
0.632791 0.139743 0.368289 T T T Ti
0.125030 0.124892 0.118652 F F F Ti
0.624559 0.124937 0.118560 F F F Ti
0.125032 0.374921 0.039601 F F F Ti
0.624871 0.374946 0.039600 F F F Ti
0.124970 0.874957 0.039524 F F F Ti
0.624732 0.874940 0.039491 F F F Ti
0.141266 0.380212 0.280499 T T T Ti
0.608449 0.380655 0.280211 T T T Ti
0.104881 0.882513 0.280424 T T T Ti
0.643965 0.882306 0.280300 T T T Ti
0.374821 0.874767 0.158191 F F F Ti
0.874554 0.874421 0.157945 F F F Ti
0.375012 0.374670 0.158296 F F F Ti
0.875300 0.375176 0.158118 F F F Ti
0.873351 0.393160 0.393316 T T T Ti
0.373444 0.877646 0.392964 T T T Ti
0.872793 0.878508 0.408727 T T T Ti
0.374789 0.635155 0.245059 T T T Ti
0.875081 0.621124 0.245847 T T T Ti
0.374920 0.624899 0.000210 F F F Ti
0.874999 0.624977 0.000167 F F F Ti
0.374514 0.121955 0.248264 T T T Ti
0.873471 0.136057 0.247700 T T T Ti
0.374899 0.125017 0.000182 F F F Ti
0.874979 0.125037 0.000069 F F F Ti
0.393943 0.222566 0.454784 T T T Mo

0.000000 0.000000 0.000000
0.000000 0.000000 0.000000
0.000000 0.000000 0.000000
0.000000 0.000000 0.000000
0.000000 0.000000 0.000000
0.000000 0.000000 0.000000
0.000000 0.000000 0.000000
0.000000 0.000000 0.000000
0.000000 0.000000 0.000000
0.000000 0.000000 0.000000
0.000000 0.000000 0.000000
0.000000 0.000000 0.000000
0.000000 0.000000 0.000000
0.000000 0.000000 0.000000
0.000000 0.000000 0.000000
0.000000 0.000000 0.000000
0.000000 0.000000 0.000000
0.000000 0.000000 0.000000
0.000000 0.000000 0.000000
0.000000 0.000000 0.000000
0.000000 0.000000 0.000000
0.000000 0.000000 0.000000
0.000000 0.000000 0.000000
0.000000 0.000000 0.000000
0.000000 0.000000 0.000000
0.000000 0.000000 0.000000
0.000000 0.000000 0.000000
0.000000 0.000000 0.000000
0.000000 0.000000 0.000000
0.000000 0.000000 0.000000
0.000000 0.000000 0.000000
0.000000 0.000000 0.000000
0.000000 0.000000 0.000000
0.000000 0.000000 0.000000
0.000000 0.000000 0.000000
0.000000 0.000000 0.000000
0.000000 0.000000 0.000000
0.000000 0.000000 0.000000
0.000000 0.000000 0.000000
0.000000 0.000000 0.000000
0.000000 0.000000 0.000000
0.000000 0.000000 0.000000
0.000000 0.000000 0.000000
0.000000 0.000000 0.000000
0.000000 0.000000 0.000000
0.000000 0.000000 0.000000
0.000000 0.000000 0.000000
0.000000 0.000000 0.000000
0.000000 0.000000 0.000000
0.000000 0.000000 0.000000
0.000000 0.000000 0.000000
0.000000 0.000000 0.000000
0.000000 0.000000 0.000000
0.000000 0.000000 0.000000
0.000000 0.000000 0.000000
0.000000 0.000000 0.000000
0.000000 0.000000 0.000000
0.000000 0.000000 0.000000
0.000000 0.000000 0.000000
0.000000 0.000000 0.000000
0.000000 0.000000 0.000000
0.000000 0.000000 0.000000
0.000000 0.000000 0.000000
0.000000 0.000000 0.000000
0.000000 0.000000 0.000000
0.000000 0.000000 0.000000
0.000000 0.000000 0.000000
