Ti66 Al1
1.0
6.309760 0.000000 0.000000
0.000000 9.464640 0.000000
0.000000 0.000000 18.918326
Ti Al
66 1
Selective dynamics
direct
0.119062 0.038656 0.497988 F F F Ti
0.626135 0.040373 0.499535 F F F Ti
0.631467 0.039322 0.659736 F F F Ti
0.125009 0.041668 0.817269 F F F Ti
0.625543 0.041424 0.817523 F F F Ti
0.123212 0.375701 0.499715 F F F Ti
0.624001 0.374995 0.499993 F F F Ti
0.121274 0.378321 0.659581 F F F Ti
0.625751 0.375810 0.659081 F F F Ti
0.124719 0.375335 0.817504 F F F Ti
0.625479 0.375415 0.817572 F F F Ti
0.124612 0.707645 0.499823 F F F Ti
0.625131 0.707632 0.499775 F F F Ti
0.124884 0.708405 0.658648 F F F Ti
0.625207 0.707958 0.658751 F F F Ti
0.125093 0.708453 0.817321 F F F Ti
0.624989 0.708472 0.817378 F F F Ti
0.869389 0.209001 0.579015 F F F Ti
0.376644 0.209258 0.739549 F F F Ti
0.874915 0.208649 0.738204 F F F Ti
0.375016 0.208394 0.896696 F F F Ti
0.875013 0.208349 0.896597 F F F Ti
0.374704 0.541590 0.579379 F F F Ti
0.874091 0.542052 0.579240 F F F Ti
0.375119 0.542125 0.738159 F F F Ti
0.874376 0.542319 0.738275 F F F Ti
0.375003 0.541812 0.896603 F F F Ti
0.874973 0.541823 0.896632 F F F Ti
0.376178 0.872141 0.578935 F F F Ti
0.874804 0.874202 0.579217 F F F Ti
0.375244 0.874879 0.738000 F F F Ti
0.876051 0.874632 0.738113 F F F Ti
0.374972 0.875000 0.896559 F F F Ti
0.875149 0.874967 0.896582 F F F Ti
0.124993 0.624696 0.356748 F F F Ti
0.624668 0.624667 0.356734 F F F Ti
0.125007 0.624961 0.118975 F F F Ti
0.624955 0.624961 0.118974 F F F Ti
0.124841 0.124989 0.356481 F F F Ti
0.624788 0.124927 0.356647 F F F Ti
0.124983 0.124988 0.118968 F F F Ti
0.624952 0.124990 0.118964 F F F Ti
0.124966 0.375009 0.039702 F F F Ti
0.624991 0.375017 0.039713 F F F Ti
0.124982 0.874983 0.039682 F F F Ti
0.624997 0.874972 0.039690 F F F Ti
0.124928 0.374979 0.277453 F F F Ti
0.624847 0.374956 0.277448 F F F Ti
0.124959 0.874858 0.277385 F F F Ti
0.624858 0.874879 0.277369 F F F Ti
0.374993 0.874950 0.158550 F F F Ti
0.874957 0.874948 0.158544 F F F Ti
0.374993 0.374985 0.158576 F F F Ti
0.874987 0.374994 0.158568 F F F Ti
0.374715 0.374781 0.396428 F F F Ti
0.874348 0.374974 0.396286 F F F Ti
0.375108 0.874561 0.396196 F F F Ti
0.874263 0.874257 0.396017 F F F Ti
0.374973 0.624898 0.237852 F F F Ti
0.874953 0.624900 0.237840 F F F Ti
0.374992 0.625025 0.000094 F F F Ti
0.874995 0.625027 0.000108 F F F Ti
0.375005 0.124969 0.237807 F F F Ti
0.874865 0.124974 0.237781 F F F Ti
0.374988 0.124944 0.000126 F F F Ti
0.874970 0.124974 0.000092 F F F Ti
0.308077 0.163881 0.600169 T T T Al

0.000000 0.000000 0.000000
0.000000 0.000000 0.000000
0.000000 0.000000 0.000000
0.000000 0.000000 0.000000
0.000000 0.000000 0.000000
0.000000 0.000000 0.000000
0.000000 0.000000 0.000000
0.000000 0.000000 0.000000
0.000000 0.000000 0.000000
0.000000 0.000000 0.000000
0.000000 0.000000 0.000000
0.000000 0.000000 0.000000
0.000000 0.000000 0.000000
0.000000 0.000000 0.000000
0.000000 0.000000 0.000000
0.000000 0.000000 0.000000
0.000000 0.000000 0.000000
0.000000 0.000000 0.000000
0.000000 0.000000 0.000000
0.000000 0.000000 0.000000
0.000000 0.000000 0.000000
0.000000 0.000000 0.000000
0.000000 0.000000 0.000000
0.000000 0.000000 0.000000
0.000000 0.000000 0.000000
0.000000 0.000000 0.000000
0.000000 0.000000 0.000000
0.000000 0.000000 0.000000
0.000000 0.000000 0.000000
0.000000 0.000000 0.000000
0.000000 0.000000 0.000000
0.000000 0.000000 0.000000
0.000000 0.000000 0.000000
0.000000 0.000000 0.000000
0.000000 0.000000 0.000000
0.000000 0.000000 0.000000
0.000000 0.000000 0.000000
0.000000 0.000000 0.000000
0.000000 0.000000 0.000000
0.000000 0.000000 0.000000
0.000000 0.000000 0.000000
0.000000 0.000000 0.000000
0.000000 0.000000 0.000000
0.000000 0.000000 0.000000
0.000000 0.000000 0.000000
0.000000 0.000000 0.000000
0.000000 0.000000 0.000000
0.000000 0.000000 0.000000
0.000000 0.000000 0.000000
0.000000 0.000000 0.000000
0.000000 0.000000 0.000000
0.000000 0.000000 0.000000
0.000000 0.000000 0.000000
0.000000 0.000000 0.000000
0.000000 0.000000 0.000000
0.000000 0.000000 0.000000
0.000000 0.000000 0.000000
0.000000 0.000000 0.000000
0.000000 0.000000 0.000000
0.000000 0.000000 0.000000
0.000000 0.000000 0.000000
0.000000 0.000000 0.000000
0.000000 0.000000 0.000000
0.000000 0.000000 0.000000
0.000000 0.000000 0.000000
0.000000 0.000000 0.000000
0.000000 0.000000 0.000000
