total_Ti
1.0
8.805261 0.000000 0.000000
-4.402631 7.625580 0.000000
0.000000 0.000000 24.883422
Ti
90
direct
0.055556 0.055556 0.582177 Ti
0.055556 0.555555 0.582177 Ti
0.555556 0.055556 0.582177 Ti
0.555556 0.555555 0.582177 Ti
0.222222 0.388889 0.842280 Ti
0.222222 0.888889 0.842280 Ti
0.722222 0.388889 0.842280 Ti
0.722222 0.888889 0.842280 Ti
0.388889 0.222222 0.879437 Ti
0.388889 0.722222 0.879437 Ti
0.888889 0.222222 0.879437 Ti
0.888889 0.722222 0.879437 Ti
0.222222 0.388889 0.619334 Ti
0.222222 0.888889 0.619334 Ti
0.722222 0.388889 0.619334 Ti
0.722222 0.888889 0.619334 Ti
0.388889 0.222222 0.656492 Ti
0.388889 0.722222 0.656492 Ti
0.888889 0.222222 0.656492 Ti
0.888889 0.722222 0.656492 Ti
0.055556 0.055556 0.693649 Ti
0.055556 0.555555 0.693649 Ti
0.555556 0.055556 0.693649 Ti
0.555556 0.555555 0.693649 Ti
0.222222 0.388889 0.730807 Ti
0.222222 0.888889 0.730807 Ti
0.722222 0.388889 0.730807 Ti
0.722222 0.888889 0.730807 Ti
0.388889 0.222222 0.767964 Ti
0.388889 0.722222 0.767964 Ti
0.888889 0.222222 0.767964 Ti
0.888889 0.722222 0.767964 Ti
0.055556 0.055556 0.805122 Ti
0.055556 0.555555 0.805122 Ti
0.555556 0.055556 0.805122 Ti
0.555556 0.555555 0.805122 Ti
0.166666 0.944444 -0.000000 Ti
0.166666 0.944444 0.369292 Ti
0.166666 0.611111 -0.000000 Ti
0.277778 0.833333 0.092323 Ti
0.166666 0.611111 0.369292 Ti
0.500000 0.944444 -0.000000 Ti
0.166666 0.277778 -0.000000 Ti
0.277778 0.833333 0.461615 Ti
0.277778 0.500000 0.092323 Ti
0.500000 0.944444 0.369292 Ti
0.166666 0.277778 0.369292 Ti
0.500000 0.611111 -0.000000 Ti
0.277778 0.500000 0.461615 Ti
0.611111 0.833333 0.092323 Ti
0.277778 0.166667 0.092323 Ti
0.500000 0.611111 0.369292 Ti
0.833333 0.944444 -0.000000 Ti
0.500000 0.277778 -0.000000 Ti
0.611111 0.833333 0.461615 Ti
0.277778 0.166667 0.461615 Ti
0.611111 0.500000 0.092323 Ti
0.833333 0.944444 0.369292 Ti
0.500000 0.277778 0.369292 Ti
0.833333 0.611111 -0.000000 Ti
0.611111 0.500000 0.461615 Ti
0.944444 0.833333 0.092323 Ti
0.611111 0.166667 0.092323 Ti
0.833333 0.611111 0.369292 Ti
0.833333 0.277778 -0.000000 Ti
0.944444 0.833333 0.461615 Ti
0.611111 0.166667 0.461615 Ti
0.944444 0.500000 0.092323 Ti
0.833333 0.277778 0.369292 Ti
0.944444 0.500000 0.461615 Ti
0.944444 0.166667 0.092323 Ti
0.944444 0.166667 0.461615 Ti
0.166666 0.944444 0.184646 Ti
0.166666 0.611111 0.184646 Ti
0.277778 0.833333 0.276969 Ti
0.500000 0.944444 0.184646 Ti
0.166666 0.277778 0.184646 Ti
0.277778 0.500000 0.276969 Ti
0.500000 0.611111 0.184646 Ti
0.611111 0.833333 0.276969 Ti
0.277778 0.166667 0.276969 Ti
0.833333 0.944444 0.184646 Ti
0.500000 0.277778 0.184646 Ti
0.611111 0.500000 0.276969 Ti
0.833333 0.611111 0.184646 Ti
0.944444 0.833333 0.276969 Ti
0.611111 0.166667 0.276969 Ti
0.833333 0.277778 0.184646 Ti
0.944444 0.500000 0.276969 Ti
0.944444 0.166667 0.276969 Ti
