Ti66 Sn1
1.0
6.309760 0.000000 0.000000
0.000000 9.464640 0.000000
0.000000 0.000000 18.918326
Ti Sn
66 1
Selective dynamics
direct
0.630566 0.041675 0.500437 F F F Ti
0.626468 0.041711 0.659418 F F F Ti
0.125068 0.041700 0.817217 F F F Ti
0.625057 0.041700 0.817493 F F F Ti
0.125433 0.376914 0.500302 F F F Ti
0.625717 0.377284 0.499436 F F F Ti
0.125651 0.375780 0.659092 F F F Ti
0.625226 0.377614 0.660027 F F F Ti
0.125173 0.374888 0.817547 F F F Ti
0.625044 0.375014 0.817720 F F F Ti
0.125214 0.706358 0.500199 F F F Ti
0.625458 0.706282 0.499276 F F F Ti
0.125477 0.707582 0.659197 F F F Ti
0.624908 0.706050 0.660136 F F F Ti
0.125098 0.708488 0.817616 F F F Ti
0.625025 0.708425 0.817787 F F F Ti
0.386592 0.214226 0.580764 F F F Ti
0.862093 0.216437 0.581416 F F F Ti
0.375101 0.208349 0.738141 F F F Ti
0.875304 0.208576 0.738344 F F F Ti
0.374939 0.208224 0.896644 F F F Ti
0.875152 0.208248 0.896678 F F F Ti
0.375769 0.542028 0.579650 F F F Ti
0.874927 0.542059 0.579719 F F F Ti
0.374621 0.541746 0.738664 F F F Ti
0.875908 0.541685 0.738728 F F F Ti
0.374964 0.541635 0.896806 F F F Ti
0.875130 0.541628 0.896818 F F F Ti
0.386643 0.869075 0.580772 F F F Ti
0.861761 0.866730 0.581434 F F F Ti
0.375039 0.875075 0.738163 F F F Ti
0.875253 0.874831 0.738363 F F F Ti
0.374922 0.875138 0.896676 F F F Ti
0.875141 0.875127 0.896714 F F F Ti
0.125184 0.624944 0.356728 F F F Ti
0.625075 0.624900 0.356484 F F F Ti
0.124977 0.625056 0.119068 F F F Ti
0.624917 0.625041 0.119042 F F F Ti
0.125130 0.124886 0.357307 F F F Ti
0.625516 0.124954 0.357062 F F F Ti
0.125023 0.124959 0.119176 F F F Ti
0.624919 0.124968 0.119137 F F F Ti
0.124969 0.374877 0.039877 F F F Ti
0.624866 0.374895 0.039860 F F F Ti
0.124961 0.875110 0.039907 F F F Ti
0.624830 0.875092 0.039882 F F F Ti
0.125061 0.374881 0.277557 F F F Ti
0.625064 0.374871 0.277482 F F F Ti
0.125159 0.875090 0.277750 F F F Ti
0.625003 0.875085 0.277608 F F F Ti
0.374966 0.875062 0.158742 F F F Ti
0.875036 0.875056 0.158728 F F F Ti
0.374970 0.374931 0.158675 F F F Ti
0.875024 0.374938 0.158646 F F F Ti
0.375026 0.375064 0.396398 F F F Ti
0.875422 0.375360 0.396307 F F F Ti
0.375592 0.874864 0.396792 F F F Ti
0.874694 0.874177 0.396422 F F F Ti
0.374959 0.625029 0.237859 F F F Ti
0.875112 0.624996 0.237839 F F F Ti
0.374911 0.625085 0.000232 F F F Ti
0.874997 0.625089 0.000240 F F F Ti
0.374947 0.124948 0.238129 F F F Ti
0.875186 0.124952 0.238073 F F F Ti
0.374929 0.124959 0.000159 F F F Ti
0.875021 0.124952 0.000179 F F F Ti
0.113708 0.041080 0.532382 T T T Sn

0.000000 0.000000 0.000000
0.000000 0.000000 0.000000
0.000000 0.000000 0.000000
0.000000 0.000000 0.000000
0.000000 0.000000 0.000000
0.000000 0.000000 0.000000
0.000000 0.000000 0.000000
0.000000 0.000000 0.000000
0.000000 0.000000 0.000000
0.000000 0.000000 0.000000
0.000000 0.000000 0.000000
0.000000 0.000000 0.000000
0.000000 0.000000 0.000000
0.000000 0.000000 0.000000
0.000000 0.000000 0.000000
0.000000 0.000000 0.000000
0.000000 0.000000 0.000000
0.000000 0.000000 0.000000
0.000000 0.000000 0.000000
0.000000 0.000000 0.000000
0.000000 0.000000 0.000000
0.000000 0.000000 0.000000
0.000000 0.000000 0.000000
0.000000 0.000000 0.000000
0.000000 0.000000 0.000000
0.000000 0.000000 0.000000
0.000000 0.000000 0.000000
0.000000 0.000000 0.000000
0.000000 0.000000 0.000000
0.000000 0.000000 0.000000
0.000000 0.000000 0.000000
0.000000 0.000000 0.000000
0.000000 0.000000 0.000000
0.000000 0.000000 0.000000
0.000000 0.000000 0.000000
0.000000 0.000000 0.000000
0.000000 0.000000 0.000000
0.000000 0.000000 0.000000
0.000000 0.000000 0.000000
0.000000 0.000000 0.000000
0.000000 0.000000 0.000000
0.000000 0.000000 0.000000
0.000000 0.000000 0.000000
0.000000 0.000000 0.000000
0.000000 0.000000 0.000000
0.000000 0.000000 0.000000
0.000000 0.000000 0.000000
0.000000 0.000000 0.000000
0.000000 0.000000 0.000000
0.000000 0.000000 0.000000
0.000000 0.000000 0.000000
0.000000 0.000000 0.000000
0.000000 0.000000 0.000000
0.000000 0.000000 0.000000
0.000000 0.000000 0.000000
0.000000 0.000000 0.000000
0.000000 0.000000 0.000000
0.000000 0.000000 0.000000
0.000000 0.000000 0.000000
0.000000 0.000000 0.000000
0.000000 0.000000 0.000000
0.000000 0.000000 0.000000
0.000000 0.000000 0.000000
0.000000 0.000000 0.000000
0.000000 0.000000 0.000000
0.000000 0.000000 0.000000
0.000000 0.000000 0.000000
