Ti66 Nb1
1.0
6.309760 0.000000 0.000000
0.000000 9.464640 0.000000
0.000000 0.000000 18.918326
Ti Nb
66 1
Selective dynamics
direct
0.630979 0.040818 0.499919 F F F Ti
0.124402 0.041317 0.659241 F F F Ti
0.625017 0.041514 0.658798 F F F Ti
0.124977 0.041661 0.817294 F F F Ti
0.624910 0.041670 0.817269 F F F Ti
0.123706 0.378274 0.499868 F F F Ti
0.625120 0.375382 0.499919 F F F Ti
0.124939 0.375091 0.658674 F F F Ti
0.624371 0.375240 0.658772 F F F Ti
0.125028 0.374984 0.817239 F F F Ti
0.624902 0.375006 0.817256 F F F Ti
0.125212 0.708546 0.500104 F F F Ti
0.625539 0.708028 0.499957 F F F Ti
0.124998 0.708097 0.658808 F F F Ti
0.625363 0.707933 0.658900 F F F Ti
0.124990 0.708275 0.817286 F F F Ti
0.624975 0.708252 0.817311 F F F Ti
0.871539 0.209882 0.580128 F F F Ti
0.374945 0.208307 0.737920 F F F Ti
0.874759 0.208434 0.738079 F F F Ti
0.375009 0.208350 0.896483 F F F Ti
0.874961 0.208361 0.896505 F F F Ti
0.375225 0.541726 0.579405 F F F Ti
0.874555 0.542054 0.579493 F F F Ti
0.374936 0.541597 0.738007 F F F Ti
0.875035 0.541581 0.738043 F F F Ti
0.374996 0.541624 0.896510 F F F Ti
0.874987 0.541625 0.896516 F F F Ti
0.377570 0.873039 0.580026 F F F Ti
0.874823 0.874338 0.579726 F F F Ti
0.375122 0.874854 0.738083 F F F Ti
0.874791 0.874837 0.738095 F F F Ti
0.375014 0.874987 0.896521 F F F Ti
0.874956 0.874988 0.896526 F F F Ti
0.125035 0.625544 0.356841 F F F Ti
0.625020 0.625284 0.356754 F F F Ti
0.125020 0.625057 0.118939 F F F Ti
0.625009 0.625046 0.118934 F F F Ti
0.125131 0.125408 0.356166 F F F Ti
0.626041 0.125130 0.356604 F F F Ti
0.125040 0.125033 0.118902 F F F Ti
0.625016 0.125029 0.118886 F F F Ti
0.125007 0.375019 0.039660 F F F Ti
0.624976 0.375022 0.039656 F F F Ti
0.125005 0.875019 0.039667 F F F Ti
0.624979 0.875012 0.039663 F F F Ti
0.125016 0.375307 0.277403 F F F Ti
0.625103 0.375170 0.277386 F F F Ti
0.125126 0.875089 0.277451 F F F Ti
0.625323 0.875048 0.277414 F F F Ti
0.375051 0.875025 0.158547 F F F Ti
0.875033 0.875017 0.158541 F F F Ti
0.375034 0.375080 0.158536 F F F Ti
0.875015 0.375092 0.158523 F F F Ti
0.375362 0.375815 0.396229 F F F Ti
0.874573 0.375563 0.396243 F F F Ti
0.376154 0.874580 0.396215 F F F Ti
0.875730 0.875041 0.396404 F F F Ti
0.375008 0.625139 0.237859 F F F Ti
0.875080 0.625136 0.237866 F F F Ti
0.374989 0.625032 0.000023 F F F Ti
0.875005 0.625032 0.000027 F F F Ti
0.375278 0.125079 0.237758 F F F Ti
0.874983 0.125082 0.237718 F F F Ti
0.375004 0.125003 0.000002 F F F Ti
0.875010 0.124998 0.000012 F F F Ti
0.195328 0.090327 0.505988 T T T Nb

0.000000 0.000000 0.000000
0.000000 0.000000 0.000000
0.000000 0.000000 0.000000
0.000000 0.000000 0.000000
0.000000 0.000000 0.000000
0.000000 0.000000 0.000000
0.000000 0.000000 0.000000
0.000000 0.000000 0.000000
0.000000 0.000000 0.000000
0.000000 0.000000 0.000000
0.000000 0.000000 0.000000
0.000000 0.000000 0.000000
0.000000 0.000000 0.000000
0.000000 0.000000 0.000000
0.000000 0.000000 0.000000
0.000000 0.000000 0.000000
0.000000 0.000000 0.000000
0.000000 0.000000 0.000000
0.000000 0.000000 0.000000
0.000000 0.000000 0.000000
0.000000 0.000000 0.000000
0.000000 0.000000 0.000000
0.000000 0.000000 0.000000
0.000000 0.000000 0.000000
0.000000 0.000000 0.000000
0.000000 0.000000 0.000000
0.000000 0.000000 0.000000
0.000000 0.000000 0.000000
0.000000 0.000000 0.000000
0.000000 0.000000 0.000000
0.000000 0.000000 0.000000
0.000000 0.000000 0.000000
0.000000 0.000000 0.000000
0.000000 0.000000 0.000000
0.000000 0.000000 0.000000
0.000000 0.000000 0.000000
0.000000 0.000000 0.000000
0.000000 0.000000 0.000000
0.000000 0.000000 0.000000
0.000000 0.000000 0.000000
0.000000 0.000000 0.000000
0.000000 0.000000 0.000000
0.000000 0.000000 0.000000
0.000000 0.000000 0.000000
0.000000 0.000000 0.000000
0.000000 0.000000 0.000000
0.000000 0.000000 0.000000
0.000000 0.000000 0.000000
0.000000 0.000000 0.000000
0.000000 0.000000 0.000000
0.000000 0.000000 0.000000
0.000000 0.000000 0.000000
0.000000 0.000000 0.000000
0.000000 0.000000 0.000000
0.000000 0.000000 0.000000
0.000000 0.000000 0.000000
0.000000 0.000000 0.000000
0.000000 0.000000 0.000000
0.000000 0.000000 0.000000
0.000000 0.000000 0.000000
0.000000 0.000000 0.000000
0.000000 0.000000 0.000000
0.000000 0.000000 0.000000
0.000000 0.000000 0.000000
0.000000 0.000000 0.000000
0.000000 0.000000 0.000000
0.000000 0.000000 0.000000
