Ti67
1.0
6.309760 0.000000 0.000000
0.000000 9.464640 0.000000
0.000000 0.000000 18.918326
Ti
67
Selective dynamics
direct
0.630907 0.041791 0.499767 F F F Ti
0.629035 0.041730 0.659057 F F F Ti
0.125151 0.041748 0.816783 F F F Ti
0.625230 0.041751 0.817235 F F F Ti
0.125581 0.376564 0.499940 F F F Ti
0.625494 0.379667 0.498395 F F F Ti
0.125893 0.376291 0.658834 F F F Ti
0.625542 0.379061 0.660404 F F F Ti
0.125352 0.374757 0.817419 F F F Ti
0.625111 0.374999 0.817729 F F F Ti
0.125435 0.706336 0.499691 F F F Ti
0.625330 0.704676 0.498188 F F F Ti
0.125706 0.706991 0.659024 F F F Ti
0.625254 0.705147 0.660462 F F F Ti
0.125271 0.708613 0.817557 F F F Ti
0.625128 0.708500 0.817836 F F F Ti
0.395357 0.218601 0.579660 F F F Ti
0.851649 0.222491 0.579923 F F F Ti
0.375450 0.208387 0.737740 F F F Ti
0.875310 0.208947 0.738109 F F F Ti
0.374892 0.208083 0.896442 F F F Ti
0.875330 0.208138 0.896508 F F F Ti
0.375762 0.542313 0.579462 F F F Ti
0.875305 0.542398 0.579497 F F F Ti
0.374430 0.541881 0.738751 F F F Ti
0.876472 0.541788 0.738861 F F F Ti
0.374932 0.541649 0.896760 F F F Ti
0.875307 0.541639 0.896779 F F F Ti
0.394308 0.865259 0.579619 F F F Ti
0.853262 0.861588 0.579907 F F F Ti
0.375436 0.875116 0.737815 F F F Ti
0.875236 0.874556 0.738170 F F F Ti
0.374895 0.875304 0.896473 F F F Ti
0.875298 0.875275 0.896544 F F F Ti
0.125098 0.624996 0.356438 F F F Ti
0.625153 0.624970 0.355957 F F F Ti
0.124930 0.625114 0.118941 F F F Ti
0.624844 0.625090 0.118916 F F F Ti
0.125062 0.124799 0.357382 F F F Ti
0.625432 0.125013 0.356794 F F F Ti
0.125002 0.124927 0.119089 F F F Ti
0.624844 0.124945 0.119042 F F F Ti
0.124966 0.374820 0.039570 F F F Ti
0.624842 0.374843 0.039617 F F F Ti
0.124952 0.875169 0.039540 F F F Ti
0.624797 0.875148 0.039598 F F F Ti
0.125008 0.374800 0.277336 F F F Ti
0.625044 0.374829 0.277208 F F F Ti
0.125133 0.875168 0.277622 F F F Ti
0.625016 0.875142 0.277445 F F F Ti
0.374896 0.875113 0.158592 F F F Ti
0.875072 0.875114 0.158579 F F F Ti
0.374896 0.374890 0.158499 F F F Ti
0.875085 0.374891 0.158464 F F F Ti
0.374609 0.374954 0.395997 F F F Ti
0.875879 0.375238 0.395909 F F F Ti
0.375335 0.875090 0.396641 F F F Ti
0.875269 0.874527 0.396324 F F F Ti
0.374837 0.625070 0.237632 F F F Ti
0.875195 0.625038 0.237608 F F F Ti
0.374885 0.625145 0.000153 F F F Ti
0.875006 0.625145 0.000166 F F F Ti
0.374820 0.124923 0.238021 F F F Ti
0.875283 0.124922 0.237966 F F F Ti
0.374881 0.124953 -0.000001 F F F Ti
0.875051 0.124941 0.000034 F F F Ti
0.109827 0.044705 0.573613 T T T Ti

0.000000 0.000000 0.000000
0.000000 0.000000 0.000000
0.000000 0.000000 0.000000
0.000000 0.000000 0.000000
0.000000 0.000000 0.000000
0.000000 0.000000 0.000000
0.000000 0.000000 0.000000
0.000000 0.000000 0.000000
0.000000 0.000000 0.000000
0.000000 0.000000 0.000000
0.000000 0.000000 0.000000
0.000000 0.000000 0.000000
0.000000 0.000000 0.000000
0.000000 0.000000 0.000000
0.000000 0.000000 0.000000
0.000000 0.000000 0.000000
0.000000 0.000000 0.000000
0.000000 0.000000 0.000000
0.000000 0.000000 0.000000
0.000000 0.000000 0.000000
0.000000 0.000000 0.000000
0.000000 0.000000 0.000000
0.000000 0.000000 0.000000
0.000000 0.000000 0.000000
0.000000 0.000000 0.000000
0.000000 0.000000 0.000000
0.000000 0.000000 0.000000
0.000000 0.000000 0.000000
0.000000 0.000000 0.000000
0.000000 0.000000 0.000000
0.000000 0.000000 0.000000
0.000000 0.000000 0.000000
0.000000 0.000000 0.000000
0.000000 0.000000 0.000000
0.000000 0.000000 0.000000
0.000000 0.000000 0.000000
0.000000 0.000000 0.000000
0.000000 0.000000 0.000000
0.000000 0.000000 0.000000
0.000000 0.000000 0.000000
0.000000 0.000000 0.000000
0.000000 0.000000 0.000000
0.000000 0.000000 0.000000
0.000000 0.000000 0.000000
0.000000 0.000000 0.000000
0.000000 0.000000 0.000000
0.000000 0.000000 0.000000
0.000000 0.000000 0.000000
0.000000 0.000000 0.000000
0.000000 0.000000 0.000000
0.000000 0.000000 0.000000
0.000000 0.000000 0.000000
0.000000 0.000000 0.000000
0.000000 0.000000 0.000000
0.000000 0.000000 0.000000
0.000000 0.000000 0.000000
0.000000 0.000000 0.000000
0.000000 0.000000 0.000000
0.000000 0.000000 0.000000
0.000000 0.000000 0.000000
0.000000 0.000000 0.000000
0.000000 0.000000 0.000000
0.000000 0.000000 0.000000
0.000000 0.000000 0.000000
0.000000 0.000000 0.000000
0.000000 0.000000 0.000000
0.000000 0.000000 0.000000
