Ti66 Nb1
1.0
6.309760 0.000000 0.000000
0.000000 9.464640 0.000000
0.000000 0.000000 18.918326
Ti Nb
66 1
Selective dynamics
direct
0.123843 0.040472 0.501998 F F F Ti
0.627484 0.041878 0.500457 F F F Ti
0.124907 0.041856 0.659060 F F F Ti
0.624977 0.041884 0.658938 F F F Ti
0.124981 0.041771 0.817292 F F F Ti
0.624976 0.041775 0.817286 F F F Ti
0.121296 0.377831 0.501604 F F F Ti
0.624833 0.375755 0.500629 F F F Ti
0.124710 0.375571 0.658961 F F F Ti
0.624742 0.375529 0.658913 F F F Ti
0.124953 0.375242 0.817262 F F F Ti
0.624929 0.375242 0.817267 F F F Ti
0.125659 0.710331 0.499833 F F F Ti
0.623721 0.709791 0.499857 F F F Ti
0.125071 0.708816 0.658693 F F F Ti
0.624452 0.708783 0.658759 F F F Ti
0.124979 0.708522 0.817224 F F F Ti
0.624881 0.708520 0.817238 F F F Ti
0.375172 0.208836 0.579860 F F F Ti
0.874159 0.208877 0.579957 F F F Ti
0.375004 0.208575 0.738089 F F F Ti
0.874804 0.208579 0.738121 F F F Ti
0.375031 0.208497 0.896402 F F F Ti
0.874982 0.208504 0.896403 F F F Ti
0.374933 0.542460 0.579483 F F F Ti
0.873920 0.543069 0.579653 F F F Ti
0.374934 0.541964 0.738016 F F F Ti
0.874819 0.542029 0.738041 F F F Ti
0.374992 0.541846 0.896425 F F F Ti
0.874952 0.541855 0.896422 F F F Ti
0.375681 0.875377 0.579648 F F F Ti
0.874467 0.874857 0.579746 F F F Ti
0.374996 0.875161 0.738070 F F F Ti
0.874854 0.875088 0.738074 F F F Ti
0.375043 0.875111 0.896457 F F F Ti
0.874976 0.875103 0.896454 F F F Ti
0.125290 0.626378 0.356682 F F F Ti
0.623967 0.626222 0.356663 F F F Ti
0.125175 0.625674 0.118702 F F F Ti
0.625115 0.625605 0.118705 F F F Ti
0.642837 0.123522 0.355756 F F F Ti
0.125745 0.125452 0.118592 F F F Ti
0.626093 0.125271 0.118403 F F F Ti
0.125216 0.375311 0.039380 F F F Ti
0.625026 0.375320 0.039292 F F F Ti
0.125151 0.875308 0.039524 F F F Ti
0.625186 0.875197 0.039495 F F F Ti
0.121773 0.379441 0.275464 F F F Ti
0.626797 0.375967 0.276905 F F F Ti
0.126554 0.877055 0.277609 F F F Ti
0.626266 0.875344 0.277300 F F F Ti
0.375432 0.875381 0.158417 F F F Ti
0.875790 0.875577 0.158441 F F F Ti
0.375756 0.375735 0.158129 F F F Ti
0.874433 0.375875 0.157818 F F F Ti
0.869664 0.379806 0.396797 F F F Ti
0.376644 0.876837 0.396436 F F F Ti
0.877715 0.875648 0.396527 F F F Ti
0.375354 0.626045 0.237677 F F F Ti
0.874650 0.626569 0.237596 F F F Ti
0.375018 0.625325 -0.000103 F F F Ti
0.875029 0.625318 -0.000109 F F F Ti
0.379520 0.125415 0.236653 F F F Ti
0.877420 0.125917 0.236962 F F F Ti
0.375208 0.125099 -0.000151 F F F Ti
0.875251 0.125103 -0.000158 F F F Ti
0.220591 0.202071 0.377094 T T T Nb

0.000000 0.000000 0.000000
0.000000 0.000000 0.000000
0.000000 0.000000 0.000000
0.000000 0.000000 0.000000
0.000000 0.000000 0.000000
0.000000 0.000000 0.000000
0.000000 0.000000 0.000000
0.000000 0.000000 0.000000
0.000000 0.000000 0.000000
0.000000 0.000000 0.000000
0.000000 0.000000 0.000000
0.000000 0.000000 0.000000
0.000000 0.000000 0.000000
0.000000 0.000000 0.000000
0.000000 0.000000 0.000000
0.000000 0.000000 0.000000
0.000000 0.000000 0.000000
0.000000 0.000000 0.000000
0.000000 0.000000 0.000000
0.000000 0.000000 0.000000
0.000000 0.000000 0.000000
0.000000 0.000000 0.000000
0.000000 0.000000 0.000000
0.000000 0.000000 0.000000
0.000000 0.000000 0.000000
0.000000 0.000000 0.000000
0.000000 0.000000 0.000000
0.000000 0.000000 0.000000
0.000000 0.000000 0.000000
0.000000 0.000000 0.000000
0.000000 0.000000 0.000000
0.000000 0.000000 0.000000
0.000000 0.000000 0.000000
0.000000 0.000000 0.000000
0.000000 0.000000 0.000000
0.000000 0.000000 0.000000
0.000000 0.000000 0.000000
0.000000 0.000000 0.000000
0.000000 0.000000 0.000000
0.000000 0.000000 0.000000
0.000000 0.000000 0.000000
0.000000 0.000000 0.000000
0.000000 0.000000 0.000000
0.000000 0.000000 0.000000
0.000000 0.000000 0.000000
0.000000 0.000000 0.000000
0.000000 0.000000 0.000000
0.000000 0.000000 0.000000
0.000000 0.000000 0.000000
0.000000 0.000000 0.000000
0.000000 0.000000 0.000000
0.000000 0.000000 0.000000
0.000000 0.000000 0.000000
0.000000 0.000000 0.000000
0.000000 0.000000 0.000000
0.000000 0.000000 0.000000
0.000000 0.000000 0.000000
0.000000 0.000000 0.000000
0.000000 0.000000 0.000000
0.000000 0.000000 0.000000
0.000000 0.000000 0.000000
0.000000 0.000000 0.000000
0.000000 0.000000 0.000000
0.000000 0.000000 0.000000
0.000000 0.000000 0.000000
0.000000 0.000000 0.000000
0.000000 0.000000 0.000000
