Ti97
1.0
9.513020 0.000000 0.000000
0.000000 9.350860 0.000000
0.000000 0.000000 18.547230
Ti
97
Selective dynamics
direct
0.146712 0.375964 0.400567 T T T Ti
0.650944 0.377708 0.399211 T T T Ti
0.161314 0.888249 0.392470 T T T Ti
0.649272 0.902489 0.409382 T T T Ti
0.162318 0.377523 0.237116 T T T Ti
0.660822 0.377323 0.234950 T T T Ti
0.158135 0.875468 0.235656 T T T Ti
0.661940 0.876460 0.233248 T T T Ti
0.166658 0.374995 0.077683 F F F Ti
0.666671 0.374995 0.077688 F F F Ti
0.166670 0.874994 0.077694 F F F Ti
0.666672 0.874995 0.077703 F F F Ti
0.411084 0.371556 0.316277 T T T Ti
0.906361 0.374874 0.315038 T T T Ti
0.413057 0.872686 0.317448 T T T Ti
0.897711 0.868680 0.320367 T T T Ti
0.416676 0.374995 0.155344 F F F Ti
0.916648 0.374974 0.155356 F F F Ti
0.416697 0.875015 0.155354 F F F Ti
0.916673 0.874960 0.155352 F F F Ti
0.416679 0.375009 -0.000005 F F F Ti
0.916654 0.375006 -0.000001 F F F Ti
0.416682 0.874999 0.000004 F F F Ti
0.916655 0.874993 0.000005 F F F Ti
0.088916 0.128444 0.316276 T T T Ti
0.593639 0.125126 0.315037 T T T Ti
0.086943 0.627314 0.317447 T T T Ti
0.602289 0.631320 0.320366 T T T Ti
0.083324 0.125008 0.155344 F F F Ti
0.583352 0.125028 0.155355 F F F Ti
0.083303 0.624987 0.155354 F F F Ti
0.583326 0.625043 0.155352 F F F Ti
0.083321 0.124995 -0.000005 F F F Ti
0.583346 0.124998 -0.000001 F F F Ti
0.083318 0.625004 0.000004 F F F Ti
0.583345 0.625009 0.000005 F F F Ti
0.353287 0.124036 0.400567 T T T Ti
0.849055 0.122292 0.399211 T T T Ti
0.338685 0.611751 0.392470 T T T Ti
0.850727 0.597511 0.409382 T T T Ti
0.337681 0.122477 0.237116 T T T Ti
0.839177 0.122677 0.234950 T T T Ti
0.341864 0.624532 0.235656 T T T Ti
0.838059 0.623541 0.233248 T T T Ti
0.333341 0.125009 0.077682 F F F Ti
0.833328 0.125007 0.077687 F F F Ti
0.333329 0.625008 0.077694 F F F Ti
0.833327 0.625007 0.077702 F F F Ti
0.374976 0.375003 0.823801 F F F Ti
0.875002 0.375024 0.823768 F F F Ti
0.375004 0.875011 0.823832 F F F Ti
0.875026 0.874967 0.823767 F F F Ti
0.125025 0.124997 0.823800 F F F Ti
0.625000 0.124976 0.823768 F F F Ti
0.124996 0.624986 0.823832 F F F Ti
0.624977 0.625031 0.823767 F F F Ti
0.124977 0.374997 0.910117 F F F Ti
0.625014 0.375016 0.910100 F F F Ti
0.124988 0.874997 0.910138 F F F Ti
0.625017 0.874985 0.910121 F F F Ti
0.375025 0.125003 0.910117 F F F Ti
0.874986 0.124985 0.910100 F F F Ti
0.375013 0.625002 0.910138 F F F Ti
0.874985 0.625014 0.910120 F F F Ti
0.396511 0.373053 0.646670 T T T Ti
0.884257 0.346697 0.653776 T T T Ti
0.371502 0.870863 0.670633 T T T Ti
0.888136 0.874223 0.661394 T T T Ti
0.103489 0.126946 0.646670 T T T Ti
0.615743 0.153302 0.653776 T T T Ti
0.128497 0.629135 0.670633 T T T Ti
0.611864 0.625776 0.661394 T T T Ti
0.147440 0.384980 0.573536 T T T Ti
0.658205 0.407002 0.566210 T T T Ti
0.140264 0.872901 0.576360 T T T Ti
0.581534 0.918245 0.577089 T T T Ti
0.352560 0.115019 0.573536 T T T Ti
0.841795 0.092998 0.566210 T T T Ti
0.359736 0.627099 0.576360 T T T Ti
0.918466 0.581755 0.577089 T T T Ti
0.391244 0.370834 0.489425 T T T Ti
0.899720 0.344662 0.489018 T T T Ti
0.379613 0.858768 0.479902 T T T Ti
0.926448 0.879735 0.474639 T T T Ti
0.108756 0.129166 0.489425 T T T Ti
0.600280 0.155338 0.489018 T T T Ti
0.120387 0.641232 0.479902 T T T Ti
0.573552 0.620265 0.474639 T T T Ti
0.125101 0.875061 0.737561 F F F Ti
0.624965 0.875117 0.737511 F F F Ti
0.374895 0.624931 0.737563 F F F Ti
0.875033 0.624877 0.737512 F F F Ti
0.125034 0.374952 0.737502 F F F Ti
0.624938 0.375263 0.737488 F F F Ti
0.374965 0.125044 0.737502 F F F Ti
0.875060 0.124733 0.737491 F F F Ti
0.750000 0.750000 0.547199 T T T Ti

0.000000 0.000000 0.000000
0.000000 0.000000 0.000000
0.000000 0.000000 0.000000
0.000000 0.000000 0.000000
0.000000 0.000000 0.000000
0.000000 0.000000 0.000000
0.000000 0.000000 0.000000
0.000000 0.000000 0.000000
0.000000 0.000000 0.000000
0.000000 0.000000 0.000000
0.000000 0.000000 0.000000
0.000000 0.000000 0.000000
0.000000 0.000000 0.000000
0.000000 0.000000 0.000000
0.000000 0.000000 0.000000
0.000000 0.000000 0.000000
0.000000 0.000000 0.000000
0.000000 0.000000 0.000000
0.000000 0.000000 0.000000
0.000000 0.000000 0.000000
0.000000 0.000000 0.000000
0.000000 0.000000 0.000000
0.000000 0.000000 0.000000
0.000000 0.000000 0.000000
0.000000 0.000000 0.000000
0.000000 0.000000 0.000000
0.000000 0.000000 0.000000
0.000000 0.000000 0.000000
0.000000 0.000000 0.000000
0.000000 0.000000 0.000000
0.000000 0.000000 0.000000
0.000000 0.000000 0.000000
0.000000 0.000000 0.000000
0.000000 0.000000 0.000000
0.000000 0.000000 0.000000
0.000000 0.000000 0.000000
0.000000 0.000000 0.000000
0.000000 0.000000 0.000000
0.000000 0.000000 0.000000
0.000000 0.000000 0.000000
0.000000 0.000000 0.000000
0.000000 0.000000 0.000000
0.000000 0.000000 0.000000
0.000000 0.000000 0.000000
0.000000 0.000000 0.000000
0.000000 0.000000 0.000000
0.000000 0.000000 0.000000
0.000000 0.000000 0.000000
0.000000 0.000000 0.000000
0.000000 0.000000 0.000000
0.000000 0.000000 0.000000
0.000000 0.000000 0.000000
0.000000 0.000000 0.000000
0.000000 0.000000 0.000000
0.000000 0.000000 0.000000
0.000000 0.000000 0.000000
0.000000 0.000000 0.000000
0.000000 0.000000 0.000000
0.000000 0.000000 0.000000
0.000000 0.000000 0.000000
0.000000 0.000000 0.000000
0.000000 0.000000 0.000000
0.000000 0.000000 0.000000
0.000000 0.000000 0.000000
0.000000 0.000000 0.000000
0.000000 0.000000 0.000000
0.000000 0.000000 0.000000
0.000000 0.000000 0.000000
0.000000 0.000000 0.000000
0.000000 0.000000 0.000000
0.000000 0.000000 0.000000
0.000000 0.000000 0.000000
0.000000 0.000000 0.000000
0.000000 0.000000 0.000000
0.000000 0.000000 0.000000
0.000000 0.000000 0.000000
0.000000 0.000000 0.000000
0.000000 0.000000 0.000000
0.000000 0.000000 0.000000
0.000000 0.000000 0.000000
0.000000 0.000000 0.000000
0.000000 0.000000 0.000000
0.000000 0.000000 0.000000
0.000000 0.000000 0.000000
0.000000 0.000000 0.000000
0.000000 0.000000 0.000000
0.000000 0.000000 0.000000
0.000000 0.000000 0.000000
0.000000 0.000000 0.000000
0.000000 0.000000 0.000000
0.000000 0.000000 0.000000
0.000000 0.000000 0.000000
0.000000 0.000000 0.000000
0.000000 0.000000 0.000000
0.000000 0.000000 0.000000
0.000000 0.000000 0.000000
0.000000 0.000000 0.000000
