Ti96 Sn1
1.0
9.513020 0.000000 0.000000
0.000000 9.350860 0.000000
0.000000 0.000000 18.547230
Ti Sn
96 1
Selective dynamics
direct
0.146905 0.377451 0.401944 T T T Ti
0.650549 0.338866 0.399530 T T T Ti
0.123102 0.857802 0.396049 T T T Ti
0.681945 0.867432 0.396033 T T T Ti
0.162050 0.369730 0.235554 T T T Ti
0.657146 0.374512 0.234054 T T T Ti
0.166663 0.874952 0.234567 T T T Ti
0.654998 0.870793 0.235077 T T T Ti
0.166636 0.375033 0.077642 F F F Ti
0.666684 0.375006 0.077617 F F F Ti
0.166639 0.874997 0.077641 F F F Ti
0.666673 0.875000 0.077638 F F F Ti
0.405587 0.388471 0.316283 T T T Ti
0.900795 0.376741 0.319619 T T T Ti
0.398488 0.891187 0.329905 T T T Ti
0.911021 0.883843 0.306999 T T T Ti
0.416650 0.375015 0.155273 F F F Ti
0.916671 0.374969 0.155270 F F F Ti
0.416661 0.875022 0.155303 F F F Ti
0.916670 0.875002 0.155298 F F F Ti
0.416667 0.375025 0.000022 F F F Ti
0.916643 0.375012 0.000010 F F F Ti
0.416670 0.874984 0.000035 F F F Ti
0.916647 0.874992 0.000016 F F F Ti
0.099205 0.123259 0.319618 T T T Ti
0.594413 0.111529 0.316282 T T T Ti
0.088979 0.616157 0.306998 T T T Ti
0.601512 0.608813 0.329904 T T T Ti
0.083329 0.125040 0.155270 F F F Ti
0.583350 0.124994 0.155273 F F F Ti
0.083330 0.625006 0.155298 F F F Ti
0.583339 0.624986 0.155304 F F F Ti
0.083358 0.124992 0.000010 F F F Ti
0.583334 0.124979 0.000022 F F F Ti
0.083353 0.625013 0.000016 F F F Ti
0.583331 0.625019 0.000035 F F F Ti
0.349450 0.161134 0.399530 T T T Ti
0.853094 0.122549 0.401944 T T T Ti
0.318054 0.632568 0.396033 T T T Ti
0.876897 0.642198 0.396049 T T T Ti
0.342853 0.125490 0.234054 T T T Ti
0.837949 0.130271 0.235554 T T T Ti
0.345001 0.629209 0.235077 T T T Ti
0.833336 0.625049 0.234567 T T T Ti
0.333315 0.125002 0.077617 F F F Ti
0.833364 0.124975 0.077642 F F F Ti
0.333326 0.625009 0.077639 F F F Ti
0.833360 0.625012 0.077641 F F F Ti
0.374993 0.375026 0.823872 F F F Ti
0.874976 0.374954 0.823882 F F F Ti
0.375045 0.874949 0.823809 F F F Ti
0.875044 0.875023 0.823828 F F F Ti
0.125028 0.125039 0.823881 F F F Ti
0.625013 0.124977 0.823872 F F F Ti
0.124958 0.624977 0.823829 F F F Ti
0.624958 0.625045 0.823810 F F F Ti
0.124985 0.375020 0.910153 F F F Ti
0.624997 0.375011 0.910148 F F F Ti
0.125014 0.874984 0.910133 F F F Ti
0.624985 0.874989 0.910129 F F F Ti
0.375007 0.124988 0.910147 F F F Ti
0.875019 0.124979 0.910152 F F F Ti
0.375019 0.625010 0.910128 F F F Ti
0.874990 0.625015 0.910133 F F F Ti
0.390425 0.379713 0.664895 T T T Ti
0.883646 0.383728 0.645709 T T T Ti
0.385322 0.892524 0.648895 T T T Ti
0.889255 0.883032 0.667320 T T T Ti
0.116353 0.116270 0.645708 T T T Ti
0.609573 0.120284 0.664895 T T T Ti
0.110743 0.616964 0.667320 T T T Ti
0.614678 0.607473 0.648895 T T T Ti
0.146033 0.371449 0.574321 T T T Ti
0.631547 0.339256 0.571479 T T T Ti
0.131472 0.851747 0.579184 T T T Ti
0.669220 0.890629 0.581012 T T T Ti
0.368453 0.160743 0.571479 T T T Ti
0.853966 0.128550 0.574321 T T T Ti
0.330779 0.609370 0.581012 T T T Ti
0.868527 0.648252 0.579184 T T T Ti
0.405225 0.408033 0.482236 T T T Ti
0.895749 0.370059 0.488188 T T T Ti
0.317742 0.941258 0.484489 T T T Ti
0.909410 0.894861 0.490941 T T T Ti
0.104250 0.129940 0.488188 T T T Ti
0.594775 0.091966 0.482236 T T T Ti
0.090590 0.605139 0.490941 T T T Ti
0.682258 0.558742 0.484489 T T T Ti
0.125310 0.875093 0.737659 F F F Ti
0.625030 0.875021 0.737643 F F F Ti
0.374963 0.624965 0.737643 F F F Ti
0.874683 0.624891 0.737663 F F F Ti
0.124836 0.374907 0.737651 F F F Ti
0.625047 0.374867 0.737673 F F F Ti
0.374947 0.125116 0.737672 F F F Ti
0.875157 0.125078 0.737648 F F F Ti
0.500000 0.750000 0.493695 T T T Sn

0.000000 0.000000 0.000000
0.000000 0.000000 0.000000
0.000000 0.000000 0.000000
0.000000 0.000000 0.000000
0.000000 0.000000 0.000000
0.000000 0.000000 0.000000
0.000000 0.000000 0.000000
0.000000 0.000000 0.000000
0.000000 0.000000 0.000000
0.000000 0.000000 0.000000
0.000000 0.000000 0.000000
0.000000 0.000000 0.000000
0.000000 0.000000 0.000000
0.000000 0.000000 0.000000
0.000000 0.000000 0.000000
0.000000 0.000000 0.000000
0.000000 0.000000 0.000000
0.000000 0.000000 0.000000
0.000000 0.000000 0.000000
0.000000 0.000000 0.000000
0.000000 0.000000 0.000000
0.000000 0.000000 0.000000
0.000000 0.000000 0.000000
0.000000 0.000000 0.000000
0.000000 0.000000 0.000000
0.000000 0.000000 0.000000
0.000000 0.000000 0.000000
0.000000 0.000000 0.000000
0.000000 0.000000 0.000000
0.000000 0.000000 0.000000
0.000000 0.000000 0.000000
0.000000 0.000000 0.000000
0.000000 0.000000 0.000000
0.000000 0.000000 0.000000
0.000000 0.000000 0.000000
0.000000 0.000000 0.000000
0.000000 0.000000 0.000000
0.000000 0.000000 0.000000
0.000000 0.000000 0.000000
0.000000 0.000000 0.000000
0.000000 0.000000 0.000000
0.000000 0.000000 0.000000
0.000000 0.000000 0.000000
0.000000 0.000000 0.000000
0.000000 0.000000 0.000000
0.000000 0.000000 0.000000
0.000000 0.000000 0.000000
0.000000 0.000000 0.000000
0.000000 0.000000 0.000000
0.000000 0.000000 0.000000
0.000000 0.000000 0.000000
0.000000 0.000000 0.000000
0.000000 0.000000 0.000000
0.000000 0.000000 0.000000
0.000000 0.000000 0.000000
0.000000 0.000000 0.000000
0.000000 0.000000 0.000000
0.000000 0.000000 0.000000
0.000000 0.000000 0.000000
0.000000 0.000000 0.000000
0.000000 0.000000 0.000000
0.000000 0.000000 0.000000
0.000000 0.000000 0.000000
0.000000 0.000000 0.000000
0.000000 0.000000 0.000000
0.000000 0.000000 0.000000
0.000000 0.000000 0.000000
0.000000 0.000000 0.000000
0.000000 0.000000 0.000000
0.000000 0.000000 0.000000
0.000000 0.000000 0.000000
0.000000 0.000000 0.000000
0.000000 0.000000 0.000000
0.000000 0.000000 0.000000
0.000000 0.000000 0.000000
0.000000 0.000000 0.000000
0.000000 0.000000 0.000000
0.000000 0.000000 0.000000
0.000000 0.000000 0.000000
0.000000 0.000000 0.000000
0.000000 0.000000 0.000000
0.000000 0.000000 0.000000
0.000000 0.000000 0.000000
0.000000 0.000000 0.000000
0.000000 0.000000 0.000000
0.000000 0.000000 0.000000
0.000000 0.000000 0.000000
0.000000 0.000000 0.000000
0.000000 0.000000 0.000000
0.000000 0.000000 0.000000
0.000000 0.000000 0.000000
0.000000 0.000000 0.000000
0.000000 0.000000 0.000000
0.000000 0.000000 0.000000
0.000000 0.000000 0.000000
0.000000 0.000000 0.000000
0.000000 0.000000 0.000000
