total_Ti
1.0
6.391540 0.000000 0.000000
0.000000 9.587310 0.000000
0.000000 0.000000 34.750000
Ti
84
direct
0.125000 0.083333 0.553957 Ti
0.625000 0.083333 0.553957 Ti
0.125000 0.083333 0.640288 Ti
0.625000 0.083333 0.640288 Ti
0.125000 0.083333 0.726619 Ti
0.625000 0.083333 0.726619 Ti
0.125000 0.416667 0.553957 Ti
0.625000 0.416667 0.553957 Ti
0.125000 0.416667 0.640288 Ti
0.625000 0.416667 0.640288 Ti
0.125000 0.416667 0.726619 Ti
0.625000 0.416667 0.726619 Ti
0.125000 0.750000 0.553957 Ti
0.625000 0.750000 0.553957 Ti
0.125000 0.750000 0.640288 Ti
0.625000 0.750000 0.640288 Ti
0.125000 0.750000 0.726619 Ti
0.625000 0.750000 0.726619 Ti
0.375000 0.250000 0.597122 Ti
0.875000 0.250000 0.597122 Ti
0.375000 0.250000 0.683453 Ti
0.875000 0.250000 0.683453 Ti
0.375000 0.250000 0.769784 Ti
0.875000 0.250000 0.769784 Ti
0.375000 0.583333 0.597122 Ti
0.875000 0.583333 0.597122 Ti
0.375000 0.583333 0.683453 Ti
0.875000 0.583333 0.683453 Ti
0.375000 0.583333 0.769784 Ti
0.875000 0.583333 0.769784 Ti
0.375000 0.916667 0.597122 Ti
0.875000 0.916667 0.597122 Ti
0.375000 0.916667 0.683453 Ti
0.875000 0.916667 0.683453 Ti
0.375000 0.916667 0.769784 Ti
0.875000 0.916667 0.769784 Ti
0.125000 0.166667 0.258993 Ti
0.625000 0.166667 0.258993 Ti
0.125000 0.666667 0.258993 Ti
0.625000 0.666667 0.258993 Ti
0.125000 0.166667 -0.000000 Ti
0.625000 0.166667 -0.000000 Ti
0.125000 0.666667 -0.000000 Ti
0.625000 0.666667 -0.000000 Ti
0.125000 0.833333 0.064748 Ti
0.625000 0.833333 0.064748 Ti
0.125000 0.833333 0.323741 Ti
0.625000 0.833333 0.323741 Ti
0.125000 0.333333 0.064748 Ti
0.625000 0.333333 0.064748 Ti
0.125000 0.333333 0.323741 Ti
0.625000 0.333333 0.323741 Ti
0.375000 0.583333 0.323741 Ti
0.875000 0.583333 0.323741 Ti
0.374999 0.583333 0.064748 Ti
0.874999 0.583333 0.064748 Ti
0.375000 0.083333 0.064748 Ti
0.875000 0.083333 0.064748 Ti
0.375000 0.083333 0.323741 Ti
0.875000 0.083333 0.323741 Ti
0.375000 0.416667 0.258993 Ti
0.875000 0.416667 0.258993 Ti
0.375000 0.916667 0.258993 Ti
0.875000 0.916667 0.258993 Ti
0.375000 0.416667 -0.000000 Ti
0.875000 0.416667 -0.000000 Ti
0.375000 0.916667 -0.000000 Ti
0.875000 0.916667 -0.000000 Ti
0.375000 0.083333 0.194245 Ti
0.875000 0.083333 0.194245 Ti
0.125000 0.166667 0.129496 Ti
0.625000 0.166667 0.129496 Ti
0.125000 0.333333 0.194245 Ti
0.625000 0.333333 0.194245 Ti
0.375000 0.416667 0.129496 Ti
0.875000 0.416667 0.129496 Ti
0.374999 0.583333 0.194245 Ti
0.874999 0.583333 0.194245 Ti
0.125000 0.666667 0.129496 Ti
0.625000 0.666667 0.129496 Ti
0.125000 0.833333 0.194245 Ti
0.625000 0.833333 0.194245 Ti
0.375000 0.916667 0.129496 Ti
0.875000 0.916667 0.129496 Ti
