Ti66 Nb1
1.0
6.309760 0.000000 0.000000
0.000000 9.464640 0.000000
0.000000 0.000000 18.918326
Ti Nb
66 1
Selective dynamics
direct
0.631481 0.041659 0.500570 F F F Ti
0.626480 0.041678 0.659546 F F F Ti
0.125089 0.041721 0.817280 F F F Ti
0.625069 0.041714 0.817575 F F F Ti
0.125514 0.377225 0.500446 F F F Ti
0.625818 0.377443 0.499487 F F F Ti
0.125790 0.375838 0.659200 F F F Ti
0.625167 0.377882 0.660222 F F F Ti
0.125212 0.374892 0.817643 F F F Ti
0.625054 0.375040 0.817834 F F F Ti
0.125310 0.706040 0.500272 F F F Ti
0.625579 0.706263 0.499348 F F F Ti
0.125605 0.707601 0.659307 F F F Ti
0.624871 0.706060 0.660267 F F F Ti
0.125130 0.708535 0.817723 F F F Ti
0.625037 0.708463 0.817897 F F F Ti
0.387020 0.214268 0.580979 F F F Ti
0.861374 0.216890 0.581837 F F F Ti
0.375133 0.208368 0.738223 F F F Ti
0.875331 0.208630 0.738461 F F F Ti
0.374946 0.208221 0.896704 F F F Ti
0.875176 0.208251 0.896744 F F F Ti
0.375937 0.542105 0.579758 F F F Ti
0.874934 0.542162 0.579848 F F F Ti
0.374584 0.541803 0.738801 F F F Ti
0.876042 0.541746 0.738864 F F F Ti
0.374970 0.541639 0.896890 F F F Ti
0.875157 0.541633 0.896902 F F F Ti
0.386401 0.869292 0.580885 F F F Ti
0.862107 0.866694 0.581688 F F F Ti
0.375050 0.875107 0.738247 F F F Ti
0.875294 0.874834 0.738473 F F F Ti
0.374928 0.875171 0.896747 F F F Ti
0.875160 0.875159 0.896791 F F F Ti
0.125288 0.624861 0.356734 F F F Ti
0.625095 0.624797 0.356481 F F F Ti
0.124977 0.625050 0.119103 F F F Ti
0.624907 0.625034 0.119075 F F F Ti
0.125142 0.124802 0.357435 F F F Ti
0.625647 0.124927 0.357155 F F F Ti
0.125036 0.124954 0.119235 F F F Ti
0.624912 0.124966 0.119192 F F F Ti
0.124963 0.374861 0.039930 F F F Ti
0.624844 0.374880 0.039912 F F F Ti
0.124955 0.875132 0.039963 F F F Ti
0.624807 0.875112 0.039936 F F F Ti
0.125089 0.374818 0.277608 F F F Ti
0.625084 0.374819 0.277526 F F F Ti
0.125224 0.875073 0.277795 F F F Ti
0.625007 0.875078 0.277617 F F F Ti
0.374963 0.875071 0.158783 F F F Ti
0.875052 0.875062 0.158767 F F F Ti
0.374966 0.374901 0.158719 F F F Ti
0.875031 0.374911 0.158686 F F F Ti
0.375032 0.375018 0.396470 F F F Ti
0.875521 0.375422 0.396360 F F F Ti
0.375938 0.874691 0.396806 F F F Ti
0.874384 0.873773 0.396337 F F F Ti
0.374975 0.625000 0.237873 F F F Ti
0.875140 0.624959 0.237848 F F F Ti
0.374890 0.625122 0.000285 F F F Ti
0.875000 0.625125 0.000295 F F F Ti
0.374944 0.124930 0.238209 F F F Ti
0.875238 0.124934 0.238138 F F F Ti
0.374906 0.124949 0.000198 F F F Ti
0.875035 0.124941 0.000221 F F F Ti
0.111256 0.045138 0.526287 T T T Nb

0.000000 0.000000 0.000000
0.000000 0.000000 0.000000
0.000000 0.000000 0.000000
0.000000 0.000000 0.000000
0.000000 0.000000 0.000000
0.000000 0.000000 0.000000
0.000000 0.000000 0.000000
0.000000 0.000000 0.000000
0.000000 0.000000 0.000000
0.000000 0.000000 0.000000
0.000000 0.000000 0.000000
0.000000 0.000000 0.000000
0.000000 0.000000 0.000000
0.000000 0.000000 0.000000
0.000000 0.000000 0.000000
0.000000 0.000000 0.000000
0.000000 0.000000 0.000000
0.000000 0.000000 0.000000
0.000000 0.000000 0.000000
0.000000 0.000000 0.000000
0.000000 0.000000 0.000000
0.000000 0.000000 0.000000
0.000000 0.000000 0.000000
0.000000 0.000000 0.000000
0.000000 0.000000 0.000000
0.000000 0.000000 0.000000
0.000000 0.000000 0.000000
0.000000 0.000000 0.000000
0.000000 0.000000 0.000000
0.000000 0.000000 0.000000
0.000000 0.000000 0.000000
0.000000 0.000000 0.000000
0.000000 0.000000 0.000000
0.000000 0.000000 0.000000
0.000000 0.000000 0.000000
0.000000 0.000000 0.000000
0.000000 0.000000 0.000000
0.000000 0.000000 0.000000
0.000000 0.000000 0.000000
0.000000 0.000000 0.000000
0.000000 0.000000 0.000000
0.000000 0.000000 0.000000
0.000000 0.000000 0.000000
0.000000 0.000000 0.000000
0.000000 0.000000 0.000000
0.000000 0.000000 0.000000
0.000000 0.000000 0.000000
0.000000 0.000000 0.000000
0.000000 0.000000 0.000000
0.000000 0.000000 0.000000
0.000000 0.000000 0.000000
0.000000 0.000000 0.000000
0.000000 0.000000 0.000000
0.000000 0.000000 0.000000
0.000000 0.000000 0.000000
0.000000 0.000000 0.000000
0.000000 0.000000 0.000000
0.000000 0.000000 0.000000
0.000000 0.000000 0.000000
0.000000 0.000000 0.000000
0.000000 0.000000 0.000000
0.000000 0.000000 0.000000
0.000000 0.000000 0.000000
0.000000 0.000000 0.000000
0.000000 0.000000 0.000000
0.000000 0.000000 0.000000
0.000000 0.000000 0.000000
