total_structure
1.0
   3.5061499999999999    0.0000000000000000    0.0000000000000002
   0.0000000000000019   12.0001999999999995    0.0000000000000007
   0.0000000000000000    0.0000000000000000   26.1416049620000024
Cr Fe N
16 36 16
Selective dynamics
direct
   0.0000000000000000    0.0000000000000000    0.2404718773441007 F F F Cr
  -0.0000000000000000    0.2500000000000000    0.2404718773441007 F F F Cr
   0.5000000000000000    0.1250000000000000    0.1603111561471388 F F F Cr
   0.5000000000000000    0.3750000000000000    0.1603111561471388 F F F Cr
   0.0000000000000000    0.0000000000000000    0.0801607211969620 F F F Cr
  -0.0000000000000000    0.2500000000000000    0.0801607211969620 F F F Cr
   0.5000000000000000    0.1250000000000000   -0.0000000000000000 F F F Cr
   0.5000000000000000    0.3750000000000000   -0.0000000000000000 F F F Cr
  -0.0000000000000000    0.5000000000000000    0.2404718773441007 F F F Cr
  -0.0000000000000000    0.7500000000000000    0.2404718773441007 F F F Cr
   0.5000000000000000    0.6250000000000000    0.1603111561471388 F F F Cr
   0.4999999999999999    0.8749999999999999    0.1603111561471388 F F F Cr
  -0.0000000000000000    0.5000000000000000    0.0801607211969620 F F F Cr
  -0.0000000000000000    0.7500000000000000    0.0801607211969620 F F F Cr
   0.5000000000000000    0.6250000000000000   -0.0000000000000000 F F F Cr
   0.4999999999999999    0.8749999999999999   -0.0000000000000000 F F F Cr
   0.9933200000000000    0.7184400000000000    0.6174647683056821 F F F Fe
   0.4933200000000000    0.5543100000000000    0.6041852237060058 F F F Fe
   0.4933200000000000    0.7391600000000000    0.5635339764109468 F F F Fe
   0.9933200000000000    0.5750200000000000    0.5502544318112705 F F F Fe
   0.9933200000000001    0.3901700000000000    0.5908953928595443 F F F Fe
   0.4933200000000000    0.2260400000000000    0.5776158482598678 F F F Fe
   0.4933200000000000    0.4108899999999999    0.5369646009648089 F F F Fe
   0.9933200000000001    0.2467500000000000    0.5236850563651326 F F F Fe
   0.9933200000000000    0.0619000000000000    0.5643260174134063 F F F Fe
   0.4933200000000000    0.8977699999999998    0.5510464728137300 F F F Fe
   0.4933200000000000    0.0826200000000000    0.5103952255186711 F F F Fe
   0.9933200000000000    0.9184800000000000    0.4971156809189946 F F F Fe
   0.9933200000000000    0.7598700000000000    0.5096134707629968 F F F Fe
   0.4933200000000000    0.5957300000000000    0.4963236399165353 F F F Fe
   0.4933200000000000    0.7805800000000001    0.4556826788682616 F F F Fe
   0.9933200000000001    0.6164500000000001    0.4423928480218000 F F F Fe
   0.9933200000000001    0.4315999999999999    0.4830440953168589 F F F Fe
   0.4933200000000000    0.2674600000000000    0.4697542644703974 F F F Fe
   0.4933200000000000    0.4523100000000000    0.4291133034221237 F F F Fe
   0.9933200000000001    0.2881800000000000    0.4158234725756621 F F F Fe
   0.9933199999999999    0.1033300000000000    0.4564747198707210 F F F Fe
   0.4933200000000000    0.9391999999999999    0.4431848890242593 F F F Fe
   0.4933200000000000    0.1240400000000000    0.4025439279759858 F F F Fe
   0.9933200000000000    0.9599100000000000    0.3892540971295242 F F F Fe
   0.9933200000000000    0.8013000000000000    0.4017518869735263 F F F Fe
   0.4933200000000000    0.6371599999999998    0.3884723423738500 F F F Fe
   0.4933200000000000    0.8220099999999999    0.3478210950787911 F F F Fe
   0.9933200000000001    0.6578799999999999    0.3345415504791148 F F F Fe
   0.9933200000000001    0.4730300000000000    0.3751825115273884 F F F Fe
   0.4933200000000000    0.3088900000000000    0.3619029669277121 F F F Fe
   0.4933200000000000    0.4937400000000000    0.3212517196326532 F F F Fe
   0.9933200000000000    0.3296100000000000    0.3079721750329769 F F F Fe
   0.9933200000000001    0.1447600000000000    0.3486131360812506 F F F Fe
   0.4933200000000000    0.9806200000000000    0.3353335914815740 F F F Fe
   0.4933200000000000    0.1654700000000000    0.2946823441865153 F F F Fe
   0.9933200000000000    0.0013400000000000    0.2814027995868389 F F F Fe
   0.5000000000000000    0.1250000000000000    0.2404718773441007 F F F N
   0.5000000000000000    0.3750000000000000    0.2404718773441007 F F F N
   0.0000000000000000    0.0000000000000000    0.1603111561471388 F F F N
  -0.0000000000000000    0.2500000000000000    0.1603111561471388 F F F N
   0.5000000000000000    0.1250000000000000    0.0801607211969620 F F F N
   0.5000000000000000    0.3750000000000000    0.0801607211969620 F F F N
   0.0000000000000000    0.0000000000000000    0.0000000000000000 F F F N
  -0.0000000000000000    0.2500000000000000   -0.0000000000000000 F F F N
   0.5000000000000000    0.6250000000000000    0.2404718773441007 F F F N
   0.4999999999999999    0.8749999999999999    0.2404718773441007 F F F N
  -0.0000000000000000    0.5000000000000000    0.1603111561471388 F F F N
  -0.0000000000000000    0.7500000000000000    0.1603111561471388 F F F N
   0.5000000000000000    0.6250000000000000    0.0801607211969620 F F F N
   0.4999999999999999    0.8749999999999999    0.0801607211969620 F F F N
  -0.0000000000000000    0.5000000000000000   -0.0000000000000000 F F F N
  -0.0000000000000000    0.7500000000000000   -0.0000000000000000 F F F N
