alpha_Ti
1.0
6.309760 0.000000 0.000000
0.000000 9.464640 0.000000
0.000000 0.000000 18.700004
Ti
32
direct
0.125000 0.625000 0.360962 Ti
0.625000 0.625000 0.360962 Ti
0.125000 0.625000 0.120321 Ti
0.625000 0.625000 0.120321 Ti
0.125000 0.125000 0.360962 Ti
0.625000 0.125000 0.360962 Ti
0.125000 0.125000 0.120321 Ti
0.625000 0.125000 0.120321 Ti
0.125000 0.375000 0.040107 Ti
0.625000 0.375000 0.040107 Ti
0.125000 0.875000 0.040107 Ti
0.625000 0.875000 0.040107 Ti
0.125000 0.375000 0.280749 Ti
0.625000 0.375000 0.280749 Ti
0.125000 0.875000 0.280749 Ti
0.625000 0.875000 0.280749 Ti
0.375000 0.875000 0.160428 Ti
0.875000 0.875000 0.160428 Ti
0.374999 0.375000 0.160428 Ti
0.874999 0.375000 0.160428 Ti
0.375000 0.375000 0.401070 Ti
0.875000 0.375000 0.401070 Ti
0.375000 0.875000 0.401069 Ti
0.875000 0.875000 0.401069 Ti
0.375000 0.625000 0.240642 Ti
0.875000 0.625000 0.240642 Ti
0.375000 0.625000 -0.000000 Ti
0.875000 0.625000 -0.000000 Ti
0.375000 0.125000 0.240642 Ti
0.875000 0.125000 0.240642 Ti
0.375000 0.125000 -0.000000 Ti
0.875000 0.125000 -0.000000 Ti
