alpha_Ti
1.0
4.756512 0.000000 0.000000
0.000000 4.675432 0.000000
0.000000 0.000000 17.211800
Ti
12
direct
0.333333 0.750000 0.418585 Ti
0.333333 0.750000 0.251151 Ti
0.333333 0.750000 0.083717 Ti
0.833334 0.750000 0.334868 Ti
0.833334 0.750000 0.167434 Ti
0.833334 0.750000 -0.000000 Ti
0.166666 0.250000 0.334868 Ti
0.166666 0.250000 0.167434 Ti
0.166666 0.250000 -0.000000 Ti
0.666667 0.250000 0.418585 Ti
0.666667 0.250000 0.251151 Ti
0.666667 0.250000 0.083717 Ti
