total_Ti
1.0
4.756512 0.000000 0.000000
0.000000 4.675432 0.000000
0.000000 0.000000 17.211800
Ti
24
direct
0.333333 0.750000 0.418585 Ti
0.333333 0.750000 0.251151 Ti
0.333333 0.750000 0.083717 Ti
0.833334 0.750000 0.334868 Ti
0.833334 0.750000 0.167434 Ti
0.833334 0.750000 -0.000000 Ti
0.166666 0.250000 0.334868 Ti
0.166666 0.250000 0.167434 Ti
0.166666 0.250000 -0.000000 Ti
0.666667 0.250000 0.418585 Ti
0.666667 0.250000 0.251151 Ti
0.666667 0.250000 0.083717 Ti
0.666667 0.750000 0.941903 Ti
0.166667 0.250000 0.941903 Ti
0.166667 0.750000 0.848860 Ti
0.666667 0.250000 0.848860 Ti
0.666667 0.750000 0.755816 Ti
0.166667 0.250000 0.755816 Ti
0.166667 0.750000 0.662772 Ti
0.666667 0.250000 0.662772 Ti
0.666667 0.750000 0.569728 Ti
0.166667 0.250000 0.569728 Ti
0.166667 0.750000 0.476685 Ti
0.666667 0.250000 0.476685 Ti
