beta_Ti
1.0
6.309760 0.000000 0.000000
0.000000 9.464640 0.000000
0.000000 0.000000 24.000004
Ti
36
direct
0.875000 0.041667 0.500000 Ti
0.375000 0.041667 0.500000 Ti
0.875000 0.041667 0.625000 Ti
0.375000 0.041667 0.625000 Ti
0.875000 0.041667 0.750000 Ti
0.375000 0.041667 0.750000 Ti
0.875000 0.375000 0.500000 Ti
0.375000 0.375000 0.500000 Ti
0.875000 0.375000 0.625000 Ti
0.375000 0.375000 0.625000 Ti
0.875000 0.375000 0.750000 Ti
0.375000 0.375000 0.750000 Ti
0.875000 0.708333 0.500000 Ti
0.375000 0.708333 0.500000 Ti
0.875000 0.708333 0.625000 Ti
0.375000 0.708333 0.625000 Ti
0.875000 0.708333 0.750000 Ti
0.375000 0.708333 0.750000 Ti
0.125000 0.208333 0.562500 Ti
0.625000 0.208333 0.562500 Ti
0.125000 0.208333 0.687500 Ti
0.625000 0.208333 0.687500 Ti
0.125000 0.208333 0.812500 Ti
0.625000 0.208333 0.812500 Ti
0.125000 0.541667 0.562500 Ti
0.625000 0.541667 0.562500 Ti
0.125000 0.541667 0.687500 Ti
0.625000 0.541667 0.687500 Ti
0.125000 0.541667 0.812500 Ti
0.625000 0.541667 0.812500 Ti
0.125000 0.875000 0.562500 Ti
0.625000 0.875000 0.562500 Ti
0.125000 0.875000 0.687500 Ti
0.625000 0.875000 0.687500 Ti
0.125000 0.875000 0.812500 Ti
0.625000 0.875000 0.812500 Ti
