alpha_Ti
1.0
4.756510 0.000000 0.000000
0.000000 4.675430 0.000000
0.000000 0.000000 20.311761
Ti
12
direct
0.333333 0.750000 0.354700 Ti
0.333333 0.750000 0.212821 Ti
0.333333 0.750000 0.070940 Ti
0.833334 0.750000 0.283761 Ti
0.833334 0.750000 0.141881 Ti
0.833334 0.750000 -0.000000 Ti
0.166666 0.250000 0.283760 Ti
0.166666 0.250000 0.141881 Ti
0.166666 0.250000 -0.000000 Ti
0.666667 0.250000 0.354700 Ti
0.666667 0.250000 0.212821 Ti
0.666667 0.250000 0.070940 Ti
