total_Ti
1.0
8.805261 0.000000 0.000000
-4.402631 7.625580 0.000000
0.000000 0.000000 36.883422
Ti
90
direct
0.967272 0.027818 0.555441 Ti
0.967272 0.527818 0.555441 Ti
0.467272 0.027818 0.555441 Ti
0.467272 0.527818 0.555441 Ti
0.133938 0.361151 0.730919 Ti
0.133938 0.861151 0.730919 Ti
0.633938 0.361151 0.730919 Ti
0.633938 0.861151 0.730919 Ti
0.300605 0.194485 0.755987 Ti
0.300605 0.694485 0.755987 Ti
0.800605 0.194485 0.755987 Ti
0.800605 0.694485 0.755987 Ti
0.133938 0.361151 0.580509 Ti
0.133938 0.861151 0.580509 Ti
0.633938 0.361151 0.580509 Ti
0.633938 0.861151 0.580509 Ti
0.300605 0.194485 0.605577 Ti
0.300605 0.694485 0.605577 Ti
0.800605 0.194485 0.605577 Ti
0.800605 0.694485 0.605577 Ti
0.967272 0.027818 0.630646 Ti
0.967272 0.527818 0.630646 Ti
0.467272 0.027818 0.630646 Ti
0.467272 0.527818 0.630646 Ti
0.133938 0.361151 0.655714 Ti
0.133938 0.861151 0.655714 Ti
0.633938 0.361151 0.655714 Ti
0.633938 0.861151 0.655714 Ti
0.300605 0.194485 0.680782 Ti
0.300605 0.694485 0.680782 Ti
0.800605 0.194485 0.680782 Ti
0.800605 0.694485 0.680782 Ti
0.967272 0.027818 0.705851 Ti
0.967272 0.527818 0.705851 Ti
0.467272 0.027818 0.705851 Ti
0.467272 0.527818 0.705851 Ti
0.111111 0.888889 -0.000000 Ti
0.111111 0.888889 0.249143 Ti
0.111111 0.555556 -0.000000 Ti
0.222222 0.777778 0.062286 Ti
0.111111 0.555556 0.249143 Ti
0.444444 0.888889 -0.000000 Ti
0.111111 0.222222 -0.000000 Ti
0.222222 0.777778 0.311429 Ti
0.222222 0.444444 0.062286 Ti
0.444444 0.888889 0.249143 Ti
0.111111 0.222222 0.249143 Ti
0.444444 0.555556 -0.000000 Ti
0.222222 0.444444 0.311429 Ti
0.555556 0.777778 0.062286 Ti
0.222222 0.111111 0.062286 Ti
0.444444 0.555556 0.249143 Ti
0.777778 0.888889 -0.000000 Ti
0.444444 0.222222 -0.000000 Ti
0.555556 0.777778 0.311429 Ti
0.222222 0.111111 0.311429 Ti
0.555556 0.444444 0.062286 Ti
0.777778 0.888889 0.249143 Ti
0.444444 0.222222 0.249143 Ti
0.777778 0.555556 -0.000000 Ti
0.555556 0.444444 0.311429 Ti
0.888889 0.777778 0.062286 Ti
0.555556 0.111111 0.062286 Ti
0.777778 0.555556 0.249143 Ti
0.777778 0.222222 -0.000000 Ti
0.888889 0.777778 0.311429 Ti
0.555556 0.111111 0.311429 Ti
0.888889 0.444444 0.062286 Ti
0.777778 0.222222 0.249143 Ti
0.888889 0.444444 0.311429 Ti
0.888889 0.111111 0.062286 Ti
0.888889 0.111111 0.311429 Ti
0.111111 0.888889 0.124571 Ti
0.111111 0.555556 0.124571 Ti
0.222222 0.777778 0.186857 Ti
0.444444 0.888889 0.124571 Ti
0.111111 0.222222 0.124571 Ti
0.222222 0.444444 0.186857 Ti
0.444444 0.555556 0.124571 Ti
0.555556 0.777778 0.186857 Ti
0.222222 0.111111 0.186857 Ti
0.777778 0.888889 0.124571 Ti
0.444444 0.222222 0.124571 Ti
0.555556 0.444444 0.186857 Ti
0.777778 0.555556 0.124571 Ti
0.888889 0.777778 0.186857 Ti
0.555556 0.111111 0.186857 Ti
0.777778 0.222222 0.124571 Ti
0.888889 0.444444 0.186857 Ti
0.888889 0.111111 0.186857 Ti
