total_Ti
1.0
4.756512 0.000000 0.000000
0.000000 4.675432 0.000000
0.000000 0.000000 19.411800
Ti
24
direct
0.333333 0.750000 0.371145 Ti
0.333333 0.750000 0.222687 Ti
0.333333 0.750000 0.074229 Ti
0.833334 0.750000 0.296916 Ti
0.833334 0.750000 0.148458 Ti
0.833334 0.750000 -0.000000 Ti
0.166666 0.250000 0.296916 Ti
0.166666 0.250000 0.148458 Ti
0.166666 0.250000 -0.000000 Ti
0.666667 0.250000 0.371145 Ti
0.666667 0.250000 0.222687 Ti
0.666667 0.250000 0.074229 Ti
0.666667 0.750000 0.891821 Ti
0.166667 0.250000 0.891821 Ti
0.166667 0.750000 0.809322 Ti
0.666667 0.250000 0.809322 Ti
0.666667 0.750000 0.726823 Ti
0.166667 0.250000 0.726823 Ti
0.166667 0.750000 0.644325 Ti
0.666667 0.250000 0.644325 Ti
0.666667 0.750000 0.561826 Ti
0.166667 0.250000 0.561826 Ti
0.166667 0.750000 0.479327 Ti
0.666667 0.250000 0.479327 Ti
