total_Ti
1.0
4.756512 0.000000 0.000000
0.000000 4.675432 0.000000
0.000000 0.000000 21.211800
Ti
24
direct
0.333333 0.750000 0.339651 Ti
0.333333 0.750000 0.203790 Ti
0.333333 0.750000 0.067930 Ti
0.833334 0.750000 0.271721 Ti
0.833334 0.750000 0.135860 Ti
0.833334 0.750000 -0.000000 Ti
0.166666 0.250000 0.271720 Ti
0.166666 0.250000 0.135860 Ti
0.166666 0.250000 -0.000000 Ti
0.666667 0.250000 0.339651 Ti
0.666667 0.250000 0.203790 Ti
0.666667 0.250000 0.067930 Ti
0.666667 0.750000 0.858572 Ti
0.166667 0.250000 0.858572 Ti
0.166667 0.750000 0.783074 Ti
0.666667 0.250000 0.783074 Ti
0.666667 0.750000 0.707575 Ti
0.166667 0.250000 0.707575 Ti
0.166667 0.750000 0.632077 Ti
0.666667 0.250000 0.632077 Ti
0.666667 0.750000 0.556579 Ti
0.166667 0.250000 0.556579 Ti
0.166667 0.750000 0.481081 Ti
0.666667 0.250000 0.481081 Ti
